    1C
    1UUSER                                                              
    1UDATE              26.december.2019                                
    1UTIME              12:45:51                                        
    1UHOST                                                              
    1UPGM               CalculiX                                        
    1UVERSION           Version 2.11                             
    1UCOMPILETIME       So 31. Jul 13:26:31 CEST 2016                    
    1UDIR                                                               
    1UDBN                                                               
    1UMAT    1STEEL                                                     
    2C                           621                                     1
 -1         1 1.00000E-01 1.47800E-01 0.00000E+00
 -1         2 1.00000E-01 7.39000E-02 0.00000E+00
 -1         3 1.00000E-01 7.39000E-02 5.00000E-01
 -1         4 1.00000E-01 1.47800E-01 5.00000E-01
 -1         5 5.00000E-02 1.47800E-01 0.00000E+00
 -1         6 5.00000E-02 7.39000E-02-1.77636E-15
 -1         7 5.00000E-02 7.39000E-02 5.00000E-01
 -1         8 5.00000E-02 1.47800E-01 5.00000E-01
 -1         9 1.00000E-01 1.10850E-01 0.00000E+00
 -1        10 1.00000E-01 7.39000E-02 2.50000E-01
 -1        11 1.00000E-01 1.10850E-01 5.00000E-01
 -1        12 1.00000E-01 1.47800E-01 2.50000E-01
 -1        13 7.50000E-02 1.47800E-01 0.00000E+00
 -1        14 7.50000E-02 7.39000E-02 0.00000E+00
 -1        15 7.50000E-02 7.39000E-02 5.00000E-01
 -1        16 7.50000E-02 1.47800E-01 5.00000E-01
 -1        17 5.00000E-02 1.10850E-01 8.88178E-16
 -1        18 5.00000E-02 7.39000E-02 2.50000E-01
 -1        19 5.00000E-02 1.10850E-01 5.00000E-01
 -1        20 5.00000E-02 1.47800E-01 2.50000E-01
 -1        21 1.00000E-01 7.39000E-02 1.00000E+00
 -1        22 1.00000E-01 1.47800E-01 1.00000E+00
 -1        23 5.00000E-02 7.39000E-02 1.00000E+00
 -1        24 5.00000E-02 1.47800E-01 1.00000E+00
 -1        25 1.00000E-01 7.39000E-02 7.50000E-01
 -1        26 1.00000E-01 1.10850E-01 1.00000E+00
 -1        27 1.00000E-01 1.47800E-01 7.50000E-01
 -1        28 7.50000E-02 7.39000E-02 1.00000E+00
 -1        29 7.50000E-02 1.47800E-01 1.00000E+00
 -1        30 5.00000E-02 7.39000E-02 7.50000E-01
 -1        31 5.00000E-02 1.10850E-01 1.00000E+00
 -1        32 5.00000E-02 1.47800E-01 7.50000E-01
 -1        33 1.00000E-01 7.39000E-02 1.50000E+00
 -1        34 1.00000E-01 1.47800E-01 1.50000E+00
 -1        35 5.00000E-02 7.39000E-02 1.50000E+00
 -1        36 5.00000E-02 1.47800E-01 1.50000E+00
 -1        37 1.00000E-01 7.39000E-02 1.25000E+00
 -1        38 1.00000E-01 1.10850E-01 1.50000E+00
 -1        39 1.00000E-01 1.47800E-01 1.25000E+00
 -1        40 7.50000E-02 7.39000E-02 1.50000E+00
 -1        41 7.50000E-02 1.47800E-01 1.50000E+00
 -1        42 5.00000E-02 7.39000E-02 1.25000E+00
 -1        43 5.00000E-02 1.10850E-01 1.50000E+00
 -1        44 5.00000E-02 1.47800E-01 1.25000E+00
 -1        45 1.00000E-01 7.39000E-02 2.00000E+00
 -1        46 1.00000E-01 1.47800E-01 2.00000E+00
 -1        47 5.00000E-02 7.39000E-02 2.00000E+00
 -1        48 5.00000E-02 1.47800E-01 2.00000E+00
 -1        49 1.00000E-01 7.39000E-02 1.75000E+00
 -1        50 1.00000E-01 1.10850E-01 2.00000E+00
 -1        51 1.00000E-01 1.47800E-01 1.75000E+00
 -1        52 7.50000E-02 7.39000E-02 2.00000E+00
 -1        53 7.50000E-02 1.47800E-01 2.00000E+00
 -1        54 5.00000E-02 7.39000E-02 1.75000E+00
 -1        55 5.00000E-02 1.10850E-01 2.00000E+00
 -1        56 5.00000E-02 1.47800E-01 1.75000E+00
 -1        57 1.00000E-01 7.39000E-02 2.50000E+00
 -1        58 1.00000E-01 1.47800E-01 2.50000E+00
 -1        59 5.00000E-02 7.39000E-02 2.50000E+00
 -1        60 5.00000E-02 1.47800E-01 2.50000E+00
 -1        61 1.00000E-01 7.39000E-02 2.25000E+00
 -1        62 1.00000E-01 1.10850E-01 2.50000E+00
 -1        63 1.00000E-01 1.47800E-01 2.25000E+00
 -1        64 7.50000E-02 7.39000E-02 2.50000E+00
 -1        65 7.50000E-02 1.47800E-01 2.50000E+00
 -1        66 5.00000E-02 7.39000E-02 2.25000E+00
 -1        67 5.00000E-02 1.10850E-01 2.50000E+00
 -1        68 5.00000E-02 1.47800E-01 2.25000E+00
 -1        69 1.00000E-01 7.39000E-02 3.00000E+00
 -1        70 1.00000E-01 1.47800E-01 3.00000E+00
 -1        71 5.00000E-02 7.39000E-02 3.00000E+00
 -1        72 5.00000E-02 1.47800E-01 3.00000E+00
 -1        73 1.00000E-01 7.39000E-02 2.75000E+00
 -1        74 1.00000E-01 1.10850E-01 3.00000E+00
 -1        75 1.00000E-01 1.47800E-01 2.75000E+00
 -1        76 7.50000E-02 7.39000E-02 3.00000E+00
 -1        77 7.50000E-02 1.47800E-01 3.00000E+00
 -1        78 5.00000E-02 7.39000E-02 2.75000E+00
 -1        79 5.00000E-02 1.10850E-01 3.00000E+00
 -1        80 5.00000E-02 1.47800E-01 2.75000E+00
 -1        81 1.00000E-01 7.39000E-02 3.50000E+00
 -1        82 1.00000E-01 1.47800E-01 3.50000E+00
 -1        83 5.00000E-02 7.39000E-02 3.50000E+00
 -1        84 5.00000E-02 1.47800E-01 3.50000E+00
 -1        85 1.00000E-01 7.39000E-02 3.25000E+00
 -1        86 1.00000E-01 1.10850E-01 3.50000E+00
 -1        87 1.00000E-01 1.47800E-01 3.25000E+00
 -1        88 7.50000E-02 7.39000E-02 3.50000E+00
 -1        89 7.50000E-02 1.47800E-01 3.50000E+00
 -1        90 5.00000E-02 7.39000E-02 3.25000E+00
 -1        91 5.00000E-02 1.10850E-01 3.50000E+00
 -1        92 5.00000E-02 1.47800E-01 3.25000E+00
 -1        93 1.00000E-01 7.39000E-02 4.00000E+00
 -1        94 1.00000E-01 1.47800E-01 4.00000E+00
 -1        95 5.00000E-02 7.39000E-02 4.00000E+00
 -1        96 5.00000E-02 1.47800E-01 4.00000E+00
 -1        97 1.00000E-01 7.39000E-02 3.75000E+00
 -1        98 1.00000E-01 1.10850E-01 4.00000E+00
 -1        99 1.00000E-01 1.47800E-01 3.75000E+00
 -1       100 7.50000E-02 7.39000E-02 4.00000E+00
 -1       101 7.50000E-02 1.47800E-01 4.00000E+00
 -1       102 5.00000E-02 7.39000E-02 3.75000E+00
 -1       103 5.00000E-02 1.10850E-01 4.00000E+00
 -1       104 5.00000E-02 1.47800E-01 3.75000E+00
 -1       105 1.00000E-01 7.39000E-02 4.50000E+00
 -1       106 1.00000E-01 1.47800E-01 4.50000E+00
 -1       107 5.00000E-02 7.39000E-02 4.50000E+00
 -1       108 5.00000E-02 1.47800E-01 4.50000E+00
 -1       109 1.00000E-01 7.39000E-02 4.25000E+00
 -1       110 1.00000E-01 1.10850E-01 4.50000E+00
 -1       111 1.00000E-01 1.47800E-01 4.25000E+00
 -1       112 7.50000E-02 7.39000E-02 4.50000E+00
 -1       113 7.50000E-02 1.47800E-01 4.50000E+00
 -1       114 5.00000E-02 7.39000E-02 4.25000E+00
 -1       115 5.00000E-02 1.10850E-01 4.50000E+00
 -1       116 5.00000E-02 1.47800E-01 4.25000E+00
 -1       117 1.00000E-01 7.39000E-02 5.00000E+00
 -1       118 1.00000E-01 1.47800E-01 5.00000E+00
 -1       119 5.00000E-02 7.39000E-02 5.00000E+00
 -1       120 5.00000E-02 1.47800E-01 5.00000E+00
 -1       121 1.00000E-01 7.39000E-02 4.75000E+00
 -1       122 1.00000E-01 1.10850E-01 5.00000E+00
 -1       123 1.00000E-01 1.47800E-01 4.75000E+00
 -1       124 7.50000E-02 7.39000E-02 5.00000E+00
 -1       125 7.50000E-02 1.47800E-01 5.00000E+00
 -1       126 5.00000E-02 7.39000E-02 4.75000E+00
 -1       127 5.00000E-02 1.10850E-01 5.00000E+00
 -1       128 5.00000E-02 1.47800E-01 4.75000E+00
 -1       129 1.00000E-01 7.39000E-02 5.50000E+00
 -1       130 1.00000E-01 1.47800E-01 5.50000E+00
 -1       131 5.00000E-02 7.39000E-02 5.50000E+00
 -1       132 5.00000E-02 1.47800E-01 5.50000E+00
 -1       133 1.00000E-01 7.39000E-02 5.25000E+00
 -1       134 1.00000E-01 1.10850E-01 5.50000E+00
 -1       135 1.00000E-01 1.47800E-01 5.25000E+00
 -1       136 7.50000E-02 7.39000E-02 5.50000E+00
 -1       137 7.50000E-02 1.47800E-01 5.50000E+00
 -1       138 5.00000E-02 7.39000E-02 5.25000E+00
 -1       139 5.00000E-02 1.10850E-01 5.50000E+00
 -1       140 5.00000E-02 1.47800E-01 5.25000E+00
 -1       141 1.00000E-01 7.39000E-02 6.00000E+00
 -1       142 1.00000E-01 1.47800E-01 6.00000E+00
 -1       143 5.00000E-02 7.39000E-02 6.00000E+00
 -1       144 5.00000E-02 1.47800E-01 6.00000E+00
 -1       145 1.00000E-01 7.39000E-02 5.75000E+00
 -1       146 1.00000E-01 1.10850E-01 6.00000E+00
 -1       147 1.00000E-01 1.47800E-01 5.75000E+00
 -1       148 7.50000E-02 7.39000E-02 6.00000E+00
 -1       149 7.50000E-02 1.47800E-01 6.00000E+00
 -1       150 5.00000E-02 7.39000E-02 5.75000E+00
 -1       151 5.00000E-02 1.10850E-01 6.00000E+00
 -1       152 5.00000E-02 1.47800E-01 5.75000E+00
 -1       153 1.00000E-01 7.39000E-02 6.50000E+00
 -1       154 1.00000E-01 1.47800E-01 6.50000E+00
 -1       155 5.00000E-02 7.39000E-02 6.50000E+00
 -1       156 5.00000E-02 1.47800E-01 6.50000E+00
 -1       157 1.00000E-01 7.39000E-02 6.25000E+00
 -1       158 1.00000E-01 1.10850E-01 6.50000E+00
 -1       159 1.00000E-01 1.47800E-01 6.25000E+00
 -1       160 7.50000E-02 7.39000E-02 6.50000E+00
 -1       161 7.50000E-02 1.47800E-01 6.50000E+00
 -1       162 5.00000E-02 7.39000E-02 6.25000E+00
 -1       163 5.00000E-02 1.10850E-01 6.50000E+00
 -1       164 5.00000E-02 1.47800E-01 6.25000E+00
 -1       165 1.00000E-01 7.39000E-02 7.00000E+00
 -1       166 1.00000E-01 1.47800E-01 7.00000E+00
 -1       167 5.00000E-02 7.39000E-02 7.00000E+00
 -1       168 5.00000E-02 1.47800E-01 7.00000E+00
 -1       169 1.00000E-01 7.39000E-02 6.75000E+00
 -1       170 1.00000E-01 1.10850E-01 7.00000E+00
 -1       171 1.00000E-01 1.47800E-01 6.75000E+00
 -1       172 7.50000E-02 7.39000E-02 7.00000E+00
 -1       173 7.50000E-02 1.47800E-01 7.00000E+00
 -1       174 5.00000E-02 7.39000E-02 6.75000E+00
 -1       175 5.00000E-02 1.10850E-01 7.00000E+00
 -1       176 5.00000E-02 1.47800E-01 6.75000E+00
 -1       177 1.00000E-01 7.39000E-02 7.50000E+00
 -1       178 1.00000E-01 1.47800E-01 7.50000E+00
 -1       179 5.00000E-02 7.39000E-02 7.50000E+00
 -1       180 5.00000E-02 1.47800E-01 7.50000E+00
 -1       181 1.00000E-01 7.39000E-02 7.25000E+00
 -1       182 1.00000E-01 1.10850E-01 7.50000E+00
 -1       183 1.00000E-01 1.47800E-01 7.25000E+00
 -1       184 7.50000E-02 7.39000E-02 7.50000E+00
 -1       185 7.50000E-02 1.47800E-01 7.50000E+00
 -1       186 5.00000E-02 7.39000E-02 7.25000E+00
 -1       187 5.00000E-02 1.10850E-01 7.50000E+00
 -1       188 5.00000E-02 1.47800E-01 7.25000E+00
 -1       189 1.00000E-01 7.39000E-02 8.00000E+00
 -1       190 1.00000E-01 1.47800E-01 8.00000E+00
 -1       191 5.00000E-02 7.39000E-02 8.00000E+00
 -1       192 5.00000E-02 1.47800E-01 8.00000E+00
 -1       193 1.00000E-01 7.39000E-02 7.75000E+00
 -1       194 1.00000E-01 1.10850E-01 8.00000E+00
 -1       195 1.00000E-01 1.47800E-01 7.75000E+00
 -1       196 7.50000E-02 7.39000E-02 8.00000E+00
 -1       197 7.50000E-02 1.47800E-01 8.00000E+00
 -1       198 5.00000E-02 7.39000E-02 7.75000E+00
 -1       199 5.00000E-02 1.10850E-01 8.00000E+00
 -1       200 5.00000E-02 1.47800E-01 7.75000E+00
 -1       201 1.00000E-01 7.39000E-02 8.50000E+00
 -1       202 1.00000E-01 1.47800E-01 8.50000E+00
 -1       203 5.00000E-02 7.39000E-02 8.50000E+00
 -1       204 5.00000E-02 1.47800E-01 8.50000E+00
 -1       205 1.00000E-01 7.39000E-02 8.25000E+00
 -1       206 1.00000E-01 1.10850E-01 8.50000E+00
 -1       207 1.00000E-01 1.47800E-01 8.25000E+00
 -1       208 7.50000E-02 7.39000E-02 8.50000E+00
 -1       209 7.50000E-02 1.47800E-01 8.50000E+00
 -1       210 5.00000E-02 7.39000E-02 8.25000E+00
 -1       211 5.00000E-02 1.10850E-01 8.50000E+00
 -1       212 5.00000E-02 1.47800E-01 8.25000E+00
 -1       213 1.00000E-01 7.39000E-02 9.00000E+00
 -1       214 1.00000E-01 1.47800E-01 9.00000E+00
 -1       215 5.00000E-02 7.39000E-02 9.00000E+00
 -1       216 5.00000E-02 1.47800E-01 9.00000E+00
 -1       217 1.00000E-01 7.39000E-02 8.75000E+00
 -1       218 1.00000E-01 1.10850E-01 9.00000E+00
 -1       219 1.00000E-01 1.47800E-01 8.75000E+00
 -1       220 7.50000E-02 7.39000E-02 9.00000E+00
 -1       221 7.50000E-02 1.47800E-01 9.00000E+00
 -1       222 5.00000E-02 7.39000E-02 8.75000E+00
 -1       223 5.00000E-02 1.10850E-01 9.00000E+00
 -1       224 5.00000E-02 1.47800E-01 8.75000E+00
 -1       225 1.00000E-01 7.39000E-02 9.50000E+00
 -1       226 1.00000E-01 1.47800E-01 9.50000E+00
 -1       227 5.00000E-02 7.39000E-02 9.50000E+00
 -1       228 5.00000E-02 1.47800E-01 9.50000E+00
 -1       229 1.00000E-01 7.39000E-02 9.25000E+00
 -1       230 1.00000E-01 1.10850E-01 9.50000E+00
 -1       231 1.00000E-01 1.47800E-01 9.25000E+00
 -1       232 7.50000E-02 7.39000E-02 9.50000E+00
 -1       233 7.50000E-02 1.47800E-01 9.50000E+00
 -1       234 5.00000E-02 7.39000E-02 9.25000E+00
 -1       235 5.00000E-02 1.10850E-01 9.50000E+00
 -1       236 5.00000E-02 1.47800E-01 9.25000E+00
 -1       237 1.00000E-01 7.39000E-02 1.00000E+01
 -1       238 1.00000E-01 1.47800E-01 1.00000E+01
 -1       239 5.00000E-02 7.39000E-02 1.00000E+01
 -1       240 5.00000E-02 1.47800E-01 1.00000E+01
 -1       241 1.00000E-01 7.39000E-02 9.75000E+00
 -1       242 1.00000E-01 1.10850E-01 1.00000E+01
 -1       243 1.00000E-01 1.47800E-01 9.75000E+00
 -1       244 7.50000E-02 7.39000E-02 1.00000E+01
 -1       245 7.50000E-02 1.47800E-01 1.00000E+01
 -1       246 5.00000E-02 7.39000E-02 9.75000E+00
 -1       247 5.00000E-02 1.10850E-01 1.00000E+01
 -1       248 5.00000E-02 1.47800E-01 9.75000E+00
 -1       249 0.00000E+00 1.47800E-01 0.00000E+00
 -1       250 0.00000E+00 7.39000E-02 0.00000E+00
 -1       251 0.00000E+00 7.39000E-02 5.00000E-01
 -1       252 0.00000E+00 1.47800E-01 5.00000E-01
 -1       253 2.50000E-02 1.47800E-01 0.00000E+00
 -1       254 2.50000E-02 7.39000E-02 8.88178E-16
 -1       255 2.50000E-02 7.39000E-02 5.00000E-01
 -1       256 2.50000E-02 1.47800E-01 5.00000E-01
 -1       257 0.00000E+00 1.10850E-01 0.00000E+00
 -1       258 0.00000E+00 7.39000E-02 2.50000E-01
 -1       259 0.00000E+00 1.10850E-01 5.00000E-01
 -1       260 0.00000E+00 1.47800E-01 2.50000E-01
 -1       261 0.00000E+00 7.39000E-02 1.00000E+00
 -1       262 0.00000E+00 1.47800E-01 1.00000E+00
 -1       263 2.50000E-02 7.39000E-02 1.00000E+00
 -1       264 2.50000E-02 1.47800E-01 1.00000E+00
 -1       265 0.00000E+00 7.39000E-02 7.50000E-01
 -1       266 1.38778E-17 1.10850E-01 1.00000E+00
 -1       267 0.00000E+00 1.47800E-01 7.50000E-01
 -1       268 0.00000E+00 7.39000E-02 1.50000E+00
 -1       269 0.00000E+00 1.47800E-01 1.50000E+00
 -1       270 2.50000E-02 7.39000E-02 1.50000E+00
 -1       271 2.50000E-02 1.47800E-01 1.50000E+00
 -1       272 0.00000E+00 7.39000E-02 1.25000E+00
 -1       273 0.00000E+00 1.10850E-01 1.50000E+00
 -1       274 0.00000E+00 1.47800E-01 1.25000E+00
 -1       275 0.00000E+00 7.39000E-02 2.00000E+00
 -1       276 0.00000E+00 1.47800E-01 2.00000E+00
 -1       277 2.50000E-02 7.39000E-02 2.00000E+00
 -1       278 2.50000E-02 1.47800E-01 2.00000E+00
 -1       279 0.00000E+00 7.39000E-02 1.75000E+00
 -1       280 0.00000E+00 1.10850E-01 2.00000E+00
 -1       281 0.00000E+00 1.47800E-01 1.75000E+00
 -1       282 0.00000E+00 7.39000E-02 2.50000E+00
 -1       283 0.00000E+00 1.47800E-01 2.50000E+00
 -1       284 2.50000E-02 7.39000E-02 2.50000E+00
 -1       285 2.50000E-02 1.47800E-01 2.50000E+00
 -1       286 0.00000E+00 7.39000E-02 2.25000E+00
 -1       287 1.38778E-17 1.10850E-01 2.50000E+00
 -1       288 0.00000E+00 1.47800E-01 2.25000E+00
 -1       289 0.00000E+00 7.39000E-02 3.00000E+00
 -1       290 0.00000E+00 1.47800E-01 3.00000E+00
 -1       291 2.50000E-02 7.39000E-02 3.00000E+00
 -1       292 2.50000E-02 1.47800E-01 3.00000E+00
 -1       293 0.00000E+00 7.39000E-02 2.75000E+00
 -1       294-6.93889E-18 1.10850E-01 3.00000E+00
 -1       295 0.00000E+00 1.47800E-01 2.75000E+00
 -1       296 2.08167E-17 7.39000E-02 3.50000E+00
 -1       297 0.00000E+00 1.47800E-01 3.50000E+00
 -1       298 2.50000E-02 7.39000E-02 3.50000E+00
 -1       299 2.50000E-02 1.47800E-01 3.50000E+00
 -1       300 2.08167E-17 7.39000E-02 3.25000E+00
 -1       301 0.00000E+00 1.10850E-01 3.50000E+00
 -1       302 0.00000E+00 1.47800E-01 3.25000E+00
 -1       303 0.00000E+00 7.39000E-02 4.00000E+00
 -1       304 0.00000E+00 1.47800E-01 4.00000E+00
 -1       305 2.50000E-02 7.39000E-02 4.00000E+00
 -1       306 2.50000E-02 1.47800E-01 4.00000E+00
 -1       307 0.00000E+00 7.39000E-02 3.75000E+00
 -1       308-6.93889E-18 1.10850E-01 4.00000E+00
 -1       309 0.00000E+00 1.47800E-01 3.75000E+00
 -1       310 0.00000E+00 7.39000E-02 4.50000E+00
 -1       311 0.00000E+00 1.47800E-01 4.50000E+00
 -1       312 2.50000E-02 7.39000E-02 4.50000E+00
 -1       313 2.50000E-02 1.47800E-01 4.50000E+00
 -1       314 0.00000E+00 7.39000E-02 4.25000E+00
 -1       315 1.38778E-17 1.10850E-01 4.50000E+00
 -1       316 0.00000E+00 1.47800E-01 4.25000E+00
 -1       317 0.00000E+00 7.39000E-02 5.00000E+00
 -1       318 0.00000E+00 1.47800E-01 5.00000E+00
 -1       319 2.50000E-02 7.39000E-02 5.00000E+00
 -1       320 2.50000E-02 1.47800E-01 5.00000E+00
 -1       321 2.08167E-17 7.39000E-02 4.75000E+00
 -1       322 0.00000E+00 1.10850E-01 5.00000E+00
 -1       323 0.00000E+00 1.47800E-01 4.75000E+00
 -1       324 0.00000E+00 7.39000E-02 5.50000E+00
 -1       325 0.00000E+00 1.47800E-01 5.50000E+00
 -1       326 2.50000E-02 7.39000E-02 5.50000E+00
 -1       327 2.50000E-02 1.47800E-01 5.50000E+00
 -1       328 2.08167E-17 7.39000E-02 5.25000E+00
 -1       329 0.00000E+00 1.10850E-01 5.50000E+00
 -1       330 0.00000E+00 1.47800E-01 5.25000E+00
 -1       331 0.00000E+00 7.39000E-02 6.00000E+00
 -1       332 0.00000E+00 1.47800E-01 6.00000E+00
 -1       333 2.50000E-02 7.39000E-02 6.00000E+00
 -1       334 2.50000E-02 1.47800E-01 6.00000E+00
 -1       335 0.00000E+00 7.39000E-02 5.75000E+00
 -1       336 0.00000E+00 1.10850E-01 6.00000E+00
 -1       337 0.00000E+00 1.47800E-01 5.75000E+00
 -1       338 0.00000E+00 7.39000E-02 6.50000E+00
 -1       339 0.00000E+00 1.47800E-01 6.50000E+00
 -1       340 2.50000E-02 7.39000E-02 6.50000E+00
 -1       341 2.50000E-02 1.47800E-01 6.50000E+00
 -1       342 0.00000E+00 7.39000E-02 6.25000E+00
 -1       343 1.38778E-17 1.10850E-01 6.50000E+00
 -1       344 0.00000E+00 1.47800E-01 6.25000E+00
 -1       345 0.00000E+00 7.39000E-02 7.00000E+00
 -1       346 0.00000E+00 1.47800E-01 7.00000E+00
 -1       347 2.50000E-02 7.39000E-02 7.00000E+00
 -1       348 2.50000E-02 1.47800E-01 7.00000E+00
 -1       349 0.00000E+00 7.39000E-02 6.75000E+00
 -1       350 0.00000E+00 1.10850E-01 7.00000E+00
 -1       351 0.00000E+00 1.47800E-01 6.75000E+00
 -1       352 0.00000E+00 7.39000E-02 7.50000E+00
 -1       353 0.00000E+00 1.47800E-01 7.50000E+00
 -1       354 2.50000E-02 7.39000E-02 7.50000E+00
 -1       355 2.50000E-02 1.47800E-01 7.50000E+00
 -1       356 0.00000E+00 7.39000E-02 7.25000E+00
 -1       357 1.38778E-17 1.10850E-01 7.50000E+00
 -1       358 0.00000E+00 1.47800E-01 7.25000E+00
 -1       359 0.00000E+00 7.39000E-02 8.00000E+00
 -1       360 0.00000E+00 1.47800E-01 8.00000E+00
 -1       361 2.50000E-02 7.39000E-02 8.00000E+00
 -1       362 2.50000E-02 1.47800E-01 8.00000E+00
 -1       363 0.00000E+00 7.39000E-02 7.75000E+00
 -1       364 0.00000E+00 1.10850E-01 8.00000E+00
 -1       365 0.00000E+00 1.47800E-01 7.75000E+00
 -1       366 0.00000E+00 7.39000E-02 8.50000E+00
 -1       367 0.00000E+00 1.47800E-01 8.50000E+00
 -1       368 2.50000E-02 7.39000E-02 8.50000E+00
 -1       369 2.50000E-02 1.47800E-01 8.50000E+00
 -1       370 2.08167E-17 7.39000E-02 8.25000E+00
 -1       371 0.00000E+00 1.10850E-01 8.50000E+00
 -1       372 0.00000E+00 1.47800E-01 8.25000E+00
 -1       373 0.00000E+00 7.39000E-02 9.00000E+00
 -1       374 0.00000E+00 1.47800E-01 9.00000E+00
 -1       375 2.50000E-02 7.39000E-02 9.00000E+00
 -1       376 2.50000E-02 1.47800E-01 9.00000E+00
 -1       377 0.00000E+00 7.39000E-02 8.75000E+00
 -1       378 1.38778E-17 1.10850E-01 9.00000E+00
 -1       379 0.00000E+00 1.47800E-01 8.75000E+00
 -1       380-6.93889E-18 7.39000E-02 9.50000E+00
 -1       381 0.00000E+00 1.47800E-01 9.50000E+00
 -1       382 2.50000E-02 7.39000E-02 9.50000E+00
 -1       383 2.50000E-02 1.47800E-01 9.50000E+00
 -1       384-6.93889E-18 7.39000E-02 9.25000E+00
 -1       385 1.38778E-17 1.10850E-01 9.50000E+00
 -1       386 0.00000E+00 1.47800E-01 9.25000E+00
 -1       387 0.00000E+00 7.39000E-02 1.00000E+01
 -1       388 0.00000E+00 1.47800E-01 1.00000E+01
 -1       389 2.50000E-02 7.39000E-02 1.00000E+01
 -1       390 2.50000E-02 1.47800E-01 1.00000E+01
 -1       391 0.00000E+00 7.39000E-02 9.75000E+00
 -1       392 0.00000E+00 1.10850E-01 1.00000E+01
 -1       393 0.00000E+00 1.47800E-01 9.75000E+00
 -1       394 1.00000E-01 0.00000E+00 0.00000E+00
 -1       395 1.00000E-01 0.00000E+00 5.00000E-01
 -1       396 5.00000E-02 0.00000E+00 0.00000E+00
 -1       397 5.00000E-02 1.38778E-17 5.00000E-01
 -1       398 1.00000E-01 3.69500E-02 0.00000E+00
 -1       399 1.00000E-01 0.00000E+00 2.50000E-01
 -1       400 1.00000E-01 3.69500E-02 5.00000E-01
 -1       401 7.50000E-02 0.00000E+00 0.00000E+00
 -1       402 7.50000E-02 0.00000E+00 5.00000E-01
 -1       403 5.00000E-02 3.69500E-02 0.00000E+00
 -1       404 5.00000E-02 1.38778E-17 2.50000E-01
 -1       405 5.00000E-02 3.69500E-02 5.00000E-01
 -1       406 1.00000E-01 0.00000E+00 1.00000E+00
 -1       407 5.00000E-02 1.38778E-17 1.00000E+00
 -1       408 1.00000E-01 0.00000E+00 7.50000E-01
 -1       409 1.00000E-01 3.69500E-02 1.00000E+00
 -1       410 7.50000E-02-1.38778E-17 1.00000E+00
 -1       411 5.00000E-02 1.38778E-17 7.50000E-01
 -1       412 5.00000E-02 3.69500E-02 1.00000E+00
 -1       413 1.00000E-01 0.00000E+00 1.50000E+00
 -1       414 5.00000E-02 1.38778E-17 1.50000E+00
 -1       415 1.00000E-01 0.00000E+00 1.25000E+00
 -1       416 1.00000E-01 3.69500E-02 1.50000E+00
 -1       417 7.50000E-02 1.38778E-17 1.50000E+00
 -1       418 5.00000E-02 1.38778E-17 1.25000E+00
 -1       419 5.00000E-02 3.69500E-02 1.50000E+00
 -1       420 1.00000E-01 0.00000E+00 2.00000E+00
 -1       421 5.00000E-02 1.38778E-17 2.00000E+00
 -1       422 1.00000E-01 0.00000E+00 1.75000E+00
 -1       423 1.00000E-01 3.69500E-02 2.00000E+00
 -1       424 7.50000E-02-1.38778E-17 2.00000E+00
 -1       425 5.00000E-02 1.38778E-17 1.75000E+00
 -1       426 5.00000E-02 3.69500E-02 2.00000E+00
 -1       427 1.00000E-01 0.00000E+00 2.50000E+00
 -1       428 5.00000E-02 1.38778E-17 2.50000E+00
 -1       429 1.00000E-01 0.00000E+00 2.25000E+00
 -1       430 1.00000E-01 3.69500E-02 2.50000E+00
 -1       431 7.50000E-02 1.38778E-17 2.50000E+00
 -1       432 5.00000E-02 1.38778E-17 2.25000E+00
 -1       433 5.00000E-02 3.69500E-02 2.50000E+00
 -1       434 1.00000E-01 0.00000E+00 3.00000E+00
 -1       435 5.00000E-02 1.38778E-17 3.00000E+00
 -1       436 1.00000E-01 0.00000E+00 2.75000E+00
 -1       437 1.00000E-01 3.69500E-02 3.00000E+00
 -1       438 7.50000E-02-1.38778E-17 3.00000E+00
 -1       439 5.00000E-02 1.38778E-17 2.75000E+00
 -1       440 5.00000E-02 3.69500E-02 3.00000E+00
 -1       441 1.00000E-01 0.00000E+00 3.50000E+00
 -1       442 5.00000E-02-1.38778E-17 3.50000E+00
 -1       443 1.00000E-01 0.00000E+00 3.25000E+00
 -1       444 1.00000E-01 3.69500E-02 3.50000E+00
 -1       445 7.50000E-02-2.77556E-17 3.50000E+00
 -1       446 5.00000E-02-1.38778E-17 3.25000E+00
 -1       447 5.00000E-02 3.69500E-02 3.50000E+00
 -1       448 1.00000E-01 0.00000E+00 4.00000E+00
 -1       449 5.00000E-02 1.38778E-17 4.00000E+00
 -1       450 1.00000E-01 0.00000E+00 3.75000E+00
 -1       451 1.00000E-01 3.69500E-02 4.00000E+00
 -1       452 7.50000E-02-1.38778E-17 4.00000E+00
 -1       453 5.00000E-02 1.38778E-17 3.75000E+00
 -1       454 5.00000E-02 3.69500E-02 4.00000E+00
 -1       455 1.00000E-01 0.00000E+00 4.50000E+00
 -1       456 5.00000E-02-1.38778E-17 4.50000E+00
 -1       457 1.00000E-01 0.00000E+00 4.25000E+00
 -1       458 1.00000E-01 3.69500E-02 4.50000E+00
 -1       459 7.50000E-02-1.38778E-17 4.50000E+00
 -1       460 5.00000E-02 1.38778E-17 4.25000E+00
 -1       461 5.00000E-02 3.69500E-02 4.50000E+00
 -1       462 1.00000E-01 0.00000E+00 5.00000E+00
 -1       463 5.00000E-02 1.38778E-17 5.00000E+00
 -1       464 1.00000E-01 0.00000E+00 4.75000E+00
 -1       465 1.00000E-01 3.69500E-02 5.00000E+00
 -1       466 7.50000E-02 1.38778E-17 5.00000E+00
 -1       467 5.00000E-02 1.38778E-17 4.75000E+00
 -1       468 5.00000E-02 3.69500E-02 5.00000E+00
 -1       469 1.00000E-01 0.00000E+00 5.50000E+00
 -1       470 5.00000E-02 1.38778E-17 5.50000E+00
 -1       471 1.00000E-01 0.00000E+00 5.25000E+00
 -1       472 1.00000E-01 3.69500E-02 5.50000E+00
 -1       473 7.50000E-02 1.38778E-17 5.50000E+00
 -1       474 5.00000E-02 1.38778E-17 5.25000E+00
 -1       475 5.00000E-02 3.69500E-02 5.50000E+00
 -1       476 1.00000E-01 0.00000E+00 6.00000E+00
 -1       477 5.00000E-02-1.38778E-17 6.00000E+00
 -1       478 1.00000E-01 0.00000E+00 5.75000E+00
 -1       479 1.00000E-01 3.69500E-02 6.00000E+00
 -1       480 7.50000E-02-2.77556E-17 6.00000E+00
 -1       481 5.00000E-02-1.38778E-17 5.75000E+00
 -1       482 5.00000E-02 3.69500E-02 6.00000E+00
 -1       483 1.00000E-01 0.00000E+00 6.50000E+00
 -1       484 5.00000E-02 1.38778E-17 6.50000E+00
 -1       485 1.00000E-01 0.00000E+00 6.25000E+00
 -1       486 1.00000E-01 3.69500E-02 6.50000E+00
 -1       487 7.50000E-02 1.38778E-17 6.50000E+00
 -1       488 5.00000E-02 1.38778E-17 6.25000E+00
 -1       489 5.00000E-02 3.69500E-02 6.50000E+00
 -1       490 1.00000E-01 0.00000E+00 7.00000E+00
 -1       491 5.00000E-02-2.77556E-17 7.00000E+00
 -1       492 1.00000E-01 0.00000E+00 6.75000E+00
 -1       493 1.00000E-01 3.69500E-02 7.00000E+00
 -1       494 7.50000E-02-1.38778E-17 7.00000E+00
 -1       495 5.00000E-02 1.38778E-17 6.75000E+00
 -1       496 5.00000E-02 3.69500E-02 7.00000E+00
 -1       497 1.00000E-01 0.00000E+00 7.50000E+00
 -1       498 5.00000E-02 1.38778E-17 7.50000E+00
 -1       499 1.00000E-01 0.00000E+00 7.25000E+00
 -1       500 1.00000E-01 3.69500E-02 7.50000E+00
 -1       501 7.50000E-02 1.38778E-17 7.50000E+00
 -1       502 5.00000E-02 0.00000E+00 7.25000E+00
 -1       503 5.00000E-02 3.69500E-02 7.50000E+00
 -1       504 1.00000E-01 0.00000E+00 8.00000E+00
 -1       505 5.00000E-02 1.38778E-17 8.00000E+00
 -1       506 1.00000E-01 0.00000E+00 7.75000E+00
 -1       507 1.00000E-01 3.69500E-02 8.00000E+00
 -1       508 7.50000E-02-1.38778E-17 8.00000E+00
 -1       509 5.00000E-02 1.38778E-17 7.75000E+00
 -1       510 5.00000E-02 3.69500E-02 8.00000E+00
 -1       511 1.00000E-01 0.00000E+00 8.50000E+00
 -1       512 5.00000E-02 1.38778E-17 8.50000E+00
 -1       513 1.00000E-01 0.00000E+00 8.25000E+00
 -1       514 1.00000E-01 3.69500E-02 8.50000E+00
 -1       515 7.50000E-02 0.00000E+00 8.50000E+00
 -1       516 5.00000E-02 1.38778E-17 8.25000E+00
 -1       517 5.00000E-02 3.69500E-02 8.50000E+00
 -1       518 1.00000E-01 0.00000E+00 9.00000E+00
 -1       519 5.00000E-02 1.38778E-17 9.00000E+00
 -1       520 1.00000E-01 0.00000E+00 8.75000E+00
 -1       521 1.00000E-01 3.69500E-02 9.00000E+00
 -1       522 7.50000E-02 0.00000E+00 9.00000E+00
 -1       523 5.00000E-02 1.38778E-17 8.75000E+00
 -1       524 5.00000E-02 3.69500E-02 9.00000E+00
 -1       525 1.00000E-01 0.00000E+00 9.50000E+00
 -1       526 5.00000E-02 1.38778E-17 9.50000E+00
 -1       527 1.00000E-01 0.00000E+00 9.25000E+00
 -1       528 1.00000E-01 3.69500E-02 9.50000E+00
 -1       529 7.50000E-02 0.00000E+00 9.50000E+00
 -1       530 5.00000E-02 1.38778E-17 9.25000E+00
 -1       531 5.00000E-02 3.69500E-02 9.50000E+00
 -1       532 1.00000E-01 0.00000E+00 1.00000E+01
 -1       533 5.00000E-02 0.00000E+00 1.00000E+01
 -1       534 1.00000E-01 0.00000E+00 9.75000E+00
 -1       535 1.00000E-01 3.69500E-02 1.00000E+01
 -1       536 7.50000E-02 0.00000E+00 1.00000E+01
 -1       537 5.00000E-02 1.38778E-17 9.75000E+00
 -1       538 5.00000E-02 3.69500E-02 1.00000E+01
 -1       539 0.00000E+00 0.00000E+00 0.00000E+00
 -1       540 0.00000E+00 0.00000E+00 5.00000E-01
 -1       541 2.50000E-02 0.00000E+00 0.00000E+00
 -1       542 2.50000E-02 0.00000E+00 5.00000E-01
 -1       543 0.00000E+00 3.69500E-02 0.00000E+00
 -1       544 0.00000E+00 0.00000E+00 2.50000E-01
 -1       545 0.00000E+00 3.69500E-02 5.00000E-01
 -1       546 0.00000E+00 0.00000E+00 1.00000E+00
 -1       547 2.50000E-02 0.00000E+00 1.00000E+00
 -1       548 0.00000E+00 0.00000E+00 7.50000E-01
 -1       549 0.00000E+00 3.69500E-02 1.00000E+00
 -1       550 0.00000E+00 0.00000E+00 1.50000E+00
 -1       551 2.50000E-02 0.00000E+00 1.50000E+00
 -1       552 0.00000E+00 0.00000E+00 1.25000E+00
 -1       553 0.00000E+00 3.69500E-02 1.50000E+00
 -1       554 0.00000E+00 0.00000E+00 2.00000E+00
 -1       555 2.50000E-02 0.00000E+00 2.00000E+00
 -1       556 0.00000E+00 0.00000E+00 1.75000E+00
 -1       557-6.93889E-18 3.69500E-02 2.00000E+00
 -1       558 0.00000E+00 0.00000E+00 2.50000E+00
 -1       559 2.50000E-02 0.00000E+00 2.50000E+00
 -1       560 0.00000E+00 0.00000E+00 2.25000E+00
 -1       561 0.00000E+00 3.69500E-02 2.50000E+00
 -1       562 0.00000E+00 0.00000E+00 3.00000E+00
 -1       563 2.50000E-02-1.38778E-17 3.00000E+00
 -1       564 0.00000E+00 0.00000E+00 2.75000E+00
 -1       565 0.00000E+00 3.69500E-02 3.00000E+00
 -1       566 0.00000E+00 0.00000E+00 3.50000E+00
 -1       567 2.50000E-02-2.77556E-17 3.50000E+00
 -1       568 0.00000E+00 0.00000E+00 3.25000E+00
 -1       569 0.00000E+00 3.69500E-02 3.50000E+00
 -1       570 0.00000E+00 0.00000E+00 4.00000E+00
 -1       571 2.50000E-02-1.38778E-17 4.00000E+00
 -1       572 0.00000E+00 0.00000E+00 3.75000E+00
 -1       573 0.00000E+00 3.69500E-02 4.00000E+00
 -1       574 0.00000E+00 0.00000E+00 4.50000E+00
 -1       575 2.50000E-02-1.38778E-17 4.50000E+00
 -1       576 0.00000E+00 0.00000E+00 4.25000E+00
 -1       577 0.00000E+00 3.69500E-02 4.50000E+00
 -1       578 0.00000E+00 0.00000E+00 5.00000E+00
 -1       579 2.50000E-02 1.38778E-17 5.00000E+00
 -1       580 0.00000E+00 0.00000E+00 4.75000E+00
 -1       581 0.00000E+00 3.69500E-02 5.00000E+00
 -1       582 0.00000E+00 0.00000E+00 5.50000E+00
 -1       583 2.50000E-02 1.38778E-17 5.50000E+00
 -1       584 0.00000E+00 0.00000E+00 5.25000E+00
 -1       585 0.00000E+00 3.69500E-02 5.50000E+00
 -1       586 0.00000E+00 0.00000E+00 6.00000E+00
 -1       587 2.50000E-02-2.77556E-17 6.00000E+00
 -1       588 0.00000E+00 0.00000E+00 5.75000E+00
 -1       589 0.00000E+00 3.69500E-02 6.00000E+00
 -1       590 0.00000E+00 0.00000E+00 6.50000E+00
 -1       591 2.50000E-02 1.38778E-17 6.50000E+00
 -1       592 0.00000E+00 0.00000E+00 6.25000E+00
 -1       593 0.00000E+00 3.69500E-02 6.50000E+00
 -1       594 0.00000E+00 0.00000E+00 7.00000E+00
 -1       595 2.50000E-02-1.38778E-17 7.00000E+00
 -1       596 0.00000E+00 0.00000E+00 6.75000E+00
 -1       597 0.00000E+00 3.69500E-02 7.00000E+00
 -1       598 0.00000E+00 0.00000E+00 7.50000E+00
 -1       599 2.50000E-02 1.38778E-17 7.50000E+00
 -1       600 0.00000E+00 0.00000E+00 7.25000E+00
 -1       601 0.00000E+00 3.69500E-02 7.50000E+00
 -1       602 0.00000E+00 0.00000E+00 8.00000E+00
 -1       603 2.50000E-02-1.38778E-17 8.00000E+00
 -1       604 0.00000E+00 0.00000E+00 7.75000E+00
 -1       605 0.00000E+00 3.69500E-02 8.00000E+00
 -1       606 0.00000E+00 0.00000E+00 8.50000E+00
 -1       607 2.50000E-02 0.00000E+00 8.50000E+00
 -1       608 0.00000E+00 0.00000E+00 8.25000E+00
 -1       609 0.00000E+00 3.69500E-02 8.50000E+00
 -1       610 0.00000E+00 0.00000E+00 9.00000E+00
 -1       611 2.50000E-02 0.00000E+00 9.00000E+00
 -1       612 0.00000E+00 0.00000E+00 8.75000E+00
 -1       613-6.93889E-18 3.69500E-02 9.00000E+00
 -1       614 0.00000E+00 0.00000E+00 9.50000E+00
 -1       615 2.50000E-02 0.00000E+00 9.50000E+00
 -1       616 0.00000E+00 0.00000E+00 9.25000E+00
 -1       617 0.00000E+00 3.69500E-02 9.50000E+00
 -1       618 0.00000E+00 0.00000E+00 1.00000E+01
 -1       619 2.50000E-02 0.00000E+00 1.00000E+01
 -1       620 0.00000E+00 0.00000E+00 9.75000E+00
 -1       621 0.00000E+00 3.69500E-02 1.00000E+01
 -3
    3C                            80                                     1
 -1         1    4    0    1
 -2         1         2         3         4         5         6         7         8         9        10
 -2        11        12        13        14        15        16        17        18        19        20
 -1         2    4    0    1
 -2         4         3        21        22         8         7        23        24        11        25
 -2        26        27        16        15        28        29        19        30        31        32
 -1         3    4    0    1
 -2        22        21        33        34        24        23        35        36        26        37
 -2        38        39        29        28        40        41        31        42        43        44
 -1         4    4    0    1
 -2        34        33        45        46        36        35        47        48        38        49
 -2        50        51        41        40        52        53        43        54        55        56
 -1         5    4    0    1
 -2        46        45        57        58        48        47        59        60        50        61
 -2        62        63        53        52        64        65        55        66        67        68
 -1         6    4    0    1
 -2        58        57        69        70        60        59        71        72        62        73
 -2        74        75        65        64        76        77        67        78        79        80
 -1         7    4    0    1
 -2        70        69        81        82        72        71        83        84        74        85
 -2        86        87        77        76        88        89        79        90        91        92
 -1         8    4    0    1
 -2        82        81        93        94        84        83        95        96        86        97
 -2        98        99        89        88       100       101        91       102       103       104
 -1         9    4    0    1
 -2        94        93       105       106        96        95       107       108        98       109
 -2       110       111       101       100       112       113       103       114       115       116
 -1        10    4    0    1
 -2       106       105       117       118       108       107       119       120       110       121
 -2       122       123       113       112       124       125       115       126       127       128
 -1        11    4    0    1
 -2       118       117       129       130       120       119       131       132       122       133
 -2       134       135       125       124       136       137       127       138       139       140
 -1        12    4    0    1
 -2       130       129       141       142       132       131       143       144       134       145
 -2       146       147       137       136       148       149       139       150       151       152
 -1        13    4    0    1
 -2       142       141       153       154       144       143       155       156       146       157
 -2       158       159       149       148       160       161       151       162       163       164
 -1        14    4    0    1
 -2       154       153       165       166       156       155       167       168       158       169
 -2       170       171       161       160       172       173       163       174       175       176
 -1        15    4    0    1
 -2       166       165       177       178       168       167       179       180       170       181
 -2       182       183       173       172       184       185       175       186       187       188
 -1        16    4    0    1
 -2       178       177       189       190       180       179       191       192       182       193
 -2       194       195       185       184       196       197       187       198       199       200
 -1        17    4    0    1
 -2       190       189       201       202       192       191       203       204       194       205
 -2       206       207       197       196       208       209       199       210       211       212
 -1        18    4    0    1
 -2       202       201       213       214       204       203       215       216       206       217
 -2       218       219       209       208       220       221       211       222       223       224
 -1        19    4    0    1
 -2       214       213       225       226       216       215       227       228       218       229
 -2       230       231       221       220       232       233       223       234       235       236
 -1        20    4    0    1
 -2       226       225       237       238       228       227       239       240       230       241
 -2       242       243       233       232       244       245       235       246       247       248
 -1        21    4    0    1
 -2         5         6         7         8       249       250       251       252        17        18
 -2        19        20       253       254       255       256       257       258       259       260
 -1        22    4    0    1
 -2         8         7        23        24       252       251       261       262        19        30
 -2        31        32       256       255       263       264       259       265       266       267
 -1        23    4    0    1
 -2        24        23        35        36       262       261       268       269        31        42
 -2        43        44       264       263       270       271       266       272       273       274
 -1        24    4    0    1
 -2        36        35        47        48       269       268       275       276        43        54
 -2        55        56       271       270       277       278       273       279       280       281
 -1        25    4    0    1
 -2        48        47        59        60       276       275       282       283        55        66
 -2        67        68       278       277       284       285       280       286       287       288
 -1        26    4    0    1
 -2        60        59        71        72       283       282       289       290        67        78
 -2        79        80       285       284       291       292       287       293       294       295
 -1        27    4    0    1
 -2        72        71        83        84       290       289       296       297        79        90
 -2        91        92       292       291       298       299       294       300       301       302
 -1        28    4    0    1
 -2        84        83        95        96       297       296       303       304        91       102
 -2       103       104       299       298       305       306       301       307       308       309
 -1        29    4    0    1
 -2        96        95       107       108       304       303       310       311       103       114
 -2       115       116       306       305       312       313       308       314       315       316
 -1        30    4    0    1
 -2       108       107       119       120       311       310       317       318       115       126
 -2       127       128       313       312       319       320       315       321       322       323
 -1        31    4    0    1
 -2       120       119       131       132       318       317       324       325       127       138
 -2       139       140       320       319       326       327       322       328       329       330
 -1        32    4    0    1
 -2       132       131       143       144       325       324       331       332       139       150
 -2       151       152       327       326       333       334       329       335       336       337
 -1        33    4    0    1
 -2       144       143       155       156       332       331       338       339       151       162
 -2       163       164       334       333       340       341       336       342       343       344
 -1        34    4    0    1
 -2       156       155       167       168       339       338       345       346       163       174
 -2       175       176       341       340       347       348       343       349       350       351
 -1        35    4    0    1
 -2       168       167       179       180       346       345       352       353       175       186
 -2       187       188       348       347       354       355       350       356       357       358
 -1        36    4    0    1
 -2       180       179       191       192       353       352       359       360       187       198
 -2       199       200       355       354       361       362       357       363       364       365
 -1        37    4    0    1
 -2       192       191       203       204       360       359       366       367       199       210
 -2       211       212       362       361       368       369       364       370       371       372
 -1        38    4    0    1
 -2       204       203       215       216       367       366       373       374       211       222
 -2       223       224       369       368       375       376       371       377       378       379
 -1        39    4    0    1
 -2       216       215       227       228       374       373       380       381       223       234
 -2       235       236       376       375       382       383       378       384       385       386
 -1        40    4    0    1
 -2       228       227       239       240       381       380       387       388       235       246
 -2       247       248       383       382       389       390       385       391       392       393
 -1        41    4    0    1
 -2         2       394       395         3         6       396       397         7       398       399
 -2       400        10        14       401       402        15       403       404       405        18
 -1        42    4    0    1
 -2         3       395       406        21         7       397       407        23       400       408
 -2       409        25        15       402       410        28       405       411       412        30
 -1        43    4    0    1
 -2        21       406       413        33        23       407       414        35       409       415
 -2       416        37        28       410       417        40       412       418       419        42
 -1        44    4    0    1
 -2        33       413       420        45        35       414       421        47       416       422
 -2       423        49        40       417       424        52       419       425       426        54
 -1        45    4    0    1
 -2        45       420       427        57        47       421       428        59       423       429
 -2       430        61        52       424       431        64       426       432       433        66
 -1        46    4    0    1
 -2        57       427       434        69        59       428       435        71       430       436
 -2       437        73        64       431       438        76       433       439       440        78
 -1        47    4    0    1
 -2        69       434       441        81        71       435       442        83       437       443
 -2       444        85        76       438       445        88       440       446       447        90
 -1        48    4    0    1
 -2        81       441       448        93        83       442       449        95       444       450
 -2       451        97        88       445       452       100       447       453       454       102
 -1        49    4    0    1
 -2        93       448       455       105        95       449       456       107       451       457
 -2       458       109       100       452       459       112       454       460       461       114
 -1        50    4    0    1
 -2       105       455       462       117       107       456       463       119       458       464
 -2       465       121       112       459       466       124       461       467       468       126
 -1        51    4    0    1
 -2       117       462       469       129       119       463       470       131       465       471
 -2       472       133       124       466       473       136       468       474       475       138
 -1        52    4    0    1
 -2       129       469       476       141       131       470       477       143       472       478
 -2       479       145       136       473       480       148       475       481       482       150
 -1        53    4    0    1
 -2       141       476       483       153       143       477       484       155       479       485
 -2       486       157       148       480       487       160       482       488       489       162
 -1        54    4    0    1
 -2       153       483       490       165       155       484       491       167       486       492
 -2       493       169       160       487       494       172       489       495       496       174
 -1        55    4    0    1
 -2       165       490       497       177       167       491       498       179       493       499
 -2       500       181       172       494       501       184       496       502       503       186
 -1        56    4    0    1
 -2       177       497       504       189       179       498       505       191       500       506
 -2       507       193       184       501       508       196       503       509       510       198
 -1        57    4    0    1
 -2       189       504       511       201       191       505       512       203       507       513
 -2       514       205       196       508       515       208       510       516       517       210
 -1        58    4    0    1
 -2       201       511       518       213       203       512       519       215       514       520
 -2       521       217       208       515       522       220       517       523       524       222
 -1        59    4    0    1
 -2       213       518       525       225       215       519       526       227       521       527
 -2       528       229       220       522       529       232       524       530       531       234
 -1        60    4    0    1
 -2       225       525       532       237       227       526       533       239       528       534
 -2       535       241       232       529       536       244       531       537       538       246
 -1        61    4    0    1
 -2         6       396       397         7       250       539       540       251       403       404
 -2       405        18       254       541       542       255       543       544       545       258
 -1        62    4    0    1
 -2         7       397       407        23       251       540       546       261       405       411
 -2       412        30       255       542       547       263       545       548       549       265
 -1        63    4    0    1
 -2        23       407       414        35       261       546       550       268       412       418
 -2       419        42       263       547       551       270       549       552       553       272
 -1        64    4    0    1
 -2        35       414       421        47       268       550       554       275       419       425
 -2       426        54       270       551       555       277       553       556       557       279
 -1        65    4    0    1
 -2        47       421       428        59       275       554       558       282       426       432
 -2       433        66       277       555       559       284       557       560       561       286
 -1        66    4    0    1
 -2        59       428       435        71       282       558       562       289       433       439
 -2       440        78       284       559       563       291       561       564       565       293
 -1        67    4    0    1
 -2        71       435       442        83       289       562       566       296       440       446
 -2       447        90       291       563       567       298       565       568       569       300
 -1        68    4    0    1
 -2        83       442       449        95       296       566       570       303       447       453
 -2       454       102       298       567       571       305       569       572       573       307
 -1        69    4    0    1
 -2        95       449       456       107       303       570       574       310       454       460
 -2       461       114       305       571       575       312       573       576       577       314
 -1        70    4    0    1
 -2       107       456       463       119       310       574       578       317       461       467
 -2       468       126       312       575       579       319       577       580       581       321
 -1        71    4    0    1
 -2       119       463       470       131       317       578       582       324       468       474
 -2       475       138       319       579       583       326       581       584       585       328
 -1        72    4    0    1
 -2       131       470       477       143       324       582       586       331       475       481
 -2       482       150       326       583       587       333       585       588       589       335
 -1        73    4    0    1
 -2       143       477       484       155       331       586       590       338       482       488
 -2       489       162       333       587       591       340       589       592       593       342
 -1        74    4    0    1
 -2       155       484       491       167       338       590       594       345       489       495
 -2       496       174       340       591       595       347       593       596       597       349
 -1        75    4    0    1
 -2       167       491       498       179       345       594       598       352       496       502
 -2       503       186       347       595       599       354       597       600       601       356
 -1        76    4    0    1
 -2       179       498       505       191       352       598       602       359       503       509
 -2       510       198       354       599       603       361       601       604       605       363
 -1        77    4    0    1
 -2       191       505       512       203       359       602       606       366       510       516
 -2       517       210       361       603       607       368       605       608       609       370
 -1        78    4    0    1
 -2       203       512       519       215       366       606       610       373       517       523
 -2       524       222       368       607       611       375       609       612       613       377
 -1        79    4    0    1
 -2       215       519       526       227       373       610       614       380       524       530
 -2       531       234       375       611       615       382       613       616       617       384
 -1        80    4    0    1
 -2       227       526       533       239       380       614       618       387       531       537
 -2       538       246       382       615       619       389       617       620       621       391
 -3
    1PSTEP                         1           1           1          
  100CL  101 5.00000E-02         621                     0    1           1
 -4  DISP        4    1
 -5  D1          1    2    1    0
 -5  D2          1    2    2    0
 -5  D3          1    2    3    0
 -5  ALL         1    2    0    0    1ALL
 -1         1 0.00000E+00 0.00000E+00 0.00000E+00
 -1         2 0.00000E+00 0.00000E+00 0.00000E+00
 -1         3 5.31117E-12 6.06274E-03-5.18185E-05
 -1         4-2.77933E-13 6.04130E-03-1.82587E-03
 -1         5 0.00000E+00 0.00000E+00 0.00000E+00
 -1         6 0.00000E+00 0.00000E+00 0.00000E+00
 -1         7-2.59290E-14 6.06274E-03-5.18186E-05
 -1         8-2.43019E-14 6.04130E-03-1.82587E-03
 -1         9 0.00000E+00 0.00000E+00 0.00000E+00
 -1        10 1.31055E-13 1.53107E-03-7.81050E-06
 -1        11 2.56227E-12 6.05195E-03-9.38520E-04
 -1        12 4.57855E-12 1.52517E-03-9.06370E-04
 -1        13 0.00000E+00 0.00000E+00 0.00000E+00
 -1        14 0.00000E+00 0.00000E+00 0.00000E+00
 -1        15 2.64648E-12 6.06274E-03-5.18186E-05
 -1        16-1.28945E-13 6.04130E-03-1.82587E-03
 -1        17 0.00000E+00 0.00000E+00 0.00000E+00
 -1        18-6.53892E-15 1.53107E-03-7.81047E-06
 -1        19-2.51186E-14 6.05195E-03-9.38520E-04
 -1        20-5.77636E-15 1.52517E-03-9.06370E-04
 -1        21 2.30889E-11 2.38111E-02-3.80378E-04
 -1        22 2.89503E-11 2.37301E-02-3.83462E-03
 -1        23-1.01990E-13 2.38111E-02-3.80379E-04
 -1        24-9.86324E-14 2.37301E-02-3.83462E-03
 -1        25-5.49160E-12 1.35159E-02-1.65734E-04
 -1        26 2.60991E-11 2.37706E-02-2.10726E-03
 -1        27-4.27567E-12 1.34689E-02-2.79147E-03
 -1        28 1.14949E-11 2.38111E-02-3.80378E-04
 -1        29 1.44356E-11 2.37301E-02-3.83462E-03
 -1        30-5.78547E-14 1.35159E-02-1.65734E-04
 -1        31-1.00298E-13 2.37706E-02-2.10726E-03
 -1        32-5.53385E-14 1.34689E-02-2.79147E-03
 -1        33 5.57580E-11 5.26102E-02-1.22238E-03
 -1        34 8.08873E-11 5.24379E-02-6.26295E-03
 -1        35-2.25551E-13 5.26102E-02-1.22238E-03
 -1        36-2.20539E-13 5.24379E-02-6.26295E-03
 -1        37-1.78824E-11 3.68690E-02-7.24074E-04
 -1        38 6.84450E-11 5.25240E-02-3.74241E-03
 -1        39-2.50513E-11 3.67459E-02-4.98314E-03
 -1        40 2.77666E-11 5.26102E-02-1.22238E-03
 -1        41 4.03426E-11 5.24379E-02-6.26295E-03
 -1        42-1.57997E-13 3.68690E-02-7.24074E-04
 -1        43-2.23042E-13 5.25240E-02-3.74241E-03
 -1        44-1.53784E-13 3.67459E-02-4.98314E-03
 -1        45 1.06577E-10 9.18236E-02-2.77292E-03
 -1        46 1.57213E-10 9.15341E-02-9.30556E-03
 -1        47-3.94021E-13 9.18236E-02-2.77292E-03
 -1        48-3.87340E-13 9.15341E-02-9.30556E-03
 -1        49-3.85430E-11 7.09550E-02-1.89845E-03
 -1        50 1.32070E-10 9.16788E-02-6.03899E-03
 -1        51-5.67383E-11 7.07270E-02-7.69677E-03
 -1        52 5.30896E-11 9.18236E-02-2.77292E-03
 -1        53 7.84199E-11 9.15341E-02-9.30556E-03
 -1        54-3.04363E-13 7.09550E-02-1.89845E-03
 -1        55-3.90675E-13 9.16788E-02-6.03899E-03
 -1        56-2.98498E-13 7.07270E-02-7.69677E-03
 -1        57 1.78810E-10 1.40814E-01-5.18782E-03
 -1        58 2.66641E-10 1.40387E-01-1.31183E-02
 -1        59-6.04688E-13 1.40814E-01-5.18782E-03
 -1        60-5.96310E-13 1.40387E-01-1.31183E-02
 -1        61-6.92273E-11 1.15136E-01-3.86404E-03
 -1        62 2.22968E-10 1.40600E-01-9.15280E-03
 -1        63-1.02050E-10 1.14780E-01-1.11073E-02
 -1        64 8.90978E-11 1.40814E-01-5.18782E-03
 -1        65 1.33028E-10 1.40387E-01-1.31183E-02
 -1        66-4.94254E-13 1.15136E-01-3.86404E-03
 -1        67-6.00483E-13 1.40600E-01-9.15280E-03
 -1        68-4.86766E-13 1.14780E-01-1.11073E-02
 -1        69 2.74413E-10 1.98943E-01-8.58614E-03
 -1        70 4.24355E-10 1.98363E-01-1.78204E-02
 -1        71-8.54704E-13 1.98943E-01-8.58614E-03
 -1        72-8.45038E-13 1.98363E-01-1.78204E-02
 -1        73-1.11445E-10 1.68775E-01-6.75796E-03
 -1        74 3.49715E-10 1.98653E-01-1.32030E-02
 -1        75-1.67004E-10 1.68274E-01-1.53520E-02
 -1        76 1.36769E-10 1.98943E-01-8.58614E-03
 -1        77 2.11756E-10 1.98363E-01-1.78204E-02
 -1        78-7.24917E-13 1.68775E-01-6.75796E-03
 -1        79-8.49801E-13 1.98653E-01-1.32030E-02
 -1        80-7.15867E-13 1.68274E-01-1.53520E-02
 -1        81 3.91878E-10 2.65576E-01-1.30526E-02
 -1        82 6.51720E-10 2.64834E-01-2.34969E-02
 -1        83-1.14116E-12 2.65576E-01-1.30526E-02
 -1        84-1.12968E-12 2.64834E-01-2.34969E-02
 -1        85-1.65641E-10 2.31236E-01-1.06818E-02
 -1        86 5.22244E-10 2.65205E-01-1.82745E-02
 -1        87-2.60794E-10 2.30576E-01-2.05327E-02
 -1        88 1.95351E-10 2.65576E-01-1.30526E-02
 -1        89 3.25290E-10 2.64834E-01-2.34969E-02
 -1        90-9.93619E-13 2.31236E-01-1.06818E-02
 -1        91-1.13536E-12 2.65205E-01-1.82745E-02
 -1        92-9.83164E-13 2.30576E-01-2.05327E-02
 -1        93 5.22861E-10 3.40080E-01-1.86401E-02
 -1        94 9.75344E-10 3.39170E-01-3.02012E-02
 -1        95-1.46066E-12 3.40080E-01-1.86401E-02
 -1        96-1.44779E-12 3.39170E-01-3.02012E-02
 -1        97-2.29865E-10 3.01883E-01-1.57041E-02
 -1        98 7.49711E-10 3.39625E-01-2.44204E-02
 -1        99-3.95633E-10 3.01058E-01-2.67183E-02
 -1       100 2.60673E-10 3.40080E-01-1.86401E-02
 -1       101 4.86928E-10 3.39170E-01-3.02012E-02
 -1       102-1.29700E-12 3.01883E-01-1.57041E-02
 -1       103-1.45428E-12 3.39625E-01-2.44204E-02
 -1       104-1.28511E-12 3.01058E-01-2.67183E-02
 -1       105 6.47118E-10 4.21826E-01-2.53723E-02
 -1       106 1.42438E-09 4.20746E-01-3.79574E-02
 -1       107-1.80991E-12 4.21826E-01-2.53723E-02
 -1       108-1.79573E-12 4.20746E-01-3.79574E-02
 -1       109-2.97720E-10 3.80087E-01-2.18627E-02
 -1       110 1.03653E-09 4.21286E-01-3.16646E-02
 -1       111-5.85982E-10 3.79092E-01-3.39473E-02
 -1       112 3.22616E-10 4.21826E-01-2.53723E-02
 -1       113 7.11251E-10 4.20746E-01-3.79574E-02
 -1       114-1.63175E-12 3.80087E-01-2.18627E-02
 -1       115-1.80292E-12 4.21286E-01-3.16646E-02
 -1       116-1.61847E-12 3.79092E-01-3.39473E-02
 -1       117 7.25421E-10 5.10189E-01-3.32458E-02
 -1       118 2.02323E-09 5.08942E-01-4.67629E-02
 -1       119-2.18556E-12 5.10189E-01-3.32458E-02
 -1       120-2.17054E-12 5.08942E-01-4.67629E-02
 -1       121-3.55353E-10 4.65219E-01-2.91676E-02
 -1       122 1.37551E-09 5.09565E-01-4.00041E-02
 -1       123-8.46639E-10 4.64055E-01-4.22301E-02
 -1       124 3.61566E-10 5.10189E-01-3.32458E-02
 -1       125 1.01043E-09 5.08942E-01-4.67629E-02
 -1       126-1.99453E-12 4.65219E-01-2.91676E-02
 -1       127-2.17807E-12 5.09565E-01-4.00041E-02
 -1       128-1.97993E-12 4.64055E-01-4.22301E-02
 -1       129 6.90258E-10 6.04548E-01-4.22329E-02
 -1       130 2.77892E-09 6.03140E-01-5.65906E-02
 -1       131-2.58369E-12 6.04548E-01-4.22329E-02
 -1       132-2.56817E-12 6.03140E-01-5.65907E-02
 -1       133-3.77373E-10 5.56657E-01-3.76028E-02
 -1       134 1.73562E-09 6.03844E-01-4.94116E-02
 -1       135-1.18736E-09 5.55329E-01-5.15516E-02
 -1       136 3.43780E-10 6.04548E-01-4.22329E-02
 -1       137 1.38804E-09 6.03140E-01-5.65906E-02
 -1       138-2.38211E-12 5.56657E-01-3.76028E-02
 -1       139-2.57599E-12 6.03844E-01-4.94116E-02
 -1       140-2.36639E-12 5.55329E-01-5.15516E-02
 -1       141 4.35099E-10 7.04287E-01-5.22838E-02
 -1       142 3.64734E-09 7.02727E-01-6.73914E-02
 -1       143-3.00125E-12 7.04287E-01-5.22838E-02
 -1       144-2.98447E-12 7.02727E-01-6.73914E-02
 -1       145-3.21599E-10 6.53783E-01-4.71293E-02
 -1       146 2.04475E-09 7.03507E-01-5.98374E-02
 -1       147-1.60569E-09 6.52298E-01-6.18733E-02
 -1       148 2.15982E-10 7.04287E-01-5.22838E-02
 -1       149 1.82176E-09 7.02727E-01-6.73914E-02
 -1       150-2.79047E-12 6.53783E-01-4.71293E-02
 -1       151-2.99311E-12 7.03507E-01-5.98374E-02
 -1       152-2.77386E-12 6.52298E-01-6.18733E-02
 -1       153-1.96539E-10 8.08795E-01-6.33290E-02
 -1       154 4.50900E-09 8.07094E-01-7.90965E-02
 -1       155-3.43419E-12 8.08795E-01-6.33290E-02
 -1       156-3.41611E-12 8.07094E-01-7.90965E-02
 -1       157-1.23625E-10 7.55983E-01-5.76872E-02
 -1       158 2.15291E-09 8.07945E-01-7.12125E-02
 -1       159-2.06036E-09 7.54350E-01-7.31359E-02
 -1       160-9.99822E-11 8.08795E-01-6.33290E-02
 -1       161 2.25273E-09 8.07094E-01-7.90965E-02
 -1       162-3.21607E-12 7.55983E-01-5.76872E-02
 -1       163-3.42514E-12 8.07945E-01-7.12125E-02
 -1       164-3.19838E-12 7.54351E-01-7.31359E-02
 -1       165-1.41527E-09 9.17465E-01-7.52817E-02
 -1       166 4.99262E-09 9.15637E-01-9.16196E-02
 -1       167-3.87845E-12 9.17465E-01-7.52817E-02
 -1       168-3.85937E-12 9.15637E-01-9.16196E-02
 -1       169 3.08977E-10 8.62648E-01-6.91980E-02
 -1       170 1.81483E-09 9.16551E-01-8.34504E-02
 -1       171-2.47378E-09 8.60881E-01-8.52618E-02
 -1       172-7.09635E-10 9.17465E-01-7.52817E-02
 -1       173 2.49184E-09 9.15637E-01-9.16196E-02
 -1       174-3.65508E-12 8.62648E-01-6.91980E-02
 -1       175-3.86913E-12 9.16551E-01-8.34504E-02
 -1       176-3.63638E-12 8.60881E-01-8.52618E-02
 -1       177-3.48225E-09 1.02969E+00-8.80398E-02
 -1       178 4.68508E-09 1.02775E+00-1.04859E-01
 -1       179-4.33210E-12 1.02969E+00-8.80398E-02
 -1       180-4.31249E-12 1.02775E+00-1.04859E-01
 -1       181 1.09413E-09 9.73172E-01-8.15670E-02
 -1       182 5.21353E-10 1.02872E+00-9.64493E-02
 -1       183-2.55333E-09 9.71286E-01-9.81567E-02
 -1       184-1.74270E-09 1.02969E+00-8.80398E-02
 -1       185 2.34536E-09 1.02775E+00-1.04859E-01
 -1       186-4.10404E-12 9.73172E-01-8.15670E-02
 -1       187-4.32230E-12 1.02872E+00-9.64493E-02
 -1       188-4.08441E-12 9.71286E-01-9.81567E-02
 -1       189-6.65608E-09 1.14488E+00-1.01489E-01
 -1       190 1.59562E-09 1.14285E+00-1.18701E-01
 -1       191-4.79162E-12 1.14488E+00-1.01489E-01
 -1       192-4.77116E-12 1.14285E+00-1.18701E-01
 -1       193 2.37792E-09 1.08696E+00-9.46855E-02
 -1       194-2.20164E-09 1.14387E+00-1.10095E-01
 -1       195-2.17912E-09 1.08497E+00-1.11713E-01
 -1       196-3.33106E-09 1.14488E+00-1.01489E-01
 -1       197 7.69633E-10 1.14285E+00-1.18701E-01
 -1       198-4.56089E-12 1.08696E+00-9.46855E-02
 -1       199-4.78149E-12 1.14387E+00-1.10095E-01
 -1       200-4.54049E-12 1.08497E+00-1.11713E-01
 -1       201-1.11415E-08 1.26243E+00-1.15503E-01
 -1       202-3.26475E-09 1.26033E+00-1.33021E-01
 -1       203-5.25513E-12 1.26243E+00-1.15503E-01
 -1       204-5.23393E-12 1.26033E+00-1.33021E-01
 -1       205 4.26521E-09 1.20340E+00-1.08433E-01
 -1       206-8.40636E-09 1.26138E+00-1.24262E-01
 -1       207 5.12410E-10 1.20133E+00-1.25810E-01
 -1       208-5.56866E-09 1.26243E+00-1.15503E-01
 -1       209-1.55008E-09 1.26033E+00-1.33021E-01
 -1       210-5.02336E-12 1.20340E+00-1.08433E-01
 -1       211-5.24440E-12 1.26138E+00-1.24262E-01
 -1       212-5.00156E-12 1.20133E+00-1.25810E-01
 -1       213-1.67625E-08 1.38175E+00-1.29948E-01
 -1       214-2.49889E-08 1.37959E+00-1.47684E-01
 -1       215-5.72210E-12 1.38175E+00-1.29948E-01
 -1       216-5.70095E-12 1.37959E+00-1.47684E-01
 -1       217 6.88936E-09 1.32191E+00-1.22680E-01
 -1       218-1.62783E-08 1.38067E+00-1.38816E-01
 -1       219 2.66852E-09 1.31977E+00-1.40318E-01
 -1       220-8.39243E-09 1.38175E+00-1.29948E-01
 -1       221-1.28308E-08 1.37959E+00-1.47684E-01
 -1       222-5.48812E-12 1.32191E+00-1.22680E-01
 -1       223-5.71095E-12 1.38067E+00-1.38816E-01
 -1       224-5.46740E-12 1.31977E+00-1.40318E-01
 -1       225-2.29383E-08 1.50225E+00-1.44685E-01
 -1       226-2.58312E-08 1.50006E+00-1.62551E-01
 -1       227-6.18949E-12 1.50225E+00-1.44685E-01
 -1       228-6.17015E-12 1.50006E+00-1.62551E-01
 -1       229 9.82251E-09 1.44189E+00-1.37289E-01
 -1       230-4.16558E-08 1.50116E+00-1.53618E-01
 -1       231 2.21127E-08 1.43972E+00-1.55101E-01
 -1       232-1.14412E-08 1.50225E+00-1.44685E-01
 -1       233-1.17037E-08 1.50006E+00-1.62551E-01
 -1       234-5.95603E-12 1.44189E+00-1.37289E-01
 -1       235-6.18014E-12 1.50116E+00-1.53618E-01
 -1       236-5.93478E-12 1.43972E+00-1.55101E-01
 -1       237-2.72784E-08 1.62334E+00-1.59568E-01
 -1       238-1.78920E-07 1.62114E+00-1.77478E-01
 -1       239-6.65709E-12 1.62334E+00-1.59568E-01
 -1       240-6.63532E-12 1.62114E+00-1.77478E-01
 -1       241 1.33663E-08 1.56276E+00-1.52117E-01
 -1       242-3.77938E-08 1.62224E+00-1.68523E-01
 -1       243 3.78109E-09 1.56056E+00-1.70016E-01
 -1       244-1.36967E-08 1.62334E+00-1.59568E-01
 -1       245-9.40176E-08 1.62114E+00-1.77478E-01
 -1       246-6.42422E-12 1.56276E+00-1.52117E-01
 -1       247-6.64637E-12 1.62224E+00-1.68523E-01
 -1       248-6.40170E-12 1.56056E+00-1.70016E-01
 -1       249 0.00000E+00 0.00000E+00 0.00000E+00
 -1       250 0.00000E+00 0.00000E+00 0.00000E+00
 -1       251-5.36302E-12 6.06274E-03-5.18185E-05
 -1       252 2.29319E-13 6.04130E-03-1.82587E-03
 -1       253 0.00000E+00 0.00000E+00 0.00000E+00
 -1       254 0.00000E+00 0.00000E+00 0.00000E+00
 -1       255-2.69833E-12 6.06274E-03-5.18186E-05
 -1       256 8.03358E-14 6.04130E-03-1.82587E-03
 -1       257 0.00000E+00 0.00000E+00 0.00000E+00
 -1       258-1.44136E-13 1.53107E-03-7.81050E-06
 -1       259-2.61250E-12 6.05195E-03-9.38520E-04
 -1       260-4.59010E-12 1.52517E-03-9.06370E-04
 -1       261-2.32929E-11 2.38111E-02-3.80378E-04
 -1       262-2.91475E-11 2.37301E-02-3.83462E-03
 -1       263-1.16988E-11 2.38111E-02-3.80378E-04
 -1       264-1.46328E-11 2.37301E-02-3.83462E-03
 -1       265 5.37589E-12 1.35159E-02-1.65734E-04
 -1       266-2.62997E-11 2.37706E-02-2.10726E-03
 -1       267 4.16500E-12 1.34689E-02-2.79147E-03
 -1       268-5.62091E-11 5.26102E-02-1.22238E-03
 -1       269-8.13284E-11 5.24379E-02-6.26295E-03
 -1       270-2.82177E-11 5.26102E-02-1.22238E-03
 -1       271-4.07837E-11 5.24379E-02-6.26295E-03
 -1       272 1.75664E-11 3.68690E-02-7.24074E-04
 -1       273-6.88911E-11 5.25240E-02-3.74241E-03
 -1       274 2.47437E-11 3.67459E-02-4.98314E-03
 -1       275-1.07365E-10 9.18236E-02-2.77292E-03
 -1       276-1.57988E-10 9.15341E-02-9.30556E-03
 -1       277-5.38776E-11 9.18236E-02-2.77292E-03
 -1       278-7.91946E-11 9.15341E-02-9.30556E-03
 -1       279 3.79342E-11 7.09550E-02-1.89845E-03
 -1       280-1.32851E-10 9.16788E-02-6.03899E-03
 -1       281 5.61413E-11 7.07270E-02-7.69677E-03
 -1       282-1.80020E-10 1.40814E-01-5.18782E-03
 -1       283-2.67834E-10 1.40387E-01-1.31183E-02
 -1       284-9.03071E-11 1.40814E-01-5.18782E-03
 -1       285-1.34220E-10 1.40387E-01-1.31183E-02
 -1       286 6.82387E-11 1.15136E-01-3.86404E-03
 -1       287-2.24169E-10 1.40600E-01-9.15280E-03
 -1       288 1.01076E-10 1.14780E-01-1.11073E-02
 -1       289-2.76122E-10 1.98943E-01-8.58614E-03
 -1       290-4.26045E-10 1.98363E-01-1.78204E-02
 -1       291-1.38478E-10 1.98943E-01-8.58614E-03
 -1       292-2.13446E-10 1.98363E-01-1.78204E-02
 -1       293 1.09995E-10 1.68775E-01-6.75796E-03
 -1       294-3.51415E-10 1.98653E-01-1.32030E-02
 -1       295 1.65572E-10 1.68274E-01-1.53520E-02
 -1       296-3.94160E-10 2.65576E-01-1.30526E-02
 -1       297-6.53979E-10 2.64834E-01-2.34969E-02
 -1       298-1.97634E-10 2.65576E-01-1.30526E-02
 -1       299-3.27549E-10 2.64834E-01-2.34969E-02
 -1       300 1.63654E-10 2.31236E-01-1.06818E-02
 -1       301-5.24515E-10 2.65205E-01-1.82745E-02
 -1       302 2.58828E-10 2.30576E-01-2.05327E-02
 -1       303-5.25782E-10 3.40080E-01-1.86401E-02
 -1       304-9.78240E-10 3.39170E-01-3.02012E-02
 -1       305-2.63595E-10 3.40080E-01-1.86401E-02
 -1       306-4.89824E-10 3.39170E-01-3.02012E-02
 -1       307 2.27271E-10 3.01883E-01-1.57041E-02
 -1       308-7.52620E-10 3.39625E-01-2.44204E-02
 -1       309 3.93063E-10 3.01058E-01-2.67183E-02
 -1       310-6.50738E-10 4.21826E-01-2.53723E-02
 -1       311-1.42798E-09 4.20746E-01-3.79574E-02
 -1       312-3.26236E-10 4.21826E-01-2.53723E-02
 -1       313-7.14843E-10 4.20746E-01-3.79574E-02
 -1       314 2.94456E-10 3.80087E-01-2.18627E-02
 -1       315-1.04013E-09 4.21286E-01-3.16646E-02
 -1       316 5.82744E-10 3.79092E-01-3.39473E-02
 -1       317-7.29792E-10 5.10189E-01-3.32458E-02
 -1       318-2.02757E-09 5.08942E-01-4.67629E-02
 -1       319-3.65938E-10 5.10189E-01-3.32458E-02
 -1       320-1.01477E-09 5.08942E-01-4.67629E-02
 -1       321 3.51364E-10 4.65219E-01-2.91676E-02
 -1       322-1.37987E-09 5.09565E-01-4.00041E-02
 -1       323 8.42679E-10 4.64055E-01-4.22301E-02
 -1       324-6.95425E-10 6.04548E-01-4.22329E-02
 -1       325-2.78406E-09 6.03140E-01-5.65906E-02
 -1       326-3.48948E-10 6.04548E-01-4.22329E-02
 -1       327-1.39317E-09 6.03140E-01-5.65906E-02
 -1       328 3.72609E-10 5.56657E-01-3.76028E-02
 -1       329-1.74077E-09 6.03844E-01-4.94116E-02
 -1       330 1.18262E-09 5.55329E-01-5.15516E-02
 -1       331-4.41101E-10 7.04287E-01-5.22838E-02
 -1       332-3.65331E-09 7.02727E-01-6.73914E-02
 -1       333-2.21984E-10 7.04287E-01-5.22838E-02
 -1       334-1.82772E-09 7.02727E-01-6.73914E-02
 -1       335 3.16018E-10 6.53783E-01-4.71293E-02
 -1       336-2.05073E-09 7.03507E-01-5.98374E-02
 -1       337 1.60015E-09 6.52298E-01-6.18733E-02
 -1       338 1.89671E-10 8.08795E-01-6.33290E-02
 -1       339-4.51583E-09 8.07094E-01-7.90965E-02
 -1       340 9.31139E-11 8.08795E-01-6.33290E-02
 -1       341-2.25956E-09 8.07094E-01-7.90965E-02
 -1       342 1.17192E-10 7.55983E-01-5.76872E-02
 -1       343-2.15976E-09 8.07945E-01-7.12125E-02
 -1       344 2.05396E-09 7.54350E-01-7.31359E-02
 -1       345 1.40751E-09 9.17465E-01-7.52817E-02
 -1       346-5.00034E-09 9.15637E-01-9.16196E-02
 -1       347 7.01878E-10 9.17465E-01-7.52817E-02
 -1       348-2.49955E-09 9.15637E-01-9.16196E-02
 -1       349-3.16287E-10 8.62648E-01-6.91980E-02
 -1       350-1.82257E-09 9.16551E-01-8.34504E-02
 -1       351 2.46651E-09 8.60881E-01-8.52618E-02
 -1       352 3.47359E-09 1.02969E+00-8.80398E-02
 -1       353-4.69370E-09 1.02775E+00-1.04859E-01
 -1       354 1.73404E-09 1.02969E+00-8.80398E-02
 -1       355-2.35399E-09 1.02775E+00-1.04859E-01
 -1       356-1.10234E-09 9.73172E-01-8.15670E-02
 -1       357-5.29997E-10 1.02872E+00-9.64493E-02
 -1       358 2.54516E-09 9.71286E-01-9.81567E-02
 -1       359 6.64650E-09 1.14488E+00-1.01489E-01
 -1       360-1.60516E-09 1.14285E+00-1.18701E-01
 -1       361 3.32147E-09 1.14488E+00-1.01489E-01
 -1       362-7.79175E-10 1.14285E+00-1.18701E-01
 -1       363-2.38704E-09 1.08696E+00-9.46855E-02
 -1       364 2.19207E-09 1.14387E+00-1.10095E-01
 -1       365 2.17003E-09 1.08497E+00-1.11713E-01
 -1       366 1.11310E-08 1.26243E+00-1.15503E-01
 -1       367 3.25429E-09 1.26033E+00-1.33021E-01
 -1       368 5.55815E-09 1.26243E+00-1.15503E-01
 -1       369 1.53961E-09 1.26033E+00-1.33021E-01
 -1       370-4.27526E-09 1.20340E+00-1.08433E-01
 -1       371 8.39588E-09 1.26138E+00-1.24262E-01
 -1       372-5.22413E-10 1.20133E+00-1.25810E-01
 -1       373 1.67510E-08 1.38175E+00-1.29948E-01
 -1       374 2.49774E-08 1.37959E+00-1.47684E-01
 -1       375 8.38098E-09 1.38175E+00-1.29948E-01
 -1       376 1.28194E-08 1.37959E+00-1.47684E-01
 -1       377-6.90034E-09 1.32191E+00-1.22680E-01
 -1       378 1.62669E-08 1.38067E+00-1.38816E-01
 -1       379-2.67945E-09 1.31977E+00-1.40318E-01
 -1       380 2.29259E-08 1.50225E+00-1.44685E-01
 -1       381 2.58189E-08 1.50006E+00-1.62551E-01
 -1       382 1.14288E-08 1.50225E+00-1.44685E-01
 -1       383 1.16914E-08 1.50006E+00-1.62551E-01
 -1       384-9.83442E-09 1.44189E+00-1.37289E-01
 -1       385 4.16435E-08 1.50116E+00-1.53618E-01
 -1       386-2.21246E-08 1.43972E+00-1.55101E-01
 -1       387 2.72650E-08 1.62334E+00-1.59568E-01
 -1       388 1.78906E-07 1.62114E+00-1.77478E-01
 -1       389 1.36834E-08 1.62334E+00-1.59568E-01
 -1       390 9.40043E-08 1.62114E+00-1.77478E-01
 -1       391-1.33791E-08 1.56276E+00-1.52117E-01
 -1       392 3.77806E-08 1.62224E+00-1.68523E-01
 -1       393-3.79390E-09 1.56056E+00-1.70016E-01
 -1       394 0.00000E+00 0.00000E+00 0.00000E+00
 -1       395 1.00257E-10 6.08417E-03 1.72207E-03
 -1       396 0.00000E+00 0.00000E+00 0.00000E+00
 -1       397-2.75602E-14 6.08417E-03 1.72207E-03
 -1       398 0.00000E+00 0.00000E+00 0.00000E+00
 -1       399-3.31120E-11 1.53693E-03 8.90830E-04
 -1       400 5.27393E-11 6.07352E-03 8.34804E-04
 -1       401 0.00000E+00 0.00000E+00 0.00000E+00
 -1       402 5.00771E-11 6.08417E-03 1.72207E-03
 -1       403 0.00000E+00 0.00000E+00 0.00000E+00
 -1       404-7.29787E-15 1.53693E-03 8.90830E-04
 -1       405-2.67473E-14 6.07352E-03 8.34804E-04
 -1       406 1.46541E-10 2.38921E-02 3.07370E-03
 -1       407-1.05352E-13 2.38921E-02 3.07370E-03
 -1       408-6.75137E-11 1.35629E-02 2.46007E-03
 -1       409 8.47344E-11 2.38516E-02 1.34642E-03
 -1       410 7.31957E-11 2.38921E-02 3.07370E-03
 -1       411-6.03699E-14 1.35629E-02 2.46007E-03
 -1       412-1.03658E-13 2.38516E-02 1.34642E-03
 -1       413 1.48462E-10 5.27825E-02 3.81806E-03
 -1       414-2.30613E-13 5.27825E-02 3.81807E-03
 -1       415-7.94605E-11 3.69921E-02 3.53505E-03
 -1       416 1.01985E-10 5.26964E-02 1.29758E-03
 -1       417 7.40897E-11 5.27825E-02 3.81806E-03
 -1       418-1.62204E-13 3.69921E-02 3.53505E-03
 -1       419-2.28092E-13 5.26964E-02 1.29758E-03
 -1       420 9.99036E-11 9.21131E-02 3.75965E-03
 -1       421-4.00789E-13 9.21131E-02 3.75965E-03
 -1       422-6.96886E-11 7.11830E-02 3.89990E-03
 -1       423 1.03060E-10 9.19684E-02 4.93112E-04
 -1       424 4.97227E-11 9.21131E-02 3.75965E-03
 -1       425-3.10200E-13 7.11830E-02 3.89990E-03
 -1       426-3.97384E-13 9.19684E-02 4.93113E-04
 -1       427-2.13915E-11 1.41240E-01 2.74261E-03
 -1       428-6.12989E-13 1.41240E-01 2.74261E-03
 -1       429-3.13143E-11 1.15492E-01 3.37927E-03
 -1       430 7.84590E-11 1.41027E-01-1.22286E-03
 -1       431-1.10375E-11 1.41240E-01 2.74261E-03
 -1       432-5.01744E-13 1.15492E-01 3.37927E-03
 -1       433-6.08839E-13 1.41027E-01-1.22286E-03
 -1       434-2.56851E-10 1.99522E-01 6.48060E-04
 -1       435-8.64443E-13 1.99522E-01 6.48065E-04
 -1       436 5.10611E-11 1.69277E-01 1.83611E-03
 -1       437 8.43780E-12 1.99232E-01-3.96929E-03
 -1       438-1.28901E-10 1.99522E-01 6.48063E-04
 -1       439-7.34007E-13 1.69277E-01 1.83611E-03
 -1       440-8.59487E-13 1.99232E-01-3.96929E-03
 -1       441-6.72584E-10 2.66318E-01-2.60838E-03
 -1       442-1.15256E-12 2.66318E-01-2.60837E-03
 -1       443 2.03498E-10 2.31895E-01-8.30889E-04
 -1       444-1.40814E-10 2.65947E-01-7.83075E-03
 -1       445-3.36920E-10 2.66318E-01-2.60838E-03
 -1       446-1.00398E-12 2.31895E-01-8.30892E-04
 -1       447-1.14680E-12 2.65947E-01-7.83074E-03
 -1       448-1.36707E-09 3.40990E-01-7.07915E-03
 -1       449-1.47365E-12 3.40990E-01-7.07914E-03
 -1       450 4.66092E-10 3.02709E-01-4.68984E-03
 -1       451-4.22734E-10 3.40535E-01-1.28599E-02
 -1       452-6.84326E-10 3.40990E-01-7.07915E-03
 -1       453-1.30876E-12 3.02709E-01-4.68984E-03
 -1       454-1.46715E-12 3.40535E-01-1.28599E-02
 -1       455-2.48051E-09 4.22905E-01-1.27873E-02
 -1       456-1.82407E-12 4.22905E-01-1.27873E-02
 -1       457 8.97303E-10 3.81081E-01-9.77815E-03
 -1       458-9.17497E-10 4.22365E-01-1.90800E-02
 -1       459-1.24122E-09 4.22905E-01-1.27873E-02
 -1       460-1.64501E-12 3.81081E-01-9.77816E-03
 -1       461-1.81710E-12 4.22365E-01-1.90800E-02
 -1       462-4.20330E-09 5.11436E-01-1.97288E-02
 -1       463-2.20056E-12 5.11435E-01-1.97288E-02
 -1       464 1.57901E-09 4.66383E-01-1.61050E-02
 -1       465-1.74016E-09 5.10812E-01-2.64876E-02
 -1       466-2.10275E-09 5.11436E-01-1.97288E-02
 -1       467-2.00911E-12 4.66383E-01-1.61050E-02
 -1       468-2.19307E-12 5.10812E-01-2.64875E-02
 -1       469-6.78245E-09 6.05956E-01-2.78753E-02
 -1       470-2.60021E-12 6.05956E-01-2.78752E-02
 -1       471 2.61994E-09 5.57986E-01-2.36540E-02
 -1       472-3.04713E-09 6.05252E-01-3.50544E-02
 -1       473-3.39249E-09 6.05956E-01-2.78753E-02
 -1       474-2.39775E-12 5.57986E-01-2.36540E-02
 -1       475-2.59197E-12 6.05252E-01-3.50543E-02
 -1       476-1.05075E-08 7.05848E-01-3.71763E-02
 -1       477-3.01840E-12 7.05848E-01-3.71762E-02
 -1       478 4.15882E-09 6.55269E-01-3.23854E-02
 -1       479-5.03984E-09 7.05068E-01-4.47303E-02
 -1       480-5.25488E-09 7.05848E-01-3.71763E-02
 -1       481-2.80685E-12 6.55269E-01-3.23854E-02
 -1       482-3.01006E-12 7.05068E-01-4.47303E-02
 -1       483-1.57016E-08 8.10497E-01-4.75616E-02
 -1       484-3.45259E-12 8.10497E-01-4.75616E-02
 -1       485 6.34702E-09 7.57616E-01-4.22384E-02
 -1       486-7.94552E-09 8.09646E-01-5.54456E-02
 -1       487-7.85248E-09 8.10497E-01-4.75616E-02
 -1       488-3.23391E-12 7.57616E-01-4.22385E-02
 -1       489-3.44334E-12 8.09646E-01-5.54455E-02
 -1       490-2.25411E-08 9.19294E-01-5.89438E-02
 -1       491-3.89754E-12 9.19294E-01-5.89438E-02
 -1       492 9.35790E-09 8.64415E-01-5.31341E-02
 -1       493-1.20052E-08 9.18380E-01-6.71130E-02
 -1       494-1.12695E-08 9.19294E-01-5.89438E-02
 -1       495-3.67345E-12 8.64415E-01-5.31342E-02
 -1       496-3.88808E-12 9.18380E-01-6.71130E-02
 -1       497-3.12267E-08 1.03163E+00-7.12204E-02
 -1       498-4.35086E-12 1.03163E+00-7.12204E-02
 -1       499 1.31946E-08 9.75058E-01-6.49772E-02
 -1       500-1.72717E-08 1.03066E+00-7.96303E-02
 -1       501-1.56202E-08 1.03163E+00-7.12204E-02
 -1       502-4.12324E-12 9.75058E-01-6.49772E-02
 -1       503-4.34162E-12 1.03066E+00-7.96303E-02
 -1       504-4.03075E-08 1.14691E+00-8.42760E-02
 -1       505-4.81158E-12 1.14691E+00-8.42759E-02
 -1       506 1.80635E-08 1.08894E+00-7.76584E-02
 -1       507-2.38186E-08 1.14590E+00-9.28826E-02
 -1       508-2.01272E-08 1.14691E+00-8.42760E-02
 -1       509-4.58164E-12 1.08894E+00-7.76584E-02
 -1       510-4.80157E-12 1.14590E+00-9.28825E-02
 -1       511-5.10317E-08 1.26454E+00-9.79847E-02
 -1       512-5.27696E-12 1.26454E+00-9.79846E-02
 -1       513 2.22913E-08 1.20547E+00-9.10568E-02
 -1       514-2.98598E-08 1.26349E+00-1.06744E-01
 -1       515-2.56040E-08 1.26454E+00-9.79847E-02
 -1       516-5.04429E-12 1.20547E+00-9.10568E-02
 -1       517-5.26583E-12 1.26349E+00-1.06744E-01
 -1       518-4.75655E-08 1.38391E+00-1.12212E-01
 -1       519-5.74283E-12 1.38391E+00-1.12212E-01
 -1       520 2.88790E-08 1.32404E+00-1.05042E-01
 -1       521-3.68251E-08 1.38283E+00-1.21080E-01
 -1       522-2.34377E-08 1.38391E+00-1.12212E-01
 -1       523-5.50938E-12 1.32405E+00-1.05042E-01
 -1       524-5.73211E-12 1.38283E+00-1.21080E-01
 -1       525-6.53474E-08 1.50445E+00-1.26818E-01
 -1       526-6.21195E-12 1.50445E+00-1.26818E-01
 -1       527 1.87495E-08 1.44407E+00-1.19477E-01
 -1       528-2.67298E-08 1.50335E+00-1.35752E-01
 -1       529-3.38913E-08 1.50445E+00-1.26818E-01
 -1       530-5.97634E-12 1.44407E+00-1.19477E-01
 -1       531-6.20073E-12 1.50335E+00-1.35752E-01
 -1       532 7.51242E-08 1.62555E+00-1.41658E-01
 -1       533-6.68007E-12 1.62555E+00-1.41658E-01
 -1       534 4.73099E-08 1.56496E+00-1.34218E-01
 -1       535-4.15748E-08 1.62445E+00-1.50613E-01
 -1       536 4.20783E-08 1.62555E+00-1.41658E-01
 -1       537-6.44513E-12 1.56496E+00-1.34218E-01
 -1       538-6.66924E-12 1.62445E+00-1.50613E-01
 -1       539 0.00000E+00 0.00000E+00 0.00000E+00
 -1       540-1.00312E-10 6.08417E-03 1.72207E-03
 -1       541 0.00000E+00 0.00000E+00 0.00000E+00
 -1       542-5.01322E-11 6.08417E-03 1.72207E-03
 -1       543 0.00000E+00 0.00000E+00 0.00000E+00
 -1       544 3.30974E-11 1.53693E-03 8.90830E-04
 -1       545-5.27928E-11 6.07352E-03 8.34804E-04
 -1       546-1.46752E-10 2.38921E-02 3.07370E-03
 -1       547-7.34064E-11 2.38921E-02 3.07370E-03
 -1       548 6.73929E-11 1.35629E-02 2.46007E-03
 -1       549-8.49417E-11 2.38516E-02 1.34642E-03
 -1       550-1.48923E-10 5.27825E-02 3.81806E-03
 -1       551-7.45509E-11 5.27825E-02 3.81806E-03
 -1       552 7.91361E-11 3.69921E-02 3.53505E-03
 -1       553-1.02441E-10 5.26964E-02 1.29758E-03
 -1       554-1.00705E-10 9.21131E-02 3.75965E-03
 -1       555-5.05243E-11 9.21131E-02 3.75965E-03
 -1       556 6.90682E-11 7.11830E-02 3.89990E-03
 -1       557-1.03855E-10 9.19684E-02 4.93112E-04
 -1       558 2.01656E-11 1.41240E-01 2.74261E-03
 -1       559 9.81156E-12 1.41240E-01 2.74261E-03
 -1       560 3.03108E-11 1.15492E-01 3.37927E-03
 -1       561-7.96766E-11 1.41027E-01-1.22286E-03
 -1       562 2.55122E-10 1.99522E-01 6.48060E-04
 -1       563 1.27172E-10 1.99522E-01 6.48063E-04
 -1       564-5.25291E-11 1.69277E-01 1.83611E-03
 -1       565-1.01567E-11 1.99232E-01-3.96929E-03
 -1       566 6.70279E-10 2.66318E-01-2.60838E-03
 -1       567 3.34615E-10 2.66318E-01-2.60838E-03
 -1       568-2.05506E-10 2.31895E-01-8.30889E-04
 -1       569 1.38520E-10 2.65947E-01-7.83075E-03
 -1       570 1.36412E-09 3.40990E-01-7.07915E-03
 -1       571 6.81379E-10 3.40990E-01-7.07915E-03
 -1       572-4.68710E-10 3.02709E-01-4.68984E-03
 -1       573 4.19800E-10 3.40535E-01-1.28599E-02
 -1       574 2.47687E-09 4.22905E-01-1.27873E-02
 -1       575 1.23757E-09 4.22905E-01-1.27873E-02
 -1       576-9.00593E-10 3.81081E-01-9.77815E-03
 -1       577 9.13863E-10 4.22365E-01-1.90800E-02
 -1       578 4.19890E-09 5.11436E-01-1.97288E-02
 -1       579 2.09835E-09 5.11436E-01-1.97288E-02
 -1       580-1.58303E-09 4.66383E-01-1.61050E-02
 -1       581 1.73578E-09 5.10812E-01-2.64876E-02
 -1       582 6.77725E-09 6.05956E-01-2.78753E-02
 -1       583 3.38729E-09 6.05956E-01-2.78753E-02
 -1       584-2.62474E-09 5.57986E-01-2.36540E-02
 -1       585 3.04194E-09 6.05252E-01-3.50544E-02
 -1       586 1.05015E-08 7.05848E-01-3.71763E-02
 -1       587 5.24885E-09 7.05848E-01-3.71763E-02
 -1       588-4.16443E-09 6.55269E-01-3.23854E-02
 -1       589 5.03382E-09 7.05068E-01-4.47303E-02
 -1       590 1.56947E-08 8.10497E-01-4.75616E-02
 -1       591 7.84557E-09 8.10497E-01-4.75616E-02
 -1       592-6.35349E-09 7.57616E-01-4.22384E-02
 -1       593 7.93864E-09 8.09646E-01-5.54456E-02
 -1       594 2.25333E-08 9.19294E-01-5.89438E-02
 -1       595 1.12617E-08 9.19294E-01-5.89438E-02
 -1       596-9.36524E-09 8.64415E-01-5.31341E-02
 -1       597 1.19974E-08 9.18380E-01-6.71130E-02
 -1       598 3.12180E-08 1.03163E+00-7.12204E-02
 -1       599 1.56115E-08 1.03163E+00-7.12204E-02
 -1       600-1.32028E-08 9.75058E-01-6.49772E-02
 -1       601 1.72631E-08 1.03066E+00-7.96303E-02
 -1       602 4.02979E-08 1.14691E+00-8.42760E-02
 -1       603 2.01176E-08 1.14691E+00-8.42760E-02
 -1       604-1.80726E-08 1.08894E+00-7.76584E-02
 -1       605 2.38090E-08 1.14590E+00-9.28826E-02
 -1       606 5.10212E-08 1.26454E+00-9.79847E-02
 -1       607 2.55934E-08 1.26454E+00-9.79847E-02
 -1       608-2.23014E-08 1.20547E+00-9.10568E-02
 -1       609 2.98492E-08 1.26349E+00-1.06744E-01
 -1       610 4.75540E-08 1.38391E+00-1.12212E-01
 -1       611 2.34262E-08 1.38391E+00-1.12212E-01
 -1       612-2.88900E-08 1.32404E+00-1.05042E-01
 -1       613 3.68136E-08 1.38283E+00-1.21080E-01
 -1       614 6.53350E-08 1.50445E+00-1.26818E-01
 -1       615 3.38789E-08 1.50445E+00-1.26818E-01
 -1       616-1.87615E-08 1.44407E+00-1.19477E-01
 -1       617 2.67174E-08 1.50335E+00-1.35752E-01
 -1       618-7.51375E-08 1.62555E+00-1.41658E-01
 -1       619-4.20916E-08 1.62555E+00-1.41658E-01
 -1       620-4.73228E-08 1.56496E+00-1.34218E-01
 -1       621 4.15615E-08 1.62445E+00-1.50613E-01
 -3
    1PSTEP                         2           1           1          
  100CL  101 5.00000E-02         621                     0    1           1
 -4  STRESS      6    1
 -5  SXX         1    4    1    1
 -5  SYY         1    4    2    2
 -5  SZZ         1    4    3    3
 -5  SXY         1    4    1    2
 -5  SYZ         1    4    2    3
 -5  SZX         1    4    3    1
 -1         1 6.29849E-03-4.30780E+02-3.63038E+05-4.31428E-01 6.68640E+02-5.94140E-02
 -1         2-3.40975E-03-4.38665E+02-1.01088E+03 1.89212E-01 9.14353E+02-5.10110E-02
 -1         3-4.16671E-03-7.21465E+02-9.58902E+02-4.28509E-03 1.76902E+03-2.88033E-03
 -1         4-9.92516E-03-1.97943E+02-3.44422E+05-1.25579E-02-8.31740E+03 4.25070E-04
 -1         5 6.29850E-03-4.29957E+02-3.63038E+05 6.60237E-09 6.68816E+02 1.04804E-07
 -1         6-3.40975E-03-4.38636E+02-1.01084E+03 7.46289E-09 9.14371E+02-3.72332E-09
 -1         7-4.10525E-03-7.21472E+02-9.58863E+02-3.48029E-09 1.76896E+03-1.33693E-09
 -1         8-9.56933E-03-1.97912E+02-3.44422E+05 9.94259E-09-8.31723E+03 2.05593E-07
 -1         9 1.45897E-03-4.45235E+02-1.82000E+05-1.29220E-01 8.07584E+02-5.51247E-02
 -1        10 1.94231E-03-5.63949E+02-9.61104E+02 2.60340E-03 1.34056E+03 5.96613E-04
 -1        11-7.01849E-03-4.63603E+02-1.72680E+05-7.04089E-03-3.27868E+03-1.17064E-03
 -1        12 5.98836E-03-3.01129E+02-3.53765E+05 3.53420E-03-3.78314E+03-2.28062E-03
 -1        13 6.29849E-03-4.30369E+02-3.63038E+05-4.33075E-01 6.68728E+02-6.03317E-02
 -1        14-3.40975E-03-4.38650E+02-1.01086E+03 1.79298E-01 9.14362E+02-5.07106E-02
 -1        15-4.13598E-03-7.21469E+02-9.58883E+02-1.87323E-03 1.76899E+03-1.75360E-03
 -1        16-9.74725E-03-1.97927E+02-3.44422E+05-1.15406E-02-8.31732E+03 1.92040E-03
 -1        17 1.45897E-03-4.44417E+02-1.82000E+05 8.27032E-09 8.07641E+02 5.00546E-08
 -1        18 1.97304E-03-5.63947E+02-9.61124E+02 2.46313E-09 1.34059E+03-2.20205E-09
 -1        19-6.80979E-03-4.63583E+02-1.72680E+05-1.19765E-09-3.27863E+03 8.92361E-08
 -1        20 6.16629E-03-3.01137E+02-3.53765E+05 5.58378E-09-3.78322E+03 1.51117E-07
 -1        21-4.96366E-03-4.60370E+02-9.02014E+02-3.52519E-03 1.53216E+03-6.04038E-03
 -1        22-7.62462E-03-7.92568E+02-3.25504E+05-2.48247E-02-1.50478E+04-6.57059E-03
 -1        23-4.94126E-03-4.60383E+02-9.01973E+02 3.09205E-08 1.53210E+03-2.30745E-09
 -1        24-7.46808E-03-7.92502E+02-3.25504E+05-1.55211E-08-1.50476E+04 1.91532E-07
 -1        25 2.24007E-03-5.72967E+02-9.32430E+02 1.84879E-03 1.65092E+03 2.22750E-03
 -1        26-6.24321E-03-6.25478E+02-1.63202E+05-1.27338E-02-6.75966E+03-6.32220E-03
 -1        27 3.93842E-03-4.69275E+02-3.34953E+05 9.10370E-03-1.17068E+04 1.62831E-03
 -1        28-4.95246E-03-4.60377E+02-9.01993E+02-1.46527E-03 1.53213E+03-3.63514E-03
 -1        29-7.54635E-03-7.92535E+02-3.25504E+05-2.41290E-02-1.50477E+04-2.54211E-03
 -1        30 2.28200E-03-5.72962E+02-9.32450E+02 7.26688E-09 1.65095E+03-2.41297E-09
 -1        31-6.15371E-03-6.25435E+02-1.63202E+05 2.07708E-08-6.75960E+03 8.68470E-08
 -1        32 4.19460E-03-4.69299E+02-3.34953E+05 3.83150E-09-1.17069E+04 2.02483E-07
 -1        33-6.04988E-03-3.47998E+02-8.64772E+02-4.63921E-03 1.58359E+03-8.98443E-03
 -1        34-8.22879E-03-1.46916E+03-3.06391E+05-4.00876E-02-2.08232E+04-1.27774E-02
 -1        35-6.04431E-03-3.48017E+02-8.64729E+02-3.00824E-08 1.58354E+03-8.82601E-09
 -1        36-8.08085E-03-1.46906E+03-3.06391E+05 6.69306E-10-2.08230E+04 2.13516E-07
 -1        37 2.74791E-03-3.95330E+02-8.88070E+02 1.96686E-03 1.55607E+03 3.75419E-03
 -1        38-7.05943E-03-9.08925E+02-1.53625E+05-2.06144E-02-9.62006E+03-1.09681E-02
 -1        39 3.59033E-03-1.12521E+03-3.15944E+05 1.58833E-02-1.79495E+04 4.78035E-03
 -1        40-6.04710E-03-3.48007E+02-8.64751E+02-2.12743E-03 1.58357E+03-5.03313E-03
 -1        41-8.15482E-03-1.46911E+03-3.06391E+05-3.91329E-02-2.08231E+04-6.50143E-03
 -1        42 2.76189E-03-3.95322E+02-8.88091E+02 1.86714E-08 1.55610E+03-3.00562E-09
 -1        43-6.98264E-03-9.08855E+02-1.53625E+05-1.47489E-08-9.61998E+03 9.40595E-08
 -1        44 3.74259E-03-1.12525E+03-3.15944E+05 9.11871E-09-1.79496E+04 2.00666E-07
 -1        45-7.13368E-03-2.09902E+02-8.25789E+02-8.06659E-03 1.55576E+03-1.15104E-02
 -1        46-1.11624E-02-2.29121E+03-2.87190E+05-5.97539E-02-2.53435E+04-1.93871E-02
 -1        47-7.16328E-03-2.09926E+02-8.25747E+02 3.95420E-08 1.55571E+03 7.06999E-09
 -1        48-1.10529E-02-2.29105E+03-2.87190E+05-1.43930E-07-2.53432E+04 1.91254E-07
 -1        49 3.33348E-03-2.75994E+02-8.51574E+02 3.10825E-03 1.56829E+03 5.14135E-03
 -1        50-9.03287E-03-1.25054E+03-1.44006E+05-3.16008E-02-1.18938E+04-1.56443E-02
 -1        51 4.46092E-03-1.87751E+03-2.96782E+05 2.44602E-02-2.30914E+04 7.87699E-03
 -1        52-7.14847E-03-2.09914E+02-8.25768E+02-4.34124E-03 1.55573E+03-5.76075E-03
 -1        53-1.11077E-02-2.29113E+03-2.87190E+05-5.79782E-02-2.53434E+04-1.03750E-02
 -1        54 3.32146E-03-2.75983E+02-8.51596E+02-3.47628E-11 1.56831E+03-1.42989E-09
 -1        55-8.99285E-03-1.25044E+03-1.44006E+05-3.42306E-08-1.18937E+04 9.39243E-08
 -1        56 4.58969E-03-1.87758E+03-2.96782E+05-9.01800E-08-2.30915E+04 2.09312E-07
 -1        57-7.78192E-03-9.11751E+01-7.91687E+02-1.45148E-02 1.54786E+03-1.30930E-02
 -1        58-1.62679E-02-3.13660E+03-2.67986E+05-8.57433E-02-2.87826E+04-2.72512E-02
 -1        59-7.86332E-03-9.12026E+01-7.91649E+02-4.57648E-08 1.54782E+03-2.19344E-09
 -1        60-1.61860E-02-3.13638E+03-2.67986E+05 1.79683E-07-2.87822E+04 2.19681E-07
 -1        61 3.83691E-03-1.51037E+02-8.13018E+02 5.57816E-03 1.55053E+03 6.21730E-03
 -1        62-1.18645E-02-1.61398E+03-1.34386E+05-4.69814E-02-1.36172E+04-2.05264E-02
 -1        63 6.43929E-03-2.71502E+03-2.77582E+05 3.56680E-02-2.70668E+04 1.14026E-02
 -1        64-7.82261E-03-9.11889E+01-7.91668E+02-8.73768E-03 1.54784E+03-5.40890E-03
 -1        65-1.62269E-02-3.13649E+03-2.67986E+05-8.24413E-02-2.87824E+04-1.44059E-02
 -1        66 3.78144E-03-1.51025E+02-8.13038E+02 3.54569E-08 1.55056E+03-5.98757E-09
 -1        67-1.18642E-02-1.61384E+03-1.34386E+05-2.79121E-09-1.36171E+04 9.90015E-08
 -1        68 6.53501E-03-2.71512E+03-2.77582E+05 7.76724E-08-2.70670E+04 2.10561E-07
 -1        69-7.27861E-03 2.07764E+01-7.58458E+02-2.49586E-02 1.53385E+03-1.27646E-02
 -1        70-2.34414E-02-3.94992E+03-2.48850E+05-1.20569E-01-3.11921E+04-3.69053E-02
 -1        71-7.43911E-03 2.07464E+01-7.58433E+02-5.54323E-08 1.53382E+03-1.14223E-08
 -1        72-2.34156E-02-3.94961E+03-2.48850E+05-1.54963E-07-3.11916E+04 2.14814E-07
 -1        73 3.98189E-03-3.74846E+01-7.77686E+02 9.79955E-03 1.53988E+03 6.62093E-03
 -1        74-1.51400E-02-1.96468E+03-1.24802E+05-6.84598E-02-1.48290E+04-2.54195E-02
 -1        75 9.46861E-03-3.54554E+03-2.58414E+05 5.06003E-02-2.99887E+04 1.57139E-02
 -1        76-7.35886E-03 2.07614E+01-7.58445E+02-1.61825E-02 1.53384E+03-3.30304E-03
 -1        77-2.34285E-02-3.94977E+03-2.48850E+05-1.14795E-01-3.11919E+04-1.85512E-02
 -1        78 3.86093E-03-3.74705E+01-7.77702E+02-8.07968E-08 1.53990E+03-2.88425E-09
 -1        79-1.52073E-02-1.96448E+03-1.24802E+05-6.77151E-08-1.48288E+04 9.52052E-08
 -1        80 9.52244E-03-3.54567E+03-2.58414E+05-7.29337E-08-2.99889E+04 2.31577E-07
 -1        81-4.49979E-03 1.23269E+02-7.27206E+02-4.06961E-02 1.52115E+03-8.97057E-03
 -1        82-3.23854E-02-4.67545E+03-2.29838E+05-1.67482E-01-3.26589E+04-4.83795E-02
 -1        83-4.77316E-03 1.23239E+02-7.27205E+02-5.37626E-08 1.52114E+03-1.29189E-08
 -1        84-3.24688E-02-4.67502E+03-2.29838E+05 4.50882E-07-3.26583E+04 2.08171E-07
 -1        85 3.32373E-03 6.88891E+01-7.44133E+02 1.63465E-02 1.52674E+03 5.73714E-03
 -1        86-1.81465E-02-2.27626E+03-1.15281E+05-9.82602E-02-1.55688E+04-2.95813E-02
 -1        87 1.34890E-02-4.31542E+03-2.39342E+05 7.06844E-02-3.19255E+04 2.09709E-02
 -1        88-4.63648E-03 1.23254E+02-7.27206E+02-2.78762E-02 1.52114E+03 1.54344E-03
 -1        89-3.24271E-02-4.67524E+03-2.29838E+05-1.57975E-01-3.26586E+04-2.23331E-02
 -1        90 3.10681E-03 6.89038E+01-7.44140E+02-8.00522E-08 1.52675E+03-1.12867E-08
 -1        91-1.83249E-02-2.27598E+03-1.15281E+05 2.23584E-07-1.55685E+04 7.90410E-08
 -1        92 1.34601E-02-4.31561E+03-2.39342E+05 1.14544E-07-3.19258E+04 2.11660E-07
 -1        93 2.23611E-03 2.17467E+02-6.97675E+02-6.33386E-02 1.50813E+03 5.89603E-04
 -1        94-4.21770E-02-5.27342E+03-2.10993E+05-2.30548E-01-3.32611E+04-6.08389E-02
 -1        95 1.80913E-03 2.17441E+02-6.97716E+02-7.04784E-08 1.50815E+03 2.13990E-08
 -1        96-4.24971E-02-5.27285E+03-2.10992E+05-5.35670E-08-3.32603E+04 1.71625E-07
 -1        97 1.17535E-03 1.66868E+02-7.12931E+02 2.59728E-02 1.51400E+03 2.61907E-03
 -1        98-1.95646E-02-2.52822E+03-1.05843E+05-1.39169E-01-1.58764E+04-3.14635E-02
 -1        99 1.82455E-02-4.97706E+03-2.20414E+05 9.77559E-02-3.29592E+04 2.70105E-02
 -1       100 2.02263E-03 2.17454E+02-6.97696E+02-4.54700E-02 1.50814E+03 1.04536E-02
 -1       101-4.23370E-02-5.27313E+03-2.10992E+05-2.15807E-01-3.32607E+04-2.45769E-02
 -1       102 8.25192E-04 1.66881E+02-7.12922E+02 3.03333E-08 1.51400E+03 3.92641E-09
 -1       103-1.99382E-02-2.52783E+03-1.05843E+05-2.50138E-07-1.58761E+04 1.01808E-07
 -1       104 1.80437E-02-4.97731E+03-2.20414E+05 1.71002E-07-3.29596E+04 1.83650E-07
 -1       105 1.52864E-02 3.03399E+02-6.70145E+02-9.49984E-02 1.49555E+03 1.90854E-02
 -1       106-5.05066E-02-5.71438E+03-1.92343E+05-3.14923E-01-3.30783E+04-7.19058E-02
 -1       107 1.46782E-02 3.03385E+02-6.70247E+02-1.49342E-07 1.49560E+03-7.45244E-09
 -1       108-5.12005E-02-5.71360E+03-1.92343E+05 8.42727E-07-3.30773E+04 1.69461E-07
 -1       109-3.46954E-03 2.56770E+02-6.83910E+02 3.95799E-02 1.50121E+03-4.08856E-03
 -1       110-1.70933E-02-2.70582E+03-9.65051E+04-1.94776E-01-1.57913E+04-2.83110E-02
 -1       111 2.30432E-02-5.49613E+03-2.01667E+05 1.34057E-01-3.31683E+04 3.31136E-02
 -1       112 1.49823E-02 3.03392E+02-6.70196E+02-7.13312E-02 1.49558E+03 2.50662E-02
 -1       113-5.08535E-02-5.71399E+03-1.92343E+05-2.93207E-01-3.30778E+04-2.30135E-02
 -1       114-3.98719E-03 2.56780E+02-6.83875E+02-4.23453E-08 1.50120E+03-1.68604E-09
 -1       115-1.77443E-02-2.70529E+03-9.65051E+04 2.89687E-07-1.57908E+04 8.78098E-08
 -1       116 2.25362E-02-5.49646E+03-2.01667E+05 4.88462E-07-3.31688E+04 1.60665E-07
 -1       117 3.77461E-02 3.81321E+02-6.44725E+02-1.37779E-01 1.48348E+03 5.05560E-02
 -1       118-5.27620E-02-5.97921E+03-1.73909E+05-4.26207E-01-3.21880E+04-7.65828E-02
 -1       119 3.69254E-02 3.81329E+02-6.44915E+02-4.27972E-08 1.48359E+03-1.66991E-08
 -1       120-5.43796E-02-5.97816E+03-1.73910E+05 2.97759E-07-3.21866E+04 2.40537E-07
 -1       121-1.19770E-02 3.38585E+02-6.57122E+02 5.84436E-02 1.48878E+03-1.61894E-02
 -1       122-6.71283E-03-2.79940E+03-8.72756E+04-2.68924E-01-1.53522E+04-1.56003E-02
 -1       123 2.62246E-02-5.84839E+03-1.83126E+05 1.82510E-01-3.26311E+04 3.75319E-02
 -1       124 3.73358E-02 3.81325E+02-6.44820E+02-1.08625E-01 1.48353E+03 4.71443E-02
 -1       125-5.35708E-02-5.97868E+03-1.73910E+05-3.96772E-01-3.21873E+04-1.36415E-02
 -1       126-1.26915E-02 3.38586E+02-6.57049E+02-9.46011E-08 1.48874E+03-4.45476E-09
 -1       127-7.93198E-03-2.79867E+03-8.72757E+04 8.31542E-08-1.53514E+04 1.05346E-07
 -1       128 2.50689E-02-5.84884E+03-1.83126E+05 4.37009E-07-3.26317E+04 1.99902E-07
 -1       129 7.31766E-02 4.51392E+02-6.21554E+02-1.95968E-01 1.47215E+03 9.96622E-02
 -1       130-3.93652E-02-6.05777E+03-1.55700E+05-5.72820E-01-3.06657E+04-6.54811E-02
 -1       131 7.22718E-02 4.51440E+02-6.21856E+02-1.17952E-07 1.47235E+03 8.79787E-09
 -1       132-4.16019E-02-6.05636E+03-1.55700E+05-2.74200E-07-3.06638E+04 2.10686E-07
 -1       133-2.61025E-02 4.12429E+02-6.32562E+02 8.34817E-02 1.47686E+03-3.58812E-02
 -1       134 1.75832E-02-2.80381E+03-7.81594E+04-3.68002E-01-1.45966E+04 1.36603E-02
 -1       135 2.47595E-02-6.01922E+03-1.64805E+05 2.45834E-01-3.14241E+04 3.69545E-02
 -1       136 7.27242E-02 4.51416E+02-6.21705E+02-1.62713E-01 1.47225E+03 7.83740E-02
 -1       137-4.04835E-02-6.05706E+03-1.55700E+05-5.34390E-01-3.06648E+04 1.00235E-02
 -1       138-2.69653E-02 4.12415E+02-6.32439E+02 3.41252E-08 1.47678E+03 3.25174E-08
 -1       139 1.60124E-02-2.80282E+03-7.81596E+04-7.40542E-08-1.45956E+04 1.19286E-07
 -1       140 2.28323E-02-6.01982E+03-1.64805E+05 7.31217E-08-3.14249E+04 1.12500E-07
 -1       141 1.25244E-01 5.13790E+02-6.00743E+02-2.68355E-01 1.46176E+03 1.70667E-01
 -1       142 3.92784E-03-5.94790E+03-1.37715E+05-7.56554E-01-2.85845E+04-2.19517E-02
 -1       143 1.24172E-01 5.13907E+02-6.01176E+02 9.84694E-08 1.46210E+03 8.01737E-08
 -1       144-2.87953E-03-5.94600E+03-1.37715E+05 8.73608E-07-2.85821E+04-6.42896E-08
 -1       145-4.76534E-02 4.78405E+02-6.10259E+02 1.18243E-01 1.46562E+03-6.55602E-02
 -1       146 6.69625E-02-2.71791E+03-6.91567E+04-4.92489E-01-1.35612E+04 7.01852E-02
 -1       147 1.19923E-02-6.00240E+03-1.46708E+05 3.29690E-01-2.96215E+04 2.49592E-02
 -1       148 1.24708E-01 5.13849E+02-6.00959E+02-2.38719E-01 1.46193E+03 1.18978E-01
 -1       149 5.24161E-04-5.94695E+03-1.37715E+05-7.19320E-01-2.85833E+04 5.86323E-02
 -1       150-4.86420E-02 4.78363E+02-6.10074E+02 1.54979E-08 1.46548E+03-1.55617E-09
 -1       151 6.30225E-02-2.71658E+03-6.91571E+04 1.67815E-07-1.35598E+04 5.31029E-08
 -1       152 7.47020E-03-6.00322E+03-1.46708E+05-9.22104E-08-2.96226E+04 1.41897E-07
 -1       153 1.95248E-01 5.68673E+02-5.82374E+02-3.78190E-01 1.45244E+03 2.66652E-01
 -1       154 1.12325E-01-5.65443E+03-1.19947E+05-1.00627E+00-2.60151E+04 8.03362E-02
 -1       155 1.95322E-01 5.68910E+02-5.82943E+02-3.64360E-07 1.45302E+03-1.94605E-08
 -1       156 1.11344E-01-5.65186E+03-1.19948E+05-2.87266E-07-2.60118E+04 1.56208E-07
 -1       157-7.85924E-02 5.36610E+02-5.90231E+02 1.58141E-01 1.45518E+03-1.06922E-01
 -1       158 1.51482E-01-2.54407E+03-6.02638E+04-6.68763E-01-1.22810E+04 1.67950E-01
 -1       159-1.99406E-02-5.79918E+03-1.28833E+05 4.30519E-01-2.72951E+04-8.19117E-03
 -1       160 1.95285E-01 5.68792E+02-5.82658E+02-3.55356E-01 1.45273E+03 1.69054E-01
 -1       161 1.11834E-01-5.65315E+03-1.19948E+05-9.58853E-01-2.60135E+04 1.46815E-01
 -1       162-7.90916E-02 5.36524E+02-5.89978E+02-4.68927E-07 1.45495E+03 3.49346E-08
 -1       163 1.51028E-01-2.54224E+03-6.02645E+04-2.31220E-07-1.22792E+04 5.68323E-08
 -1       164-2.38347E-02-5.80027E+03-1.28833E+05 3.23447E-07-2.72965E+04 1.00718E-07
 -1       165 2.82311E-01 6.16284E+02-5.66574E+02-4.63663E-01 1.44451E+03 3.81424E-01
 -1       166 3.03992E-01-5.18809E+03-1.02383E+05-1.24963E+00-2.30254E+04 2.92702E-01
 -1       167 2.81330E-01 6.16700E+02-5.67233E+02 6.26692E-07 1.44543E+03-1.52983E-08
 -1       168 2.63247E-01-5.18474E+03-1.02384E+05 8.40685E-07-2.30210E+04-1.94993E-08
 -1       169-1.17960E-01 5.87162E+02-5.72529E+02 2.31737E-01 1.44570E+03-1.61252E-01
 -1       170 3.10874E-01-2.28762E+03-5.14739E+04-8.30423E-01-1.07901E+04 3.33269E-01
 -1       171-9.83718E-02-5.41721E+03-1.11168E+05 5.79861E-01-2.45140E+04-8.20069E-02
 -1       172 2.81821E-01 6.16492E+02-5.66904E+02-5.00791E-01 1.44497E+03 2.16265E-01
 -1       173 2.83620E-01-5.18642E+03-1.02384E+05-1.30368E+00-2.30232E+04 3.02119E-01
 -1       174-1.18413E-01 5.86994E+02-5.72210E+02 3.08024E-07 1.44532E+03 6.76942E-09
 -1       175 2.90011E-01-2.28517E+03-5.14750E+04 9.82706E-07-1.07875E+04-1.79247E-08
 -1       176-1.19236E-01-5.41871E+03-1.11167E+05 4.82133E-07-2.45158E+04-3.33875E-08
 -1       177 3.67798E-01 6.56580E+02-5.53141E+02-7.92822E-01 1.43771E+03 5.14415E-01
 -1       178 7.58278E-01-4.56543E+03-8.50026E+04-1.78809E+00-1.96807E+04 6.53023E-01
 -1       179 3.77208E-01 6.57378E+02-5.53851E+02 2.14675E-07 1.43935E+03 2.71896E-08
 -1       180 8.38007E-01-4.56055E+03-8.50048E+04-7.88645E-07-1.96749E+04 8.46105E-09
 -1       181-1.66946E-01 6.30045E+02-5.57118E+02 2.48154E-01 1.43709E+03-2.20278E-01
 -1       182 5.08775E-01-1.95674E+03-4.27772E+04-1.26438E+00-9.12097E+03 5.70887E-01
 -1       183-2.16224E-01-4.86986E+03-9.36968E+04 6.77869E-01-2.13446E+04-2.18775E-01
 -1       184 3.72503E-01 6.56979E+02-5.53496E+02-8.11593E-01 1.43853E+03 2.72653E-01
 -1       185 7.98142E-01-4.56299E+03-8.50037E+04-1.67268E+00-1.96778E+04 5.41691E-01
 -1       186-1.62732E-01 6.29770E+02-5.56780E+02 2.87827E-07 1.43649E+03-1.82269E-08
 -1       187 5.53346E-01-1.95318E+03-4.27787E+04-1.32827E-07-9.11737E+03 1.54026E-08
 -1       188-1.96727E-01-4.87175E+03-9.36959E+04 4.58230E-08-2.13472E+04 4.80808E-08
 -1       189 4.37539E-01 6.90574E+02-5.42786E+02-4.21882E-01 1.43397E+03 5.73262E-01
 -1       190 1.19747E+00-3.80504E+03-6.77812E+04-1.52216E+00-1.60459E+04 1.41607E+00
 -1       191 4.27690E-01 6.91699E+02-5.43142E+02-4.95693E-07 1.43631E+03-7.49660E-08
 -1       192 7.84592E-01-3.79977E+03-6.77848E+04-3.75631E-08-1.60372E+04 2.29430E-07
 -1       193-2.01422E-01 6.65662E+02-5.44379E+02 5.72057E-01 1.42998E+03-2.92914E-01
 -1       194 1.03933E+00-1.56111E+03-3.41614E+04-9.45247E-01-7.30557E+03 1.02075E+00
 -1       195-5.54181E-01-4.17432E+03-7.63973E+04 1.11131E+00-1.78516E+04-4.71585E-01
 -1       196 4.32615E-01 6.91137E+02-5.42964E+02-9.21648E-01 1.43514E+03 2.15927E-01
 -1       197 9.91032E-01-3.80240E+03-6.77830E+04-2.53315E+00-1.60416E+04 9.71799E-01
 -1       198-2.01638E-01 6.65099E+02-5.44015E+02-4.49753E-07 1.42885E+03-4.44886E-08
 -1       199 8.27962E-01-1.55690E+03-3.41634E+04-2.62267E-07-7.30002E+03 4.59634E-08
 -1       200-7.20775E-01-4.17741E+03-7.63960E+04-2.62375E-07-1.78549E+04 1.95518E-07
 -1       201 3.75527E-01 7.15129E+02-5.31922E+02-2.97981E+00 1.42745E+03 7.20761E-01
 -1       202 3.29295E+00-2.93829E+03-5.06942E+04-4.56541E+00-1.21759E+04 2.10480E+00
 -1       203 4.50657E-01 7.17978E+02-5.32515E+02-4.59281E-07 1.43293E+03 9.44277E-08
 -1       204 4.65207E+00-2.92595E+03-5.06980E+04 1.24838E-06-1.21670E+04-9.66551E-08
 -1       205-2.46742E-01 6.92824E+02-5.33324E+02-1.20905E-01 1.42208E+03-2.71293E-01
 -1       206 1.02425E+00-1.11522E+03-2.56126E+04-3.78054E+00-5.37353E+03 1.29368E+00
 -1       207-6.82973E-01-3.35466E+03-5.92437E+04 4.52383E-01-1.40944E+04-9.03474E-01
 -1       208 4.13092E-01 7.16553E+02-5.32219E+02-2.44549E+00 1.43019E+03 3.78135E-01
 -1       209 3.97251E+00-2.93212E+03-5.06961E+04-2.36725E+00-1.21715E+04 1.43188E+00
 -1       210-2.14116E-01 6.92189E+02-5.33349E+02-5.59551E-08 1.42072E+03 4.52899E-08
 -1       211 1.74138E+00-1.10660E+03-2.56147E+04 2.45518E-07-5.36666E+03-1.51762E-08
 -1       212-2.09779E-01-3.35685E+03-5.92416E+04 5.64240E-07-1.40997E+04 1.73506E-08
 -1       213 1.87164E-01 7.42058E+02-5.31907E+02 4.92886E+00 1.44205E+03-9.75970E-02
 -1       214 1.71037E+00-1.96667E+03-3.36989E+04 4.39024E+00-8.15740E+03 5.67473E+00
 -1       215 5.40729E-02 7.43305E+02-5.28767E+02 6.44012E-07 1.44517E+03-2.46698E-07
 -1       216-3.62737E+00-1.96873E+03-3.37089E+04-1.68047E-06-8.13178E+03 5.32228E-07
 -1       217-1.03065E-01 7.16413E+02-5.28719E+02 3.19408E+00 1.42169E+03-4.47446E-01
 -1       218 4.03494E+00-6.25228E+02-1.71143E+04 4.73406E+00-3.35889E+03 3.27509E+00
 -1       219-2.59203E+00-2.42600E+03-4.22032E+04 4.02032E+00-1.01412E+04-1.49721E+00
 -1       220 1.20619E-01 7.42682E+02-5.30337E+02 3.01662E-01 1.44361E+03-7.32578E-01
 -1       221-9.58502E-01-1.96770E+03-3.37039E+04-7.29024E+00-8.14459E+03 2.81759E+00
 -1       222-1.31997E-01 7.14119E+02-5.28120E+02-1.55519E-09 1.41735E+03-1.05559E-07
 -1       223 1.29951E+00-6.23223E+02-1.71182E+04 1.58287E-07-3.34339E+03 2.11059E-09
 -1       224-4.58160E+00-2.43657E+03-4.22013E+04 7.71206E-08-1.01453E+04 2.03488E-07
 -1       225-5.86902E-01 7.25392E+02-4.94748E+02-2.70914E+01 1.39104E+03 1.53888E+00
 -1       226 1.80545E+01-1.01950E+03-1.68102E+04-3.16828E+01-3.95123E+03 1.20327E+00
 -1       227-9.06340E-02 7.40923E+02-5.01392E+02-1.47721E-06 1.42021E+03 8.29299E-08
 -1       228 3.74954E+01-9.50412E+02-1.68024E+04 1.81036E-06-3.96366E+03-3.31279E-07
 -1       229-1.90125E-01 7.19009E+02-5.14332E+02-8.16206E+00 1.39672E+03 6.03713E-01
 -1       230-2.82731E+00-1.38039E+02-8.65230E+03-2.98549E+01-1.27644E+03-4.97518E-01
 -1       231 5.81162E-01-1.44925E+03-2.52541E+04-7.94975E+00-6.01605E+03-3.26352E+00
 -1       232-3.38768E-01 7.33158E+02-4.98070E+02-1.46911E+01 1.40562E+03 2.21323E+00
 -1       233 2.77749E+01-9.84958E+02-1.68063E+04 5.14954E+00-3.95744E+03 2.25890E+00
 -1       234-8.72831E-03 7.19781E+02-5.18068E+02-8.84384E-07 1.39754E+03 4.59400E-08
 -1       235 7.14128E+00-9.64354E+01-8.65078E+03-6.03421E-07-1.27222E+03-5.08500E-08
 -1       236 7.63369E+00-1.43571E+03-2.52475E+04 5.81390E-07-6.03587E+03-1.83643E-07
 -1       237-2.93766E+00 7.29903E+02-5.75854E+02 1.20726E+02 1.40655E+03-1.47539E+01
 -1       238-9.27762E+01 6.66558E+02 1.22083E+02 1.58018E+02 3.69585E+02-3.76354E+01
 -1       239-3.80419E+00 6.46747E+02-5.43961E+02 3.33949E-07 1.24386E+03 6.99944E-08
 -1       240-1.65649E+02 2.67147E+02 1.61325E+02 6.43182E-07 2.25948E+02-1.49750E-07
 -1       241 1.17144E+00 7.67907E+02-5.55057E+02 3.59096E+01 1.46621E+03-2.24315E+00
 -1       242-4.25652E+00 7.32060E+02-2.14299E+02 1.42525E+02 8.71824E+02-1.22601E+01
 -1       243-1.78140E+01-3.22309E+02-8.31767E+03 3.80350E+01-1.90257E+03-1.64498E+00
 -1       244-3.37092E+00 6.88325E+02-5.59907E+02 7.88054E+01 1.32520E+03-1.23852E+01
 -1       245-1.29213E+02 4.66852E+02 1.41704E+02 2.72214E+01 2.97766E+02-3.03754E+01
 -1       246 9.86463E-01 7.51743E+02-5.44731E+02-1.21877E-07 1.43582E+03-2.86526E-08
 -1       247-4.11264E+01 4.72769E+02-1.88287E+02-8.04449E-08 7.33884E+02-9.02716E-09
 -1       248-4.45309E+01-4.09336E+02-8.32677E+03 5.06659E-07-1.87753E+03 6.48876E-08
 -1       249 6.29848E-03-4.30780E+02-3.63038E+05 4.31428E-01 6.68640E+02 5.94142E-02
 -1       250-3.40974E-03-4.38665E+02-1.01088E+03-1.89212E-01 9.14353E+02 5.10110E-02
 -1       251-4.16671E-03-7.21465E+02-9.58902E+02 4.28510E-03 1.76902E+03 2.88033E-03
 -1       252-9.92516E-03-1.97943E+02-3.44422E+05 1.25579E-02-8.31740E+03-4.24974E-04
 -1       253 6.29849E-03-4.30369E+02-3.63038E+05 4.33075E-01 6.68728E+02 6.03319E-02
 -1       254-3.40974E-03-4.38650E+02-1.01086E+03-1.79298E-01 9.14362E+02 5.07106E-02
 -1       255-4.13598E-03-7.21469E+02-9.58883E+02 1.87323E-03 1.76899E+03 1.75360E-03
 -1       256-9.74725E-03-1.97927E+02-3.44422E+05 1.15406E-02-8.31732E+03-1.92014E-03
 -1       257 1.45897E-03-4.45235E+02-1.82000E+05 1.29220E-01 8.07584E+02 5.51248E-02
 -1       258 1.94231E-03-5.63949E+02-9.61104E+02-2.60341E-03 1.34056E+03-5.96613E-04
 -1       259-7.01849E-03-4.63603E+02-1.72680E+05 7.04090E-03-3.27868E+03 1.17066E-03
 -1       260 5.98836E-03-3.01129E+02-3.53765E+05-3.53419E-03-3.78314E+03 2.28077E-03
 -1       261-4.96365E-03-4.60370E+02-9.02014E+02 3.52512E-03 1.53216E+03 6.04037E-03
 -1       262-7.62463E-03-7.92568E+02-3.25504E+05 2.48247E-02-1.50478E+04 6.57079E-03
 -1       263-4.95245E-03-4.60377E+02-9.01993E+02 1.46527E-03 1.53213E+03 3.63514E-03
 -1       264-7.54636E-03-7.92535E+02-3.25504E+05 2.41290E-02-1.50477E+04 2.54239E-03
 -1       265 2.24007E-03-5.72967E+02-9.32430E+02-1.84879E-03 1.65092E+03-2.22750E-03
 -1       266-6.24321E-03-6.25478E+02-1.63202E+05 1.27337E-02-6.75966E+03 6.32228E-03
 -1       267 3.93842E-03-4.69275E+02-3.34953E+05-9.10372E-03-1.17068E+04-1.62816E-03
 -1       268-6.04986E-03-3.47998E+02-8.64772E+02 4.63936E-03 1.58359E+03 8.98442E-03
 -1       269-8.22882E-03-1.46916E+03-3.06391E+05 4.00876E-02-2.08232E+04 1.27776E-02
 -1       270-6.04708E-03-3.48007E+02-8.64751E+02 2.12747E-03 1.58357E+03 5.03312E-03
 -1       271-8.15484E-03-1.46911E+03-3.06391E+05 3.91329E-02-2.08231E+04 6.50176E-03
 -1       272 2.74791E-03-3.95330E+02-8.88070E+02-1.96682E-03 1.55607E+03-3.75418E-03
 -1       273-7.05943E-03-9.08925E+02-1.53625E+05 2.06145E-02-9.62006E+03 1.09682E-02
 -1       274 3.59034E-03-1.12521E+03-3.15944E+05-1.58832E-02-1.79495E+04-4.78014E-03
 -1       275-7.13369E-03-2.09902E+02-8.25789E+02 8.06646E-03 1.55576E+03 1.15104E-02
 -1       276-1.11624E-02-2.29121E+03-2.87190E+05 5.97541E-02-2.53435E+04 1.93874E-02
 -1       277-7.14849E-03-2.09914E+02-8.25768E+02 4.34121E-03 1.55573E+03 5.76075E-03
 -1       278-1.11076E-02-2.29113E+03-2.87190E+05 5.79781E-02-2.53434E+04 1.03753E-02
 -1       279 3.33347E-03-2.75994E+02-8.51574E+02-3.10831E-03 1.56829E+03-5.14134E-03
 -1       280-9.03287E-03-1.25054E+03-1.44006E+05 3.16008E-02-1.18938E+04 1.56444E-02
 -1       281 4.46093E-03-1.87751E+03-2.96782E+05-2.44601E-02-2.30914E+04-7.87674E-03
 -1       282-7.78195E-03-9.11751E+01-7.91687E+02 1.45148E-02 1.54786E+03 1.30930E-02
 -1       283-1.62678E-02-3.13660E+03-2.67986E+05 8.57435E-02-2.87826E+04 2.72515E-02
 -1       284-7.82264E-03-9.11889E+01-7.91668E+02 8.73760E-03 1.54784E+03 5.40890E-03
 -1       285-1.62269E-02-3.13649E+03-2.67986E+05 8.24416E-02-2.87824E+04 1.44062E-02
 -1       286 3.83693E-03-1.51037E+02-8.13018E+02-5.57825E-03 1.55053E+03-6.21732E-03
 -1       287-1.18645E-02-1.61398E+03-1.34386E+05 4.69816E-02-1.36172E+04 2.05265E-02
 -1       288 6.43929E-03-2.71502E+03-2.77582E+05-3.56677E-02-2.70668E+04-1.14023E-02
 -1       289-7.27860E-03 2.07764E+01-7.58458E+02 2.49590E-02 1.53385E+03 1.27646E-02
 -1       290-2.34414E-02-3.94992E+03-2.48850E+05 1.20569E-01-3.11921E+04 3.69055E-02
 -1       291-7.35885E-03 2.07614E+01-7.58445E+02 1.61827E-02 1.53384E+03 3.30303E-03
 -1       292-2.34285E-02-3.94977E+03-2.48850E+05 1.14795E-01-3.11919E+04 1.85515E-02
 -1       293 3.98186E-03-3.74846E+01-7.77686E+02-9.79921E-03 1.53988E+03-6.62092E-03
 -1       294-1.51400E-02-1.96468E+03-1.24802E+05 6.84599E-02-1.48290E+04 2.54196E-02
 -1       295 9.46862E-03-3.54554E+03-2.58414E+05-5.06003E-02-2.99887E+04-1.57137E-02
 -1       296-4.49978E-03 1.23269E+02-7.27206E+02 4.06958E-02 1.52115E+03 8.97057E-03
 -1       297-3.23854E-02-4.67545E+03-2.29838E+05 1.67481E-01-3.26589E+04 4.83798E-02
 -1       298-4.63647E-03 1.23254E+02-7.27206E+02 2.78760E-02 1.52114E+03-1.54346E-03
 -1       299-3.24271E-02-4.67524E+03-2.29838E+05 1.57975E-01-3.26586E+04 2.23335E-02
 -1       300 3.32377E-03 6.88891E+01-7.44133E+02-1.63463E-02 1.52674E+03-5.73716E-03
 -1       301-1.81465E-02-2.27626E+03-1.15281E+05 9.82599E-02-1.55688E+04 2.95815E-02
 -1       302 1.34889E-02-4.31542E+03-2.39342E+05-7.06845E-02-3.19255E+04-2.09705E-02
 -1       303 2.23605E-03 2.17467E+02-6.97675E+02 6.33388E-02 1.50813E+03-5.89602E-04
 -1       304-4.21768E-02-5.27342E+03-2.10993E+05 2.30548E-01-3.32611E+04 6.08392E-02
 -1       305 2.02257E-03 2.17454E+02-6.97696E+02 4.54700E-02 1.50814E+03-1.04536E-02
 -1       306-4.23369E-02-5.27313E+03-2.10992E+05 2.15807E-01-3.32607E+04 2.45772E-02
 -1       307 1.17537E-03 1.66868E+02-7.12931E+02-2.59731E-02 1.51400E+03-2.61906E-03
 -1       308-1.95646E-02-2.52822E+03-1.05843E+05 1.39170E-01-1.58764E+04 3.14637E-02
 -1       309 1.82455E-02-4.97706E+03-2.20414E+05-9.77556E-02-3.29592E+04-2.70102E-02
 -1       310 1.52864E-02 3.03399E+02-6.70145E+02 9.49992E-02 1.49555E+03-1.90854E-02
 -1       311-5.05066E-02-5.71438E+03-1.92343E+05 3.14921E-01-3.30783E+04 7.19062E-02
 -1       312 1.49823E-02 3.03392E+02-6.70196E+02 7.13314E-02 1.49558E+03-2.50662E-02
 -1       313-5.08536E-02-5.71399E+03-1.92343E+05 2.93207E-01-3.30778E+04 2.30139E-02
 -1       314-3.46963E-03 2.56770E+02-6.83910E+02-3.95792E-02 1.50121E+03 4.08851E-03
 -1       315-1.70933E-02-2.70582E+03-9.65051E+04 1.94776E-01-1.57913E+04 2.83112E-02
 -1       316 2.30433E-02-5.49613E+03-2.01667E+05-1.34059E-01-3.31683E+04-3.31133E-02
 -1       317 3.77462E-02 3.81321E+02-6.44725E+02 1.37779E-01 1.48348E+03-5.05561E-02
 -1       318-5.27620E-02-5.97921E+03-1.73909E+05 4.26208E-01-3.21880E+04 7.65831E-02
 -1       319 3.73358E-02 3.81325E+02-6.44820E+02 1.08625E-01 1.48353E+03-4.71444E-02
 -1       320-5.35708E-02-5.97868E+03-1.73910E+05 3.96773E-01-3.21873E+04 1.36419E-02
 -1       321-1.19770E-02 3.38585E+02-6.57122E+02-5.84436E-02 1.48878E+03 1.61894E-02
 -1       322-6.71281E-03-2.79940E+03-8.72756E+04 2.68924E-01-1.53522E+04 1.56003E-02
 -1       323 2.62246E-02-5.84839E+03-1.83126E+05-1.82510E-01-3.26311E+04-3.75316E-02
 -1       324 7.31766E-02 4.51392E+02-6.21554E+02 1.95968E-01 1.47215E+03-9.96621E-02
 -1       325-3.93652E-02-6.05777E+03-1.55700E+05 5.72819E-01-3.06657E+04 6.54812E-02
 -1       326 7.27242E-02 4.51416E+02-6.21705E+02 1.62713E-01 1.47225E+03-7.83739E-02
 -1       327-4.04836E-02-6.05706E+03-1.55700E+05 5.34389E-01-3.06648E+04-1.00232E-02
 -1       328-2.61025E-02 4.12429E+02-6.32562E+02-8.34817E-02 1.47686E+03 3.58812E-02
 -1       329 1.75832E-02-2.80381E+03-7.81594E+04 3.68002E-01-1.45966E+04-1.36602E-02
 -1       330 2.47594E-02-6.01922E+03-1.64805E+05-2.45833E-01-3.14241E+04-3.69543E-02
 -1       331 1.25244E-01 5.13790E+02-6.00743E+02 2.68354E-01 1.46176E+03-1.70667E-01
 -1       332 3.92781E-03-5.94790E+03-1.37715E+05 7.56555E-01-2.85845E+04 2.19519E-02
 -1       333 1.24708E-01 5.13849E+02-6.00959E+02 2.38718E-01 1.46193E+03-1.18978E-01
 -1       334 5.24136E-04-5.94695E+03-1.37715E+05 7.19322E-01-2.85833E+04-5.86323E-02
 -1       335-4.76534E-02 4.78405E+02-6.10259E+02-1.18243E-01 1.46562E+03 6.55601E-02
 -1       336 6.69625E-02-2.71791E+03-6.91567E+04 4.92488E-01-1.35612E+04-7.01851E-02
 -1       337 1.19924E-02-6.00240E+03-1.46708E+05-3.29690E-01-2.96215E+04-2.49590E-02
 -1       338 1.95248E-01 5.68673E+02-5.82374E+02 3.78190E-01 1.45244E+03-2.66652E-01
 -1       339 1.12325E-01-5.65443E+03-1.19947E+05 1.00627E+00-2.60151E+04-8.03356E-02
 -1       340 1.95285E-01 5.68792E+02-5.82658E+02 3.55356E-01 1.45273E+03-1.69054E-01
 -1       341 1.11834E-01-5.65315E+03-1.19948E+05 9.58853E-01-2.60135E+04-1.46815E-01
 -1       342-7.85924E-02 5.36610E+02-5.90231E+02-1.58141E-01 1.45518E+03 1.06922E-01
 -1       343 1.51482E-01-2.54407E+03-6.02638E+04 6.68763E-01-1.22810E+04-1.67950E-01
 -1       344-1.99407E-02-5.79918E+03-1.28833E+05-4.30520E-01-2.72951E+04 8.19158E-03
 -1       345 2.82311E-01 6.16284E+02-5.66574E+02 4.63662E-01 1.44451E+03-3.81424E-01
 -1       346 3.03992E-01-5.18809E+03-1.02383E+05 1.24963E+00-2.30254E+04-2.92702E-01
 -1       347 2.81821E-01 6.16492E+02-5.66904E+02 5.00791E-01 1.44497E+03-2.16265E-01
 -1       348 2.83620E-01-5.18642E+03-1.02384E+05 1.30368E+00-2.30232E+04-3.02119E-01
 -1       349-1.17960E-01 5.87162E+02-5.72529E+02-2.31738E-01 1.44570E+03 1.61252E-01
 -1       350 3.10874E-01-2.28762E+03-5.14739E+04 8.30422E-01-1.07901E+04-3.33269E-01
 -1       351-9.83718E-02-5.41721E+03-1.11168E+05-5.79861E-01-2.45140E+04 8.20071E-02
 -1       352 3.67798E-01 6.56580E+02-5.53141E+02 7.92824E-01 1.43771E+03-5.14415E-01
 -1       353 7.58278E-01-4.56543E+03-8.50026E+04 1.78809E+00-1.96807E+04-6.53023E-01
 -1       354 3.72503E-01 6.56979E+02-5.53496E+02 8.11594E-01 1.43853E+03-2.72653E-01
 -1       355 7.98142E-01-4.56299E+03-8.50037E+04 1.67268E+00-1.96778E+04-5.41690E-01
 -1       356-1.66946E-01 6.30045E+02-5.57118E+02-2.48154E-01 1.43709E+03 2.20278E-01
 -1       357 5.08775E-01-1.95674E+03-4.27772E+04 1.26438E+00-9.12097E+03-5.70887E-01
 -1       358-2.16224E-01-4.86986E+03-9.36968E+04-6.77870E-01-2.13446E+04 2.18775E-01
 -1       359 4.37540E-01 6.90574E+02-5.42786E+02 4.21883E-01 1.43397E+03-5.73262E-01
 -1       360 1.19747E+00-3.80504E+03-6.77812E+04 1.52216E+00-1.60459E+04-1.41607E+00
 -1       361 4.32615E-01 6.91137E+02-5.42964E+02 9.21648E-01 1.43514E+03-2.15927E-01
 -1       362 9.91032E-01-3.80240E+03-6.77830E+04 2.53315E+00-1.60416E+04-9.71799E-01
 -1       363-2.01422E-01 6.65662E+02-5.44379E+02-5.72056E-01 1.42998E+03 2.92914E-01
 -1       364 1.03933E+00-1.56111E+03-3.41614E+04 9.45247E-01-7.30557E+03-1.02075E+00
 -1       365-5.54181E-01-4.17432E+03-7.63973E+04-1.11131E+00-1.78516E+04 4.71585E-01
 -1       366 3.75527E-01 7.15129E+02-5.31922E+02 2.97981E+00 1.42745E+03-7.20761E-01
 -1       367 3.29295E+00-2.93829E+03-5.06942E+04 4.56541E+00-1.21759E+04-2.10480E+00
 -1       368 4.13092E-01 7.16553E+02-5.32219E+02 2.44549E+00 1.43019E+03-3.78135E-01
 -1       369 3.97251E+00-2.93212E+03-5.06961E+04 2.36725E+00-1.21715E+04-1.43188E+00
 -1       370-2.46742E-01 6.92824E+02-5.33324E+02 1.20904E-01 1.42208E+03 2.71294E-01
 -1       371 1.02425E+00-1.11522E+03-2.56126E+04 3.78054E+00-5.37353E+03-1.29368E+00
 -1       372-6.82973E-01-3.35466E+03-5.92437E+04-4.52383E-01-1.40944E+04 9.03474E-01
 -1       373 1.87164E-01 7.42058E+02-5.31907E+02-4.92886E+00 1.44205E+03 9.75969E-02
 -1       374 1.71037E+00-1.96667E+03-3.36989E+04-4.39024E+00-8.15740E+03-5.67473E+00
 -1       375 1.20619E-01 7.42682E+02-5.30337E+02-3.01662E-01 1.44361E+03 7.32578E-01
 -1       376-9.58502E-01-1.96770E+03-3.37039E+04 7.29024E+00-8.14459E+03-2.81759E+00
 -1       377-1.03065E-01 7.16413E+02-5.28719E+02-3.19408E+00 1.42169E+03 4.47446E-01
 -1       378 4.03494E+00-6.25228E+02-1.71143E+04-4.73406E+00-3.35889E+03-3.27509E+00
 -1       379-2.59203E+00-2.42600E+03-4.22032E+04-4.02032E+00-1.01412E+04 1.49721E+00
 -1       380-5.86902E-01 7.25392E+02-4.94748E+02 2.70914E+01 1.39104E+03-1.53888E+00
 -1       381 1.80545E+01-1.01950E+03-1.68102E+04 3.16828E+01-3.95123E+03-1.20327E+00
 -1       382-3.38768E-01 7.33158E+02-4.98070E+02 1.46911E+01 1.40562E+03-2.21323E+00
 -1       383 2.77749E+01-9.84958E+02-1.68063E+04-5.14954E+00-3.95744E+03-2.25890E+00
 -1       384-1.90125E-01 7.19009E+02-5.14332E+02 8.16206E+00 1.39672E+03-6.03713E-01
 -1       385-2.82731E+00-1.38039E+02-8.65230E+03 2.98549E+01-1.27644E+03 4.97518E-01
 -1       386 5.81162E-01-1.44925E+03-2.52541E+04 7.94975E+00-6.01605E+03 3.26352E+00
 -1       387-2.93766E+00 7.29903E+02-5.75854E+02-1.20726E+02 1.40655E+03 1.47539E+01
 -1       388-9.27762E+01 6.66557E+02 1.22083E+02-1.58018E+02 3.69585E+02 3.76354E+01
 -1       389-3.37092E+00 6.88325E+02-5.59907E+02-7.88054E+01 1.32520E+03 1.23852E+01
 -1       390-1.29213E+02 4.66852E+02 1.41704E+02-2.72214E+01 2.97766E+02 3.03754E+01
 -1       391 1.17144E+00 7.67907E+02-5.55057E+02-3.59096E+01 1.46621E+03 2.24315E+00
 -1       392-4.25652E+00 7.32060E+02-2.14299E+02-1.42525E+02 8.71824E+02 1.22601E+01
 -1       393-1.78140E+01-3.22309E+02-8.31767E+03-3.80350E+01-1.90257E+03 1.64498E+00
 -1       394-1.10663E-01-4.47263E+02 3.65059E+05-3.50664E-01 1.14869E+03 1.68107E-01
 -1       395 1.79783E-02 1.64531E+02 3.46251E+05-2.03142E-02 8.46267E+03-2.79719E-03
 -1       396-1.10663E-01-4.48010E+02 3.65059E+05-3.51867E-10 1.14901E+03-1.03126E-07
 -1       397 1.73808E-02 1.64529E+02 3.46251E+05-1.12674E-09 8.46284E+03-2.14438E-07
 -1       398-5.70510E-02-4.32451E+02 1.82000E+05-7.26146E-02 1.01543E+03 5.84600E-02
 -1       399-1.05588E-02-1.22337E+02 3.55643E+05 7.55345E-03 4.76505E+03 6.08034E-03
 -1       400 6.87836E-03-2.74568E+02 1.72635E+05-1.36803E-02 5.12033E+03-2.89575E-03
 -1       401-1.10663E-01-4.47636E+02 3.65059E+05-3.68666E-01 1.14885E+03 1.79941E-01
 -1       402 1.76796E-02 1.64530E+02 3.46251E+05-1.61857E-02 8.46275E+03 4.44578E-03
 -1       403-5.70510E-02-4.33202E+02 1.82000E+05 2.31782E-09 1.01564E+03-5.29393E-08
 -1       404-1.08575E-02-1.22336E+02 3.55643E+05-5.69746E-09 4.76497E+03-1.56517E-07
 -1       405 6.61030E-03-2.74580E+02 1.72635E+05 2.12529E-09 5.12039E+03-9.49952E-08
 -1       406 1.47327E-02 5.98493E+02 3.27135E+05-3.20559E-02 1.56873E+04 1.56604E-02
 -1       407 1.43795E-02 5.98491E+02 3.27135E+05-2.23378E-08 1.56874E+04-1.98437E-07
 -1       408-7.45163E-03 3.91350E+02 3.36687E+05 1.28150E-02 1.20941E+04-3.23919E-03
 -1       409 4.83361E-03 6.80698E+01 1.63115E+05-1.92317E-02 8.61156E+03 4.82671E-03
 -1       410 1.45561E-02 5.98492E+02 3.27135E+05-2.83130E-02 1.56874E+04 1.78886E-02
 -1       411-7.92700E-03 3.91351E+02 3.36687E+05-4.67055E-09 1.20940E+04-2.08475E-07
 -1       412 4.66816E-03 6.80461E+01 1.63115E+05-8.77963E-09 8.61164E+03-9.26073E-08
 -1       413 1.68229E-02 1.38509E+03 3.07867E+05-4.69300E-02 2.13657E+04 3.59254E-02
 -1       414 1.64093E-02 1.38509E+03 3.07866E+05-2.96147E-08 2.13660E+04-2.05796E-07
 -1       415-7.21175E-03 1.00410E+03 3.17507E+05 1.93741E-02 1.85391E+04-1.25746E-02
 -1       416 5.30662E-03 5.18893E+02 1.53498E+05-2.75336E-02 1.14749E+04 1.35577E-02
 -1       417 1.66161E-02 1.38509E+03 3.07867E+05-4.29424E-02 2.13658E+04 3.33566E-02
 -1       418-7.59515E-03 1.00410E+03 3.17507E+05-1.87118E-08 1.85390E+04-2.10489E-07
 -1       419 5.10258E-03 5.18858E+02 1.53498E+05-2.98062E-08 1.14750E+04-9.90252E-08
 -1       420 2.42451E-02 2.23880E+03 2.88513E+05-6.61028E-02 2.59360E+04 6.15247E-02
 -1       421 2.37873E-02 2.23880E+03 2.88513E+05-1.31155E-09 2.59363E+04-2.25344E-07
 -1       422-9.46953E-03 1.81543E+03 2.98194E+05 2.77632E-02 2.36575E+04-2.37059E-02
 -1       423 8.44053E-03 1.01443E+03 1.43841E+05-3.93941E-02 1.37458E+04 2.52026E-02
 -1       424 2.40162E-02 2.23880E+03 2.88513E+05-6.13994E-02 2.59361E+04 5.26561E-02
 -1       425-9.90524E-03 1.81543E+03 2.98195E+05-3.15942E-08 2.36573E+04-2.20205E-07
 -1       426 8.19677E-03 1.01439E+03 1.43841E+05 1.15170E-09 1.37459E+04-1.03899E-07
 -1       427 3.80517E-02 3.12952E+03 2.69170E+05-9.09890E-02 2.93758E+04 9.62152E-02
 -1       428 3.74885E-02 3.12954E+03 2.69170E+05-9.67684E-08 2.93762E+04-2.25109E-07
 -1       429-1.45760E-02 2.68474E+03 2.78845E+05 3.86329E-02 2.76593E+04-3.83802E-02
 -1       430 1.49745E-02 1.51927E+03 1.34187E+05-5.58996E-02 1.54617E+04 4.19154E-02
 -1       431 3.77701E-02 3.12953E+03 2.69170E+05-8.52712E-02 2.93760E+04 7.77731E-02
 -1       432-1.50865E-02 2.68473E+03 2.78845E+05-5.43264E-08 2.76592E+04-2.22554E-07
 -1       433 1.46522E-02 1.51921E+03 1.34187E+05-1.51651E-09 1.54619E+04-1.03909E-07
 -1       434 6.00663E-02 3.97864E+03 2.49905E+05-1.23328E-01 3.17912E+04 1.44326E-01
 -1       435 5.93764E-02 3.97868E+03 2.49904E+05 1.13042E-07 3.17917E+04-2.06619E-07
 -1       436-2.32324E-02 3.55241E+03 2.59539E+05 5.27596E-02 3.05853E+04-5.86006E-02
 -1       437 2.61739E-02 1.99982E+03 1.24571E+05-7.84473E-02 1.66624E+04 6.63652E-02
 -1       438 5.97214E-02 3.97866E+03 2.49904E+05-1.16583E-01 3.17915E+04 1.10821E-01
 -1       439-2.38589E-02 3.55240E+03 2.59539E+05 7.91717E-08 3.05851E+04-2.34588E-07
 -1       440 2.57486E-02 1.99976E+03 1.24571E+05-8.67759E-09 1.66627E+04-1.02530E-07
 -1       441 9.28645E-02 4.73730E+03 2.30773E+05-1.65367E-01 3.32559E+04 2.10807E-01
 -1       442 9.20447E-02 4.73736E+03 2.30772E+05-1.31542E-07 3.32565E+04-2.12122E-07
 -1       443-3.65629E-02 4.35533E+03 2.40339E+05 7.11260E-02 3.25247E+04-8.66699E-02
 -1       444 4.38863E-02 2.43046E+03 1.15021E+05-1.08860E-01 1.73885E+04 1.01824E-01
 -1       445 9.24546E-02 4.73733E+03 2.30772E+05-1.58028E-01 3.32562E+04 1.53902E-01
 -1       446-3.73178E-02 4.35531E+03 2.40339E+05 2.06924E-08 3.25244E+04-2.28110E-07
 -1       447 4.33397E-02 2.43039E+03 1.15020E+05-1.17677E-07 1.73888E+04-9.39354E-08
 -1       448 1.39530E-01 5.36445E+03 2.11816E+05-2.20017E-01 3.38528E+04 3.01060E-01
 -1       449 1.38666E-01 5.36456E+03 2.11815E+05-1.54103E-07 3.38536E+04-2.35616E-07
 -1       450-5.60234E-02 5.04776E+03 2.21294E+05 9.50229E-02 3.35554E+04-1.25182E-01
 -1       451 7.04774E-02 2.79120E+03 1.05557E+05-1.49452E-01 1.76804E+04 1.52164E-01
 -1       452 1.39098E-01 5.36450E+03 2.11816E+05-2.13309E-01 3.38532E+04 2.08741E-01
 -1       453-5.68656E-02 5.04772E+03 2.21294E+05-3.55452E-07 3.35551E+04-2.31674E-07
 -1       454 6.98316E-02 2.79112E+03 1.05557E+05 7.58248E-08 1.76808E+04-1.12405E-07
 -1       455 2.03020E-01 5.83129E+03 1.93066E+05-2.91378E-01 3.36613E+04 4.20199E-01
 -1       456 2.02228E-01 5.83147E+03 1.93065E+05-4.59865E-07 3.36624E+04-1.91148E-07
 -1       457-8.32483E-02 5.59458E+03 2.02440E+05 1.26118E-01 3.37585E+04-1.76847E-01
 -1       458 1.08636E-01 3.06768E+03 9.61963E+04-2.03373E-01 1.75784E+04 2.21543E-01
 -1       459 2.02624E-01 5.83138E+03 1.93065E+05-2.87560E-01 3.36618E+04 2.75952E-01
 -1       460-8.40765E-02 5.59452E+03 2.02441E+05-3.70929E-07 3.37580E+04-1.85458E-07
 -1       461 1.07936E-01 3.06761E+03 9.61955E+04-2.47597E-07 1.75789E+04-1.06106E-07
 -1       462 2.85017E-01 6.11879E+03 1.74541E+05-3.84643E-01 3.27601E+04 5.71639E-01
 -1       463 2.84963E-01 6.11907E+03 1.74539E+05-2.66223E-08 3.27615E+04-1.71463E-07
 -1       464-1.19552E-01 5.97170E+03 1.83802E+05 1.66915E-01 3.32128E+04-2.43874E-01
 -1       465 1.60587E-01 3.25051E+03 8.69466E+04-2.74280E-01 1.71217E+04 3.13685E-01
 -1       466 2.84990E-01 6.11893E+03 1.74540E+05-3.88339E-01 3.27608E+04 3.53762E-01
 -1       467-1.19975E-01 5.97159E+03 1.83802E+05 2.62970E-07 3.32122E+04-1.91504E-07
 -1       468 1.60149E-01 3.25046E+03 8.69456E+04 9.61691E-09 1.71225E+04-8.75084E-08
 -1       469 3.82693E-01 6.21696E+03 1.56250E+05-5.09498E-01 3.12253E+04 7.53386E-01
 -1       470 3.83219E-01 6.21738E+03 1.56248E+05 5.64724E-07 3.12272E+04-2.09907E-07
 -1       471-1.65302E-01 6.16450E+03 1.65393E+05 2.20216E-01 3.19957E+04-3.27226E-01
 -1       472 2.27257E-01 3.33480E+03 7.78127E+04-3.69125E-01 1.63486E+04 4.29954E-01
 -1       473 3.82956E-01 6.21717E+03 1.56249E+05-5.25887E-01 3.12263E+04 4.35565E-01
 -1       474-1.65066E-01 6.16434E+03 1.65394E+05 9.94892E-08 3.19949E+04-2.00022E-07
 -1       475 2.27068E-01 3.33478E+03 7.78116E+04 1.01364E-07 1.63497E+04-1.10098E-07
 -1       476 4.86343E-01 6.12374E+03 1.38193E+05-6.72631E-01 2.91307E+04 9.54651E-01
 -1       477 4.92417E-01 6.12439E+03 1.38191E+05-7.97683E-07 2.91333E+04-1.48543E-07
 -1       478-2.17172E-01 6.16693E+03 1.47218E+05 2.93105E-01 3.01823E+04-4.23256E-01
 -1       479 3.03417E-01 3.31963E+03 6.87948E+04-4.90459E-01 1.52960E+04 5.66831E-01
 -1       480 4.89380E-01 6.12407E+03 1.38192E+05-7.18285E-01 2.91320E+04 5.07198E-01
 -1       481-2.13872E-01 6.16668E+03 1.47219E+05-8.00999E-08 3.01812E+04-1.29105E-07
 -1       482 3.05918E-01 3.31968E+03 6.87935E+04-3.13829E-08 1.52975E+04-7.93456E-08
 -1       483 5.61403E-01 5.84413E+03 1.20362E+05-9.14266E-01 2.65472E+04 1.13846E+00
 -1       484 5.62522E-01 5.84505E+03 1.20360E+05 1.10522E-07 2.65507E+04-1.32937E-07
 -1       485-2.68871E-01 5.98042E+03 1.29274E+05 3.85415E-01 2.78451E+04-5.24859E-01
 -1       486 3.80630E-01 3.20759E+03 5.98890E+04-6.69693E-01 1.39995E+04 7.08101E-01
 -1       487 5.61962E-01 5.84459E+03 1.20361E+05-9.81686E-01 2.65490E+04 5.37895E-01
 -1       488-2.65274E-01 5.98003E+03 1.29275E+05 2.59916E-07 2.78436E+04-2.14109E-07
 -1       489 3.81227E-01 3.20774E+03 5.98877E+04-2.21513E-07 1.40016E+04-6.46574E-08
 -1       490 5.70374E-01 5.38876E+03 1.02745E+05-1.18639E+00 2.35428E+04 1.25367E+00
 -1       491 6.18733E-01 5.39028E+03 1.02743E+05 4.09294E-07 2.35479E+04-1.60155E-07
 -1       492-2.90912E-01 5.61276E+03 1.11549E+05 5.38193E-01 2.50539E+04-5.98135E-01
 -1       493 4.08620E-01 3.00424E+03 5.10883E+04-8.51251E-01 1.24933E+04 8.21343E-01
 -1       494 5.94553E-01 5.38952E+03 1.02744E+05-1.38154E+00 2.35454E+04 4.85968E-01
 -1       495-2.66174E-01 5.61224E+03 1.11550E+05-6.98432E-07 2.50518E+04-8.19888E-08
 -1       496 4.32309E-01 3.00464E+03 5.10871E+04 2.68975E-07 1.24963E+04-8.72010E-08
 -1       497 3.08999E-01 4.77470E+03 8.53194E+04-1.82882E+00 2.01837E+04 1.11298E+00
 -1       498 2.34648E-01 4.77636E+03 8.53189E+04-3.04747E-07 2.01906E+04-3.79636E-08
 -1       499-2.77930E-01 5.07775E+03 9.40268E+04 6.62200E-01 2.18761E+04-6.35211E-01
 -1       500 3.92661E-01 2.71795E+03 4.23824E+04-1.33689E+00 1.08102E+04 8.26531E-01
 -1       501 2.71824E-01 4.77553E+03 8.53192E+04-1.86358E+00 2.01871E+04 2.32215E-01
 -1       502-2.90921E-01 5.07677E+03 9.40274E+04-4.63063E-08 2.18731E+04-2.53322E-08
 -1       503 3.60190E-01 2.71846E+03 4.23819E+04-1.99194E-07 1.08146E+04-2.96437E-09
 -1       504-9.14961E-02 4.01826E+03 6.80624E+04-1.83479E+00 1.65307E+04 6.92515E-01
 -1       505 3.71928E-01 4.02296E+03 6.80639E+04-6.26120E-07 1.65411E+04-6.56785E-09
 -1       506-1.78688E-02 4.39220E+03 7.66857E+04 1.19041E+00 1.83757E+04-4.13332E-01
 -1       507-4.88030E-02 2.35830E+03 3.37592E+04-1.15511E+00 8.98192E+03 6.06800E-01
 -1       508 1.40216E-01 4.02061E+03 6.80631E+04-2.91989E+00 1.65359E+04-2.20093E-01
 -1       509 1.76651E-01 4.39151E+03 7.66854E+04 6.71431E-07 1.83716E+04-9.38313E-08
 -1       510 1.77987E-01 2.36019E+03 3.37598E+04-5.65267E-07 8.98827E+03-9.49830E-09
 -1       511-2.30629E+00 3.15786E+03 5.09407E+04-5.35458E+00 1.26516E+04-1.08580E+00
 -1       512-3.67364E+00 3.15644E+03 5.09472E+04 1.05283E-06 1.26648E+04-2.24465E-07
 -1       513 1.04413E-01 3.58301E+03 5.94978E+04 6.73840E-01 1.46177E+04-2.82878E-01
 -1       514-1.55393E-01 1.94014E+03 2.52039E+04-4.15926E+00 7.03881E+03-6.34131E-02
 -1       515-2.98996E+00 3.15715E+03 5.09439E+04-3.14919E+00 1.26582E+04-1.60677E+00
 -1       516-3.47486E-01 3.57912E+03 5.94963E+04-8.32239E-08 1.46114E+04-7.05878E-08
 -1       517-8.01507E-01 1.93983E+03 2.52068E+04 4.45807E-07 7.04847E+03-5.09563E-08
 -1       518-1.86078E+00 2.16439E+03 3.39365E+04 2.38325E+00 8.57909E+03-2.49425E+00
 -1       519 3.70382E+00 2.19385E+03 3.39438E+04-1.61131E-06 8.60550E+03 8.56043E-08
 -1       520 2.31068E+00 2.65689E+03 4.24401E+04 4.75079E+00 1.06536E+04 1.76727E+00
 -1       521-3.92298E+00 1.46615E+03 1.67012E+04 3.58155E+00 5.01179E+03-1.78245E+00
 -1       522 9.21520E-01 2.17912E+03 3.39402E+04-8.46007E+00 8.59229E+03-2.15590E+00
 -1       523 4.40908E+00 2.66182E+03 4.24348E+04-3.21057E-07 1.06460E+04-1.55297E-07
 -1       524-1.20721E+00 1.47909E+03 1.67069E+04-1.16017E-06 5.02542E+03 6.01079E-08
 -1       525-1.93294E+01 1.27254E+03 1.69559E+04-3.44689E+01 4.46972E+03-1.22670E+01
 -1       526-3.87593E+01 1.19808E+03 1.69907E+04 1.28908E-06 4.47943E+03-6.17674E-08
 -1       527-6.58564E-01 1.71010E+03 2.54569E+04-7.11303E+00 6.57603E+03-1.71683E-01
 -1       528 1.60297E+00 9.89947E+02 8.23039E+03-3.03123E+01 2.92672E+03-3.49545E+00
 -1       529-2.90443E+01 1.23531E+03 1.69733E+04 2.25609E+00 4.47457E+03-1.02416E+01
 -1       530-7.59039E+00 1.67727E+03 2.54539E+04-3.15965E-07 6.55899E+03-2.60392E-08
 -1       531-7.86387E+00 9.61193E+02 8.24353E+03 6.75936E-07 2.95031E+03-6.27431E-08
 -1       532 8.33346E+01-2.59504E+02 2.11145E+02 1.80223E+02 5.19186E+02 4.46646E+01
 -1       533 1.55643E+02-5.40170E+01 7.90202E+01-2.95625E-06 2.55110E+02 1.36196E-07
 -1       534 2.10755E+01 5.15265E+02 8.60704E+03 4.18892E+01 2.31554E+03 1.67019E+01
 -1       535-3.40196E+00 2.01370E+02-1.94940E+02 1.47323E+02 9.79110E+02 1.02077E+00
 -1       536 1.19489E+02-1.56760E+02 1.45083E+02 4.82320E+01 3.87148E+02 4.78377E+01
 -1       537 4.75141E+01 6.16798E+02 8.57702E+03-1.20916E-06 2.31513E+03 1.19625E-07
 -1       538 3.23190E+01 2.80543E+02-2.35500E+02-7.42137E-07 7.50504E+02 7.22443E-08
 -1       539-1.10663E-01-4.47263E+02 3.65059E+05 3.50664E-01 1.14869E+03-1.68107E-01
 -1       540 1.79783E-02 1.64531E+02 3.46251E+05 2.03142E-02 8.46267E+03 2.79709E-03
 -1       541-1.10663E-01-4.47636E+02 3.65059E+05 3.68666E-01 1.14885E+03-1.79941E-01
 -1       542 1.76796E-02 1.64530E+02 3.46251E+05 1.61857E-02 8.46275E+03-4.44604E-03
 -1       543-5.70510E-02-4.32451E+02 1.82000E+05 7.26146E-02 1.01543E+03-5.84601E-02
 -1       544-1.05588E-02-1.22337E+02 3.55643E+05-7.55345E-03 4.76505E+03-6.08049E-03
 -1       545 6.87836E-03-2.74568E+02 1.72635E+05 1.36803E-02 5.12033E+03 2.89572E-03
 -1       546 1.47327E-02 5.98493E+02 3.27135E+05 3.20559E-02 1.56873E+04-1.56605E-02
 -1       547 1.45561E-02 5.98492E+02 3.27135E+05 2.83130E-02 1.56874E+04-1.78889E-02
 -1       548-7.45163E-03 3.91350E+02 3.36687E+05-1.28150E-02 1.20941E+04 3.23903E-03
 -1       549 4.83361E-03 6.80698E+01 1.63115E+05 1.92317E-02 8.61156E+03-4.82679E-03
 -1       550 1.68229E-02 1.38509E+03 3.07867E+05 4.69300E-02 2.13657E+04-3.59256E-02
 -1       551 1.66161E-02 1.38509E+03 3.07867E+05 4.29424E-02 2.13658E+04-3.33569E-02
 -1       552-7.21175E-03 1.00410E+03 3.17507E+05-1.93741E-02 1.85391E+04 1.25744E-02
 -1       553 5.30662E-03 5.18893E+02 1.53498E+05 2.75337E-02 1.14749E+04-1.35578E-02
 -1       554 2.42451E-02 2.23880E+03 2.88513E+05 6.61029E-02 2.59360E+04-6.15250E-02
 -1       555 2.40162E-02 2.23880E+03 2.88513E+05 6.13994E-02 2.59361E+04-5.26564E-02
 -1       556-9.46952E-03 1.81543E+03 2.98194E+05-2.77632E-02 2.36575E+04 2.37057E-02
 -1       557 8.44054E-03 1.01443E+03 1.43841E+05 3.93942E-02 1.37458E+04-2.52027E-02
 -1       558 3.80517E-02 3.12952E+03 2.69170E+05 9.09891E-02 2.93758E+04-9.62155E-02
 -1       559 3.77701E-02 3.12953E+03 2.69170E+05 8.52712E-02 2.93760E+04-7.77734E-02
 -1       560-1.45760E-02 2.68474E+03 2.78845E+05-3.86329E-02 2.76593E+04 3.83800E-02
 -1       561 1.49745E-02 1.51927E+03 1.34187E+05 5.58995E-02 1.54617E+04-4.19155E-02
 -1       562 6.00663E-02 3.97864E+03 2.49905E+05 1.23328E-01 3.17912E+04-1.44326E-01
 -1       563 5.97214E-02 3.97866E+03 2.49904E+05 1.16583E-01 3.17915E+04-1.10822E-01
 -1       564-2.32324E-02 3.55241E+03 2.59539E+05-5.27597E-02 3.05853E+04 5.86003E-02
 -1       565 2.61739E-02 1.99982E+03 1.24571E+05 7.84475E-02 1.66624E+04-6.63654E-02
 -1       566 9.28645E-02 4.73730E+03 2.30773E+05 1.65368E-01 3.32559E+04-2.10807E-01
 -1       567 9.24546E-02 4.73733E+03 2.30772E+05 1.58029E-01 3.32562E+04-1.53902E-01
 -1       568-3.65629E-02 4.35533E+03 2.40339E+05-7.11256E-02 3.25247E+04 8.66695E-02
 -1       569 4.38863E-02 2.43046E+03 1.15021E+05 1.08860E-01 1.73885E+04-1.01824E-01
 -1       570 1.39530E-01 5.36445E+03 2.11816E+05 2.20017E-01 3.38528E+04-3.01060E-01
 -1       571 1.39098E-01 5.36450E+03 2.11816E+05 2.13309E-01 3.38532E+04-2.08742E-01
 -1       572-5.60234E-02 5.04776E+03 2.21294E+05-9.50223E-02 3.35554E+04 1.25181E-01
 -1       573 7.04775E-02 2.79120E+03 1.05557E+05 1.49452E-01 1.76804E+04-1.52164E-01
 -1       574 2.03020E-01 5.83129E+03 1.93066E+05 2.91378E-01 3.36613E+04-4.20199E-01
 -1       575 2.02624E-01 5.83138E+03 1.93065E+05 2.87560E-01 3.36618E+04-2.75953E-01
 -1       576-8.32482E-02 5.59458E+03 2.02440E+05-1.26118E-01 3.37585E+04 1.76847E-01
 -1       577 1.08636E-01 3.06768E+03 9.61963E+04 2.03373E-01 1.75784E+04-2.21543E-01
 -1       578 2.85017E-01 6.11879E+03 1.74541E+05 3.84643E-01 3.27601E+04-5.71640E-01
 -1       579 2.84990E-01 6.11893E+03 1.74540E+05 3.88339E-01 3.27608E+04-3.53762E-01
 -1       580-1.19552E-01 5.97170E+03 1.83802E+05-1.66914E-01 3.32128E+04 2.43874E-01
 -1       581 1.60587E-01 3.25051E+03 8.69466E+04 2.74280E-01 1.71217E+04-3.13685E-01
 -1       582 3.82693E-01 6.21696E+03 1.56250E+05 5.09498E-01 3.12253E+04-7.53386E-01
 -1       583 3.82956E-01 6.21717E+03 1.56249E+05 5.25887E-01 3.12263E+04-4.35566E-01
 -1       584-1.65302E-01 6.16450E+03 1.65393E+05-2.20217E-01 3.19957E+04 3.27226E-01
 -1       585 2.27257E-01 3.33480E+03 7.78127E+04 3.69124E-01 1.63486E+04-4.29954E-01
 -1       586 4.86343E-01 6.12374E+03 1.38193E+05 6.72631E-01 2.91307E+04-9.54651E-01
 -1       587 4.89380E-01 6.12407E+03 1.38192E+05 7.18284E-01 2.91320E+04-5.07198E-01
 -1       588-2.17172E-01 6.16693E+03 1.47218E+05-2.93105E-01 3.01823E+04 4.23256E-01
 -1       589 3.03417E-01 3.31963E+03 6.87948E+04 4.90459E-01 1.52960E+04-5.66832E-01
 -1       590 5.61403E-01 5.84413E+03 1.20362E+05 9.14266E-01 2.65472E+04-1.13846E+00
 -1       591 5.61962E-01 5.84459E+03 1.20361E+05 9.81686E-01 2.65490E+04-5.37896E-01
 -1       592-2.68871E-01 5.98042E+03 1.29274E+05-3.85415E-01 2.78451E+04 5.24858E-01
 -1       593 3.80630E-01 3.20759E+03 5.98890E+04 6.69694E-01 1.39995E+04-7.08101E-01
 -1       594 5.70374E-01 5.38876E+03 1.02745E+05 1.18639E+00 2.35428E+04-1.25367E+00
 -1       595 5.94553E-01 5.38952E+03 1.02744E+05 1.38154E+00 2.35454E+04-4.85968E-01
 -1       596-2.90912E-01 5.61276E+03 1.11549E+05-5.38192E-01 2.50539E+04 5.98134E-01
 -1       597 4.08620E-01 3.00424E+03 5.10883E+04 8.51251E-01 1.24933E+04-8.21343E-01
 -1       598 3.08999E-01 4.77470E+03 8.53194E+04 1.82881E+00 2.01837E+04-1.11299E+00
 -1       599 2.71824E-01 4.77553E+03 8.53192E+04 1.86358E+00 2.01871E+04-2.32215E-01
 -1       600-2.77930E-01 5.07775E+03 9.40268E+04-6.62199E-01 2.18761E+04 6.35211E-01
 -1       601 3.92661E-01 2.71795E+03 4.23824E+04 1.33689E+00 1.08102E+04-8.26531E-01
 -1       602-9.14964E-02 4.01826E+03 6.80624E+04 1.83479E+00 1.65307E+04-6.92515E-01
 -1       603 1.40216E-01 4.02061E+03 6.80631E+04 2.91989E+00 1.65359E+04 2.20093E-01
 -1       604-1.78690E-02 4.39220E+03 7.66857E+04-1.19041E+00 1.83757E+04 4.13332E-01
 -1       605-4.88029E-02 2.35830E+03 3.37592E+04 1.15511E+00 8.98192E+03-6.06801E-01
 -1       606-2.30629E+00 3.15786E+03 5.09407E+04 5.35458E+00 1.26516E+04 1.08580E+00
 -1       607-2.98996E+00 3.15715E+03 5.09439E+04 3.14919E+00 1.26582E+04 1.60677E+00
 -1       608 1.04413E-01 3.58301E+03 5.94978E+04-6.73842E-01 1.46177E+04 2.82877E-01
 -1       609-1.55393E-01 1.94014E+03 2.52039E+04 4.15926E+00 7.03881E+03 6.34132E-02
 -1       610-1.86078E+00 2.16439E+03 3.39365E+04-2.38325E+00 8.57909E+03 2.49425E+00
 -1       611 9.21520E-01 2.17912E+03 3.39402E+04 8.46007E+00 8.59229E+03 2.15590E+00
 -1       612 2.31068E+00 2.65689E+03 4.24401E+04-4.75079E+00 1.06536E+04-1.76727E+00
 -1       613-3.92298E+00 1.46615E+03 1.67012E+04-3.58155E+00 5.01179E+03 1.78245E+00
 -1       614-1.93294E+01 1.27254E+03 1.69559E+04 3.44689E+01 4.46972E+03 1.22670E+01
 -1       615-2.90443E+01 1.23531E+03 1.69733E+04-2.25609E+00 4.47457E+03 1.02416E+01
 -1       616-6.58564E-01 1.71010E+03 2.54569E+04 7.11303E+00 6.57603E+03 1.71683E-01
 -1       617 1.60297E+00 9.89947E+02 8.23039E+03 3.03123E+01 2.92672E+03 3.49545E+00
 -1       618 8.33346E+01-2.59504E+02 2.11145E+02-1.80223E+02 5.19186E+02-4.46646E+01
 -1       619 1.19489E+02-1.56760E+02 1.45083E+02-4.82320E+01 3.87148E+02-4.78377E+01
 -1       620 2.10755E+01 5.15265E+02 8.60704E+03-4.18892E+01 2.31554E+03-1.67019E+01
 -1       621-3.40196E+00 2.01370E+02-1.94940E+02-1.47323E+02 9.79110E+02-1.02077E+00
 -3
    1PSTEP                         3           2           1          
  100CL  102 1.00000E-01         621                     0    2           1
 -4  DISP        4    1
 -5  D1          1    2    1    0
 -5  D2          1    2    2    0
 -5  D3          1    2    3    0
 -5  ALL         1    2    0    0    1ALL
 -1         1 0.00000E+00 0.00000E+00 0.00000E+00
 -1         2 0.00000E+00 0.00000E+00 0.00000E+00
 -1         3 2.34764E-11 1.16169E-02-1.90230E-04
 -1         4 6.71092E-11 1.15383E-02-3.58778E-03
 -1         5 0.00000E+00 0.00000E+00 0.00000E+00
 -1         6 0.00000E+00 0.00000E+00 0.00000E+00
 -1         7 1.73904E-14 1.16169E-02-1.90230E-04
 -1         8 1.50794E-14 1.15383E-02-3.58778E-03
 -1         9 0.00000E+00 0.00000E+00 0.00000E+00
 -1        10-4.91629E-13 2.93533E-03-2.86933E-05
 -1        11 4.53902E-11 1.15774E-02-1.88835E-03
 -1        12-1.21213E-11 2.91368E-03-1.75069E-03
 -1        13 0.00000E+00 0.00000E+00 0.00000E+00
 -1        14 0.00000E+00 0.00000E+00 0.00000E+00
 -1        15 1.17613E-11 1.16169E-02-1.90230E-04
 -1        16 3.35863E-11 1.15383E-02-3.58778E-03
 -1        17 0.00000E+00 0.00000E+00 0.00000E+00
 -1        18 4.37419E-15 2.93533E-03-2.86932E-05
 -1        19 1.62321E-14 1.15774E-02-1.88835E-03
 -1        20 3.30802E-15 2.91368E-03-1.75069E-03
 -1        21 9.25117E-11 4.55724E-02-1.39373E-03
 -1        22 1.63454E-10 4.52761E-02-7.99652E-03
 -1        23 6.85596E-14 4.55724E-02-1.39373E-03
 -1        24 6.37522E-14 4.52761E-02-7.99652E-03
 -1        25-2.27726E-11 2.58839E-02-6.07856E-04
 -1        26 1.28130E-10 4.54241E-02-4.69464E-03
 -1        27-5.49317E-11 2.57118E-02-5.63174E-03
 -1        28 4.62953E-11 4.55724E-02-1.39373E-03
 -1        29 8.17659E-11 4.52761E-02-7.99652E-03
 -1        30 3.88282E-14 2.58839E-02-6.07856E-04
 -1        31 6.61619E-14 4.54241E-02-4.69464E-03
 -1        32 3.53290E-14 2.57118E-02-5.63174E-03
 -1        33 2.15758E-10 1.00556E-01-4.46962E-03
 -1        34 2.79655E-10 9.99275E-02-1.40827E-02
 -1        35 1.51977E-13 1.00556E-01-4.46962E-03
 -1        36 1.44773E-13 9.99275E-02-1.40827E-02
 -1        37-6.94055E-11 7.05184E-02-2.65035E-03
 -1        38 2.47930E-10 1.00242E-01-9.27561E-03
 -1        39-1.08621E-10 7.00687E-02-1.07824E-02
 -1        40 1.07956E-10 1.00556E-01-4.46962E-03
 -1        41 1.39903E-10 9.99275E-02-1.40827E-02
 -1        42 1.06272E-13 7.05184E-02-2.65035E-03
 -1        43 1.48368E-13 1.00242E-01-9.27561E-03
 -1        44 1.00424E-13 7.00687E-02-1.07824E-02
 -1        45 4.04983E-10 1.75242E-01-1.01171E-02
 -1        46 4.14865E-10 1.74189E-01-2.25435E-02
 -1        47 2.65935E-13 1.75242E-01-1.01171E-02
 -1        48 2.56322E-13 1.74189E-01-2.25435E-02
 -1        49-1.45815E-10 1.35520E-01-6.93420E-03
 -1        50 4.10241E-10 1.74715E-01-1.63298E-02
 -1        51-1.71199E-10 1.34689E-01-1.79783E-02
 -1        52 2.02617E-10 1.75242E-01-1.01171E-02
 -1        53 2.07555E-10 1.74189E-01-2.25435E-02
 -1        54 2.05095E-13 1.35520E-01-6.93420E-03
 -1        55 2.61220E-13 1.74715E-01-1.63298E-02
 -1        56 1.96884E-13 1.34689E-01-1.79783E-02
 -1        57 6.71984E-10 2.68296E-01-1.88856E-02
 -1        58 5.72867E-10 2.66748E-01-3.39284E-02
 -1        59 4.08935E-13 2.68296E-01-1.88856E-02
 -1        60 3.97114E-13 2.66748E-01-3.39284E-02
 -1        61-2.58367E-10 2.19556E-01-1.40824E-02
 -1        62 6.22865E-10 2.67522E-01-2.64065E-02
 -1        63-2.43869E-10 2.18263E-01-2.78414E-02
 -1        64 3.36178E-10 2.68296E-01-1.88856E-02
 -1        65 2.86617E-10 2.66748E-01-3.39284E-02
 -1        66 3.33783E-13 2.19556E-01-1.40824E-02
 -1        67 4.03000E-13 2.67522E-01-2.64065E-02
 -1        68 3.23151E-13 2.18263E-01-2.78414E-02
 -1        69 1.02374E-09 3.78391E-01-3.11854E-02
 -1        70 7.58096E-10 3.76297E-01-4.86493E-02
 -1        71 5.79046E-13 3.78391E-01-3.11854E-02
 -1        72 5.65073E-13 3.76297E-01-4.86493E-02
 -1        73-4.12526E-10 3.21296E-01-2.45735E-02
 -1        74 8.91520E-10 3.77344E-01-3.99169E-02
 -1        75-3.29275E-10 3.19481E-01-4.08511E-02
 -1        76 5.12121E-10 3.78391E-01-3.11854E-02
 -1        77 3.79299E-10 3.76297E-01-4.86493E-02
 -1        78 4.90671E-13 3.21296E-01-2.45735E-02
 -1        79 5.72111E-13 3.77344E-01-3.99169E-02
 -1        80 4.77777E-13 3.19481E-01-4.08511E-02
 -1        81 1.45450E-09 5.04213E-01-4.72994E-02
 -1        82 9.69929E-10 5.01540E-01-6.69914E-02
 -1        83 7.74792E-13 5.04213E-01-4.72994E-02
 -1        84 7.59029E-13 5.01540E-01-6.69914E-02
 -1        85-6.09839E-10 4.39417E-01-3.87526E-02
 -1        86 1.21303E-09 5.02876E-01-5.71449E-02
 -1        87-4.29290E-10 4.37037E-01-5.73544E-02
 -1        88 7.27573E-10 5.04213E-01-4.72994E-02
 -1        89 4.85287E-10 5.01540E-01-6.69914E-02
 -1        90 6.73669E-13 4.39417E-01-3.87526E-02
 -1        91 7.67024E-13 5.02876E-01-5.71449E-02
 -1        92 6.58506E-13 4.37037E-01-5.73544E-02
 -1        93 1.93339E-09 6.44467E-01-6.73936E-02
 -1        94 1.19306E-09 6.41199E-01-8.91244E-02
 -1        95 9.95177E-13 6.44467E-01-6.73936E-02
 -1        96 9.77064E-13 6.41199E-01-8.91244E-02
 -1        97-8.43052E-10 5.72616E-01-5.68427E-02
 -1        98 1.56434E-09 6.42833E-01-7.82585E-02
 -1        99-5.41528E-10 5.69647E-01-7.75776E-02
 -1       100 9.67096E-10 6.44467E-01-6.73936E-02
 -1       101 5.96917E-10 6.41199E-01-8.91244E-02
 -1       102 8.81929E-13 5.72616E-01-5.68427E-02
 -1       103 9.85945E-13 6.42833E-01-7.82585E-02
 -1       104 8.64591E-13 5.69647E-01-7.75776E-02
 -1       105 2.38590E-09 7.97886E-01-9.15289E-02
 -1       106 1.38134E-09 7.94021E-01-1.15113E-01
 -1       107 1.23828E-12 7.97886E-01-9.15289E-02
 -1       108 1.21891E-12 7.94021E-01-1.15113E-01
 -1       109-1.08858E-09 7.19609E-01-7.89561E-02
 -1       110 1.88505E-09 7.95953E-01-1.03320E-01
 -1       111-6.53218E-10 7.16042E-01-1.01636E-01
 -1       112 1.19343E-09 7.97886E-01-9.15289E-02
 -1       113 6.91116E-10 7.94021E-01-1.15113E-01
 -1       114 1.11377E-12 7.19609E-01-7.89561E-02
 -1       115 1.22849E-12 7.95953E-01-1.03320E-01
 -1       116 1.09457E-12 7.16042E-01-1.01636E-01
 -1       117 2.66782E-09 9.63229E-01-1.19671E-01
 -1       118 1.42947E-09 9.58779E-01-1.44928E-01
 -1       119 1.50283E-12 9.63229E-01-1.19671E-01
 -1       120 1.48153E-12 9.58779E-01-1.44928E-01
 -1       121-1.29550E-09 8.79143E-01-1.05105E-01
 -1       122 2.05085E-09 9.61004E-01-1.32299E-01
 -1       123-7.31189E-10 8.74983E-01-1.29547E-01
 -1       124 1.33447E-09 9.63229E-01-1.19671E-01
 -1       125 7.15197E-10 9.58779E-01-1.44928E-01
 -1       126 1.36833E-12 8.79143E-01-1.05105E-01
 -1       127 1.49234E-12 9.61004E-01-1.32299E-01
 -1       128 1.34783E-12 8.74983E-01-1.29547E-01
 -1       129 2.53124E-09 1.13929E+00-1.51703E-01
 -1       130 1.13191E-09 1.13427E+00-1.78455E-01
 -1       131 1.78697E-12 1.13929E+00-1.51703E-01
 -1       132 1.76324E-12 1.13427E+00-1.78455E-01
 -1       133-1.37054E-09 1.04999E+00-1.35211E-01
 -1       134 1.83351E-09 1.13678E+00-1.65079E-01
 -1       135-7.03615E-10 1.04526E+00-1.61237E-01
 -1       136 1.26631E-09 1.13929E+00-1.51703E-01
 -1       137 5.66480E-10 1.13427E+00-1.78455E-01
 -1       138 1.64233E-12 1.04999E+00-1.35211E-01
 -1       139 1.77475E-12 1.13678E+00-1.65079E-01
 -1       140 1.62051E-12 1.04526E+00-1.61237E-01
 -1       141 1.58513E-09 1.32488E+00-1.87431E-01
 -1       142 1.01476E-10 1.31934E+00-2.15507E-01
 -1       143 2.08595E-12 1.32488E+00-1.87431E-01
 -1       144 2.06165E-12 1.31934E+00-2.15507E-01
 -1       145-1.15886E-09 1.23096E+00-1.69120E-01
 -1       146 8.49784E-10 1.32211E+00-2.01469E-01
 -1       147-4.37138E-10 1.22568E+00-1.96555E-01
 -1       148 7.93360E-10 1.32488E+00-1.87431E-01
 -1       149 5.09408E-11 1.31934E+00-2.15507E-01
 -1       150 1.93433E-12 1.23096E+00-1.69120E-01
 -1       151 2.07368E-12 1.32211E+00-2.01469E-01
 -1       152 1.91053E-12 1.22568E+00-1.96555E-01
 -1       153-7.44797E-10 1.51886E+00-2.26598E-01
 -1       154-2.28936E-09 1.51284E+00-2.55831E-01
 -1       155 2.40100E-12 1.51886E+00-2.26598E-01
 -1       156 2.37643E-12 1.51284E+00-2.55831E-01
 -1       157-4.24112E-10 1.42089E+00-2.06603E-01
 -1       158-1.52301E-09 1.51585E+00-2.41214E-01
 -1       159 3.21421E-10 1.41510E+00-2.35278E-01
 -1       160-3.71180E-10 1.51886E+00-2.26598E-01
 -1       161-1.14361E-09 1.51284E+00-2.55831E-01
 -1       162 2.24182E-12 1.42089E+00-2.06603E-01
 -1       163 2.38852E-12 1.51585E+00-2.41214E-01
 -1       164 2.21755E-12 1.41510E+00-2.35278E-01
 -1       165-5.23144E-09 1.72011E+00-2.68891E-01
 -1       166-7.23235E-09 1.71365E+00-2.99117E-01
 -1       167 2.72697E-12 1.72011E+00-2.68891E-01
 -1       168 2.70075E-12 1.71365E+00-2.99117E-01
 -1       169 1.17287E-09 1.61865E+00-2.47376E-01
 -1       170-6.18417E-09 1.71688E+00-2.84003E-01
 -1       171 1.94617E-09 1.61240E+00-2.77125E-01
 -1       172-2.61459E-09 1.72011E+00-2.68891E-01
 -1       173-3.61908E-09 1.71365E+00-2.99117E-01
 -1       174 2.56239E-12 1.61865E+00-2.47376E-01
 -1       175 2.71380E-12 1.71688E+00-2.84003E-01
 -1       176 2.53773E-12 1.61240E+00-2.77125E-01
 -1       177-1.28333E-08 1.92754E+00-3.13948E-01
 -1       178-1.60554E-08 1.92070E+00-3.45007E-01
 -1       179 3.05956E-12 1.92754E+00-3.13948E-01
 -1       180 3.03370E-12 1.92070E+00-3.45007E-01
 -1       181 4.06482E-09 1.82312E+00-2.91098E-01
 -1       182-1.45902E-08 1.92412E+00-3.29477E-01
 -1       183 5.25166E-09 1.81646E+00-3.21760E-01
 -1       184-6.41295E-09 1.92754E+00-3.13948E-01
 -1       185-8.01673E-09 1.92070E+00-3.45007E-01
 -1       186 2.89258E-12 1.82312E+00-2.91098E-01
 -1       187 3.04658E-12 1.92412E+00-3.29477E-01
 -1       188 2.86655E-12 1.81646E+00-3.21760E-01
 -1       189-2.44998E-08 2.14008E+00-3.61366E-01
 -1       190-3.29394E-08 2.13292E+00-3.93103E-01
 -1       191 3.39855E-12 2.14008E+00-3.61366E-01
 -1       192 3.37260E-12 2.13292E+00-3.93103E-01
 -1       193 8.78791E-09 2.03324E+00-3.37388E-01
 -1       194-2.81194E-08 2.13650E+00-3.77234E-01
 -1       195 1.07587E-08 2.02623E+00-3.68805E-01
 -1       196-1.22505E-08 2.14008E+00-3.61366E-01
 -1       197-1.65127E-08 2.13292E+00-3.93103E-01
 -1       198 3.22900E-12 2.03324E+00-3.37388E-01
 -1       199 3.38555E-12 2.13650E+00-3.77234E-01
 -1       200 3.20310E-12 2.02623E+00-3.68805E-01
 -1       201-4.09829E-08 2.35667E+00-4.10713E-01
 -1       202-5.62210E-08 2.34926E+00-4.42973E-01
 -1       203 3.74094E-12 2.35667E+00-4.10713E-01
 -1       204 3.71431E-12 2.34926E+00-4.42973E-01
 -1       205 1.57273E-08 2.24793E+00-3.85827E-01
 -1       206-5.08041E-08 2.35297E+00-4.26843E-01
 -1       207 2.20890E-08 2.24064E+00-4.17844E-01
 -1       208-2.04723E-08 2.35667E+00-4.10713E-01
 -1       209-2.79525E-08 2.34926E+00-4.42973E-01
 -1       210 3.56921E-12 2.24793E+00-3.85827E-01
 -1       211 3.72781E-12 2.35297E+00-4.26843E-01
 -1       212 3.54300E-12 2.24064E+00-4.17844E-01
 -1       213-6.16381E-08 2.57630E+00-4.61528E-01
 -1       214-1.13103E-07 2.56871E+00-4.94160E-01
 -1       215 4.07966E-12 2.57630E+00-4.61528E-01
 -1       216 4.05376E-12 2.56871E+00-4.94160E-01
 -1       217 2.53731E-08 2.46617E+00-4.35967E-01
 -1       218-7.89386E-08 2.57250E+00-4.77844E-01
 -1       219 3.41006E-08 2.45866E+00-4.68431E-01
 -1       220-3.08477E-08 2.57630E+00-4.61528E-01
 -1       221-5.71515E-08 2.56871E+00-4.94160E-01
 -1       222 3.91061E-12 2.46617E+00-4.35967E-01
 -1       223 4.06669E-12 2.57250E+00-4.77844E-01
 -1       224 3.88239E-12 2.45866E+00-4.68431E-01
 -1       225-8.43329E-08 2.79794E+00-5.13332E-01
 -1       226-1.31738E-07 2.79024E+00-5.46187E-01
 -1       227 4.42335E-12 2.79794E+00-5.13332E-01
 -1       228 4.39719E-12 2.79024E+00-5.46187E-01
 -1       229 3.61541E-08 2.68693E+00-4.87337E-01
 -1       230-1.39785E-07 2.79409E+00-5.29759E-01
 -1       231 7.85516E-08 2.67927E+00-5.20099E-01
 -1       232-4.20500E-08 2.79794E+00-5.13332E-01
 -1       233-6.36244E-08 2.79024E+00-5.46187E-01
 -1       234 4.25127E-12 2.68693E+00-4.87337E-01
 -1       235 4.41099E-12 2.79409E+00-5.29759E-01
 -1       236 4.22411E-12 2.67927E+00-5.20099E-01
 -1       237-1.00285E-07 3.02058E+00-5.65634E-01
 -1       238-4.25840E-07 3.01284E+00-5.98563E-01
 -1       239 4.77128E-12 3.02058E+00-5.65634E-01
 -1       240 4.74970E-12 3.01284E+00-5.98562E-01
 -1       241 4.91818E-08 2.90920E+00-5.39452E-01
 -1       242-1.42718E-07 3.01671E+00-5.82098E-01
 -1       243 5.41064E-08 2.90147E+00-5.72362E-01
 -1       244-5.03396E-08 3.02058E+00-5.65634E-01
 -1       245-2.21354E-07 3.01284E+00-5.98563E-01
 -1       246 4.59780E-12 2.90920E+00-5.39452E-01
 -1       247 4.75926E-12 3.01671E+00-5.82098E-01
 -1       248 4.57167E-12 2.90147E+00-5.72362E-01
 -1       249 0.00000E+00 0.00000E+00 0.00000E+00
 -1       250 0.00000E+00 0.00000E+00 0.00000E+00
 -1       251-2.34417E-11 1.16169E-02-1.90230E-04
 -1       252-6.70790E-11 1.15383E-02-3.58778E-03
 -1       253 0.00000E+00 0.00000E+00 0.00000E+00
 -1       254 0.00000E+00 0.00000E+00 0.00000E+00
 -1       255-1.17266E-11 1.16169E-02-1.90230E-04
 -1       256-3.35561E-11 1.15383E-02-3.58778E-03
 -1       257 0.00000E+00 0.00000E+00 0.00000E+00
 -1       258 5.00389E-13 2.93533E-03-2.86933E-05
 -1       259-4.53577E-11 1.15774E-02-1.88835E-03
 -1       260 1.21279E-11 2.91368E-03-1.75069E-03
 -1       261-9.23747E-11 4.55724E-02-1.39373E-03
 -1       262-1.63326E-10 4.52761E-02-7.99652E-03
 -1       263-4.61582E-11 4.55724E-02-1.39373E-03
 -1       264-8.16384E-11 4.52761E-02-7.99652E-03
 -1       265 2.28503E-11 2.58839E-02-6.07856E-04
 -1       266-1.27998E-10 4.54241E-02-4.69464E-03
 -1       267 5.50023E-11 2.57118E-02-5.63174E-03
 -1       268-2.15454E-10 1.00556E-01-4.46962E-03
 -1       269-2.79365E-10 9.99275E-02-1.40827E-02
 -1       270-1.07652E-10 1.00556E-01-4.46962E-03
 -1       271-1.39613E-10 9.99275E-02-1.40827E-02
 -1       272 6.96181E-11 7.05184E-02-2.65035E-03
 -1       273-2.47634E-10 1.00242E-01-9.27561E-03
 -1       274 1.08822E-10 7.00687E-02-1.07824E-02
 -1       275-4.04451E-10 1.75242E-01-1.01171E-02
 -1       276-4.14352E-10 1.74189E-01-2.25435E-02
 -1       277-2.02086E-10 1.75242E-01-1.01171E-02
 -1       278-2.07043E-10 1.74189E-01-2.25435E-02
 -1       279 1.46226E-10 1.35520E-01-6.93420E-03
 -1       280-4.09718E-10 1.74715E-01-1.63298E-02
 -1       281 1.71593E-10 1.34689E-01-1.79783E-02
 -1       282-6.71166E-10 2.68296E-01-1.88856E-02
 -1       283-5.72073E-10 2.66748E-01-3.39284E-02
 -1       284-3.35360E-10 2.68296E-01-1.88856E-02
 -1       285-2.85823E-10 2.66748E-01-3.39284E-02
 -1       286 2.59035E-10 2.19556E-01-1.40824E-02
 -1       287-6.22059E-10 2.67522E-01-2.64065E-02
 -1       288 2.44515E-10 2.18263E-01-2.78414E-02
 -1       289-1.02258E-09 3.78391E-01-3.11854E-02
 -1       290-7.56966E-10 3.76297E-01-4.86493E-02
 -1       291-5.10963E-10 3.78391E-01-3.11854E-02
 -1       292-3.78169E-10 3.76297E-01-4.86493E-02
 -1       293 4.13508E-10 3.21296E-01-2.45735E-02
 -1       294-8.90376E-10 3.77344E-01-3.99169E-02
 -1       295 3.30231E-10 3.19481E-01-4.08511E-02
 -1       296-1.45295E-09 5.04213E-01-4.72994E-02
 -1       297-9.68411E-10 5.01540E-01-6.69914E-02
 -1       298-7.26024E-10 5.04213E-01-4.72994E-02
 -1       299-4.83769E-10 5.01540E-01-6.69914E-02
 -1       300 6.11186E-10 4.39417E-01-3.87526E-02
 -1       301-1.21149E-09 5.02876E-01-5.71449E-02
 -1       302 4.30607E-10 4.37037E-01-5.73544E-02
 -1       303-1.93140E-09 6.44467E-01-6.73936E-02
 -1       304-1.19110E-09 6.41199E-01-8.91244E-02
 -1       305-9.65106E-10 6.44467E-01-6.73936E-02
 -1       306-5.94963E-10 6.41199E-01-8.91244E-02
 -1       307 8.44815E-10 5.72616E-01-5.68427E-02
 -1       308-1.56237E-09 6.42833E-01-7.82585E-02
 -1       309 5.43256E-10 5.69647E-01-7.75776E-02
 -1       310-2.38342E-09 7.97886E-01-9.15289E-02
 -1       311-1.37890E-09 7.94021E-01-1.15113E-01
 -1       312-1.19095E-09 7.97886E-01-9.15289E-02
 -1       313-6.88678E-10 7.94021E-01-1.15113E-01
 -1       314 1.09081E-09 7.19609E-01-7.89561E-02
 -1       315-1.88259E-09 7.95953E-01-1.03320E-01
 -1       316 6.55407E-10 7.16042E-01-1.01636E-01
 -1       317-2.66482E-09 9.63229E-01-1.19671E-01
 -1       318-1.42651E-09 9.58779E-01-1.44928E-01
 -1       319-1.33147E-09 9.63229E-01-1.19671E-01
 -1       320-7.12234E-10 9.58779E-01-1.44928E-01
 -1       321 1.29824E-09 8.79143E-01-1.05105E-01
 -1       322-2.04786E-09 9.61004E-01-1.32299E-01
 -1       323 7.33884E-10 8.74983E-01-1.29547E-01
 -1       324-2.52767E-09 1.13929E+00-1.51703E-01
 -1       325-1.12838E-09 1.13427E+00-1.78455E-01
 -1       326-1.26273E-09 1.13929E+00-1.51703E-01
 -1       327-5.62954E-10 1.13427E+00-1.78455E-01
 -1       328 1.37383E-09 1.04999E+00-1.35211E-01
 -1       329-1.82996E-09 1.13678E+00-1.65079E-01
 -1       330 7.06856E-10 1.04526E+00-1.61237E-01
 -1       331-1.58096E-09 1.32488E+00-1.87431E-01
 -1       332-9.73529E-11 1.31934E+00-2.15507E-01
 -1       333-7.89188E-10 1.32488E+00-1.87431E-01
 -1       334-4.68176E-11 1.31934E+00-2.15507E-01
 -1       335 1.16273E-09 1.23096E+00-1.69120E-01
 -1       336-8.45637E-10 1.32211E+00-2.01469E-01
 -1       337 4.40958E-10 1.22568E+00-1.96555E-01
 -1       338 7.49598E-10 1.51886E+00-2.26598E-01
 -1       339 2.29412E-09 1.51284E+00-2.55831E-01
 -1       340 3.75982E-10 1.51886E+00-2.26598E-01
 -1       341 1.14836E-09 1.51284E+00-2.55831E-01
 -1       342 4.28596E-10 1.42089E+00-2.06603E-01
 -1       343 1.52779E-09 1.51585E+00-2.41214E-01
 -1       344-3.16986E-10 1.41510E+00-2.35278E-01
 -1       345 5.23689E-09 1.72011E+00-2.68891E-01
 -1       346 7.23775E-09 1.71365E+00-2.99117E-01
 -1       347 2.62004E-09 1.72011E+00-2.68891E-01
 -1       348 3.62449E-09 1.71365E+00-2.99117E-01
 -1       349-1.16774E-09 1.61865E+00-2.47376E-01
 -1       350 6.18960E-09 1.71688E+00-2.84003E-01
 -1       351-1.94110E-09 1.61240E+00-2.77125E-01
 -1       352 1.28394E-08 1.92754E+00-3.13948E-01
 -1       353 1.60615E-08 1.92070E+00-3.45007E-01
 -1       354 6.41907E-09 1.92754E+00-3.13948E-01
 -1       355 8.02279E-09 1.92070E+00-3.45007E-01
 -1       356-4.05903E-09 1.82312E+00-2.91098E-01
 -1       357 1.45963E-08 1.92412E+00-3.29477E-01
 -1       358-5.24593E-09 1.81646E+00-3.21760E-01
 -1       359 2.45066E-08 2.14008E+00-3.61366E-01
 -1       360 3.29462E-08 2.13292E+00-3.93103E-01
 -1       361 1.22573E-08 2.14008E+00-3.61366E-01
 -1       362 1.65194E-08 2.13292E+00-3.93103E-01
 -1       363-8.78145E-09 2.03324E+00-3.37388E-01
 -1       364 2.81261E-08 2.13650E+00-3.77234E-01
 -1       365-1.07523E-08 2.02623E+00-3.68805E-01
 -1       366 4.09904E-08 2.35667E+00-4.10713E-01
 -1       367 5.62284E-08 2.34926E+00-4.42973E-01
 -1       368 2.04798E-08 2.35667E+00-4.10713E-01
 -1       369 2.79600E-08 2.34926E+00-4.42973E-01
 -1       370-1.57201E-08 2.24793E+00-3.85827E-01
 -1       371 5.08115E-08 2.35297E+00-4.26843E-01
 -1       372-2.20819E-08 2.24064E+00-4.17844E-01
 -1       373 6.16463E-08 2.57630E+00-4.61528E-01
 -1       374 1.13111E-07 2.56871E+00-4.94160E-01
 -1       375 3.08559E-08 2.57630E+00-4.61528E-01
 -1       376 5.71596E-08 2.56871E+00-4.94160E-01
 -1       377-2.53653E-08 2.46617E+00-4.35967E-01
 -1       378 7.89467E-08 2.57250E+00-4.77844E-01
 -1       379-3.40928E-08 2.45866E+00-4.68431E-01
 -1       380 8.43417E-08 2.79794E+00-5.13332E-01
 -1       381 1.31746E-07 2.79024E+00-5.46187E-01
 -1       382 4.20589E-08 2.79794E+00-5.13332E-01
 -1       383 6.36332E-08 2.79024E+00-5.46187E-01
 -1       384-3.61456E-08 2.68693E+00-4.87337E-01
 -1       385 1.39794E-07 2.79409E+00-5.29759E-01
 -1       386-7.85432E-08 2.67927E+00-5.20099E-01
 -1       387 1.00295E-07 3.02058E+00-5.65634E-01
 -1       388 4.25850E-07 3.01284E+00-5.98563E-01
 -1       389 5.03491E-08 3.02058E+00-5.65634E-01
 -1       390 2.21364E-07 3.01284E+00-5.98563E-01
 -1       391-4.91726E-08 2.90920E+00-5.39452E-01
 -1       392 1.42727E-07 3.01671E+00-5.82098E-01
 -1       393-5.40972E-08 2.90147E+00-5.72362E-01
 -1       394 0.00000E+00 0.00000E+00 0.00000E+00
 -1       395 2.69675E-10 1.16956E-02 3.20672E-03
 -1       396 0.00000E+00 0.00000E+00 0.00000E+00
 -1       397 1.96852E-14 1.16956E-02 3.20673E-03
 -1       398 0.00000E+00 0.00000E+00 0.00000E+00
 -1       399-8.44394E-11 2.95689E-03 1.69360E-03
 -1       400 1.46484E-10 1.16565E-02 1.50760E-03
 -1       401 0.00000E+00 0.00000E+00 0.00000E+00
 -1       402 1.34769E-10 1.16956E-02 3.20673E-03
 -1       403 0.00000E+00 0.00000E+00 0.00000E+00
 -1       404 5.44940E-15 2.95689E-03 1.69360E-03
 -1       405 1.85402E-14 1.16565E-02 1.50760E-03
 -1       406 4.23682E-10 4.58687E-02 5.20846E-03
 -1       407 7.32900E-14 4.58687E-02 5.20847E-03
 -1       408-1.85757E-10 2.60561E-02 4.41628E-03
 -1       409 2.57946E-10 4.57206E-02 1.90689E-03
 -1       410 2.11826E-10 4.58687E-02 5.20847E-03
 -1       411 4.23411E-14 2.60561E-02 4.41628E-03
 -1       412 7.09353E-14 4.57206E-02 1.90689E-03
 -1       413 4.79840E-10 1.01185E-01 5.14298E-03
 -1       414 1.59019E-13 1.01185E-01 5.14299E-03
 -1       415-2.38026E-10 7.09682E-02 5.48192E-03
 -1       416 3.47565E-10 1.00871E-01 3.36159E-04
 -1       417 2.39936E-10 1.01185E-01 5.14298E-03
 -1       418 1.12228E-13 7.09682E-02 5.48192E-03
 -1       419 1.55493E-13 1.00871E-01 3.36160E-04
 -1       420 4.21410E-10 1.76295E-01 2.30896E-03
 -1       421 2.75223E-13 1.76295E-01 2.30897E-03
 -1       422-2.41496E-10 1.36350E-01 4.11000E-03
 -1       423 4.12860E-10 1.75768E-01-3.90459E-03
 -1       424 2.10768E-10 1.76295E-01 2.30896E-03
 -1       425 2.13504E-13 1.36350E-01 4.11000E-03
 -1       426 2.70625E-13 1.75768E-01-3.90458E-03
 -1       427 1.93966E-10 2.69844E-01-3.84292E-03
 -1       428 4.20494E-13 2.69844E-01-3.84291E-03
 -1       429-1.79151E-10 2.20849E-01-3.23356E-04
 -1       430 4.32506E-10 2.69070E-01-1.13648E-02
 -1       431 9.70987E-11 2.69844E-01-3.84291E-03
 -1       432 3.44494E-13 2.20849E-01-3.23360E-04
 -1       433 4.14643E-13 2.69070E-01-1.13647E-02
 -1       434-3.03892E-10 3.80485E-01-1.37217E-02
 -1       435 5.93139E-13 3.80485E-01-1.37217E-02
 -1       436-1.35667E-11 3.23112E-01-8.29590E-03
 -1       437 3.59278E-10 3.79438E-01-2.24540E-02
 -1       438-1.51769E-10 3.80485E-01-1.37217E-02
 -1       439 5.03525E-13 3.23112E-01-8.29590E-03
 -1       440 5.86229E-13 3.79438E-01-2.24540E-02
 -1       441-1.23621E-09 5.06885E-01-2.76074E-02
 -1       442 7.90572E-13 5.06885E-01-2.76074E-02
 -1       443 3.19261E-10 4.41797E-01-2.01507E-02
 -1       444 1.08274E-10 5.05549E-01-3.74539E-02
 -1       445-6.17860E-10 5.06885E-01-2.76074E-02
 -1       446 6.89108E-13 4.41797E-01-2.01507E-02
 -1       447 7.82802E-13 5.05549E-01-3.74539E-02
 -1       448-2.85179E-09 6.47735E-01-4.56628E-02
 -1       449 1.01288E-12 6.47735E-01-4.56628E-02
 -1       450 9.19427E-10 5.75585E-01-3.61079E-02
 -1       451-4.60390E-10 6.46101E-01-5.65287E-02
 -1       452-1.42556E-09 6.47735E-01-4.56628E-02
 -1       453 8.99442E-13 5.75585E-01-3.61079E-02
 -1       454 1.00389E-12 6.46101E-01-5.65287E-02
 -1       455-5.51232E-09 8.01750E-01-6.79447E-02
 -1       456 1.25739E-12 8.01750E-01-6.79447E-02
 -1       457 1.93575E-09 7.23176E-01-5.62756E-02
 -1       458-1.56472E-09 7.99818E-01-7.97373E-02
 -1       459-2.75571E-09 8.01750E-01-6.79447E-02
 -1       460 1.13303E-12 7.23176E-01-5.62756E-02
 -1       461 1.24782E-12 7.99818E-01-7.97373E-02
 -1       462-9.72203E-09 9.67679E-01-9.44149E-02
 -1       463 1.52422E-12 9.67679E-01-9.44149E-02
 -1       464 3.58134E-09 8.83303E-01-8.06620E-02
 -1       465-3.52942E-09 9.65454E-01-1.07044E-01
 -1       466-4.86035E-09 9.67679E-01-9.44149E-02
 -1       467 1.38910E-12 8.83303E-01-8.06620E-02
 -1       468 1.51359E-12 9.65454E-01-1.07044E-01
 -1       469-1.61566E-08 1.14430E+00-1.24951E-01
 -1       470 1.80899E-12 1.14430E+00-1.24951E-01
 -1       471 6.14773E-09 1.05473E+00-1.09185E-01
 -1       472-6.81460E-09 1.14179E+00-1.38327E-01
 -1       473-8.07741E-09 1.14430E+00-1.24951E-01
 -1       474 1.66434E-12 1.05473E+00-1.09185E-01
 -1       475 1.79776E-12 1.14179E+00-1.38327E-01
 -1       476-2.56542E-08 1.33042E+00-1.59355E-01
 -1       477 2.11051E-12 1.33042E+00-1.59355E-01
 -1       478 1.00199E-08 1.23625E+00-1.41684E-01
 -1       479-1.20414E-08 1.32765E+00-1.73393E-01
 -1       480-1.28254E-08 1.33042E+00-1.59355E-01
 -1       481 1.95789E-12 1.23625E+00-1.41684E-01
 -1       482 2.09798E-12 1.32765E+00-1.73393E-01
 -1       483-3.92133E-08 1.52489E+00-1.97366E-01
 -1       484 2.42508E-12 1.52489E+00-1.97366E-01
 -1       485 1.56523E-08 1.42668E+00-1.77928E-01
 -1       486-1.99722E-08 1.52188E+00-2.11983E-01
 -1       487-1.96053E-08 1.52489E+00-1.97366E-01
 -1       488 2.26593E-12 1.42668E+00-1.77928E-01
 -1       489 2.41305E-12 1.52188E+00-2.11982E-01
 -1       490-5.76535E-08 1.72658E+00-2.38666E-01
 -1       491 2.75192E-12 1.72658E+00-2.38666E-01
 -1       492 2.35925E-08 1.62490E+00-2.17626E-01
 -1       493-3.14934E-08 1.72335E+00-2.53779E-01
 -1       494-2.88194E-08 1.72658E+00-2.38666E-01
 -1       495 2.58792E-12 1.62490E+00-2.17626E-01
 -1       496 2.73953E-12 1.72335E+00-2.53779E-01
 -1       497-8.19034E-08 1.93439E+00-2.82889E-01
 -1       498 3.08711E-12 1.93439E+00-2.82889E-01
 -1       499 3.41124E-08 1.82979E+00-2.60436E-01
 -1       500-4.72127E-08 1.93096E+00-2.98419E-01
 -1       501-4.09584E-08 1.93439E+00-2.82889E-01
 -1       502 2.91866E-12 1.82979E+00-2.60436E-01
 -1       503 3.07341E-12 1.93096E+00-2.98419E-01
 -1       504-1.09766E-07 2.14724E+00-3.29631E-01
 -1       505 3.42581E-12 2.14724E+00-3.29631E-01
 -1       506 4.78909E-08 2.04025E+00-3.05971E-01
 -1       507-6.77636E-08 2.14366E+00-3.45499E-01
 -1       508-5.48250E-08 2.14724E+00-3.29631E-01
 -1       509 3.25433E-12 2.04025E+00-3.05971E-01
 -1       510 3.41225E-12 2.14366E+00-3.45499E-01
 -1       511-1.43779E-07 2.36409E+00-3.78454E-01
 -1       512 3.76866E-12 2.36409E+00-3.78454E-01
 -1       513 6.20052E-08 2.25523E+00-3.53810E-01
 -1       514-9.00925E-08 2.36038E+00-3.94584E-01
 -1       515-7.20462E-08 2.36409E+00-3.78454E-01
 -1       516 3.59430E-12 2.25523E+00-3.53810E-01
 -1       517 3.75469E-12 2.36038E+00-3.94584E-01
 -1       518-1.54020E-07 2.58390E+00-4.28896E-01
 -1       519 4.10733E-12 2.58390E+00-4.28896E-01
 -1       520 8.21454E-08 2.47369E+00-4.03502E-01
 -1       521-1.16495E-07 2.58010E+00-4.45213E-01
 -1       522-7.63527E-08 2.58390E+00-4.28896E-01
 -1       523 3.93847E-12 2.47369E+00-4.03502E-01
 -1       524 4.09350E-12 2.58010E+00-4.45213E-01
 -1       525-2.03856E-07 2.80565E+00-4.80477E-01
 -1       526 4.45140E-12 2.80565E+00-4.80477E-01
 -1       527 7.19431E-08 2.69459E+00-4.54575E-01
 -1       528-1.11823E-07 2.80179E+00-4.96905E-01
 -1       529-1.04166E-07 2.80565E+00-4.80477E-01
 -1       530 4.27898E-12 2.69459E+00-4.54575E-01
 -1       531 4.43737E-12 2.80179E+00-4.96905E-01
 -1       532 4.38546E-08 3.02833E+00-5.32705E-01
 -1       533 4.79761E-12 3.02833E+00-5.32705E-01
 -1       534 1.34004E-07 2.91693E+00-5.06541E-01
 -1       535-1.49268E-07 3.02446E+00-5.49170E-01
 -1       536 3.02380E-08 3.02833E+00-5.32705E-01
 -1       537 4.62384E-12 2.91693E+00-5.06541E-01
 -1       538 4.78428E-12 3.02446E+00-5.49170E-01
 -1       539 0.00000E+00 0.00000E+00 0.00000E+00
 -1       540-2.69636E-10 1.16956E-02 3.20672E-03
 -1       541 0.00000E+00 0.00000E+00 0.00000E+00
 -1       542-1.34729E-10 1.16956E-02 3.20673E-03
 -1       543 0.00000E+00 0.00000E+00 0.00000E+00
 -1       544 8.44503E-11 2.95689E-03 1.69360E-03
 -1       545-1.46447E-10 1.16565E-02 1.50760E-03
 -1       546-4.23535E-10 4.58687E-02 5.20846E-03
 -1       547-2.11679E-10 4.58687E-02 5.20847E-03
 -1       548 1.85842E-10 2.60561E-02 4.41628E-03
 -1       549-2.57804E-10 4.57206E-02 1.90689E-03
 -1       550-4.79522E-10 1.01185E-01 5.14298E-03
 -1       551-2.39618E-10 1.01185E-01 5.14298E-03
 -1       552 2.38250E-10 7.09682E-02 5.48192E-03
 -1       553-3.47254E-10 1.00871E-01 3.36159E-04
 -1       554-4.20859E-10 1.76295E-01 2.30896E-03
 -1       555-2.10218E-10 1.76295E-01 2.30896E-03
 -1       556 2.41924E-10 1.36350E-01 4.11000E-03
 -1       557-4.12319E-10 1.75768E-01-3.90459E-03
 -1       558-1.93125E-10 2.69844E-01-3.84292E-03
 -1       559-9.62578E-11 2.69844E-01-3.84291E-03
 -1       560 1.79840E-10 2.20849E-01-3.23356E-04
 -1       561-4.31677E-10 2.69070E-01-1.13648E-02
 -1       562 3.05078E-10 3.80485E-01-1.37217E-02
 -1       563 1.52956E-10 3.80485E-01-1.37217E-02
 -1       564 1.45737E-11 3.23112E-01-8.29590E-03
 -1       565-3.58106E-10 3.79438E-01-2.24540E-02
 -1       566 1.23779E-09 5.06885E-01-2.76074E-02
 -1       567 6.19441E-10 5.06885E-01-2.76074E-02
 -1       568-3.17882E-10 4.41797E-01-2.01507E-02
 -1       569-1.06708E-10 5.05549E-01-3.74539E-02
 -1       570 2.85382E-09 6.47735E-01-4.56628E-02
 -1       571 1.42758E-09 6.47735E-01-4.56628E-02
 -1       572-9.17629E-10 5.75585E-01-3.61079E-02
 -1       573 4.62398E-10 6.46101E-01-5.65287E-02
 -1       574 5.51483E-09 8.01750E-01-6.79447E-02
 -1       575 2.75822E-09 8.01750E-01-6.79447E-02
 -1       576-1.93348E-09 7.23176E-01-5.62756E-02
 -1       577 1.56722E-09 7.99818E-01-7.97373E-02
 -1       578 9.72508E-09 9.67679E-01-9.44149E-02
 -1       579 4.86340E-09 9.67679E-01-9.44149E-02
 -1       580-3.57856E-09 8.83303E-01-8.06620E-02
 -1       581 3.53245E-09 9.65454E-01-1.07044E-01
 -1       582 1.61602E-08 1.14430E+00-1.24951E-01
 -1       583 8.08103E-09 1.14430E+00-1.24951E-01
 -1       584-6.14440E-09 1.05473E+00-1.09185E-01
 -1       585 6.81819E-09 1.14179E+00-1.38327E-01
 -1       586 2.56584E-08 1.33042E+00-1.59355E-01
 -1       587 1.28296E-08 1.33042E+00-1.59355E-01
 -1       588-1.00160E-08 1.23625E+00-1.41684E-01
 -1       589 1.20456E-08 1.32765E+00-1.73393E-01
 -1       590 3.92181E-08 1.52489E+00-1.97366E-01
 -1       591 1.96101E-08 1.52489E+00-1.97366E-01
 -1       592-1.56478E-08 1.42668E+00-1.77928E-01
 -1       593 1.99770E-08 1.52188E+00-2.11983E-01
 -1       594 5.76590E-08 1.72658E+00-2.38666E-01
 -1       595 2.88249E-08 1.72658E+00-2.38666E-01
 -1       596-2.35873E-08 1.62490E+00-2.17626E-01
 -1       597 3.14989E-08 1.72335E+00-2.53779E-01
 -1       598 8.19095E-08 1.93439E+00-2.82889E-01
 -1       599 4.09646E-08 1.93439E+00-2.82889E-01
 -1       600-3.41066E-08 1.82979E+00-2.60436E-01
 -1       601 4.72188E-08 1.93096E+00-2.98419E-01
 -1       602 1.09773E-07 2.14724E+00-3.29631E-01
 -1       603 5.48319E-08 2.14724E+00-3.29631E-01
 -1       604-4.78844E-08 2.04025E+00-3.05971E-01
 -1       605 6.77704E-08 2.14366E+00-3.45499E-01
 -1       606 1.43787E-07 2.36409E+00-3.78454E-01
 -1       607 7.20537E-08 2.36409E+00-3.78454E-01
 -1       608-6.19980E-08 2.25523E+00-3.53810E-01
 -1       609 9.01000E-08 2.36038E+00-3.94584E-01
 -1       610 1.54028E-07 2.58390E+00-4.28896E-01
 -1       611 7.63609E-08 2.58390E+00-4.28896E-01
 -1       612-8.21375E-08 2.47369E+00-4.03502E-01
 -1       613 1.16503E-07 2.58010E+00-4.45213E-01
 -1       614 2.03865E-07 2.80565E+00-4.80477E-01
 -1       615 1.04175E-07 2.80565E+00-4.80477E-01
 -1       616-7.19346E-08 2.69459E+00-4.54575E-01
 -1       617 1.11832E-07 2.80179E+00-4.96905E-01
 -1       618-4.38450E-08 3.02833E+00-5.32705E-01
 -1       619-3.02284E-08 3.02833E+00-5.32705E-01
 -1       620-1.33995E-07 2.91693E+00-5.06541E-01
 -1       621 1.49277E-07 3.02446E+00-5.49170E-01
 -3
    1PSTEP                         4           2           1          
  100CL  102 1.00000E-01         621                     0    2           1
 -4  STRESS      6    1
 -5  SXX         1    4    1    1
 -5  SYY         1    4    2    2
 -5  SZZ         1    4    3    3
 -5  SXY         1    4    1    2
 -5  SYZ         1    4    2    3
 -5  SZX         1    4    3    1
 -1         1-6.12652E-02-1.46556E+03-6.94538E+05-7.85840E-01 9.25670E+02-3.71103E-03
 -1         2-1.64333E-02-1.62899E+03-3.71662E+03 3.20794E-01 1.82143E+03-1.82699E-01
 -1         3-1.51577E-02-2.62963E+03-3.51930E+03-8.71888E-03 3.50897E+03-1.07856E-02
 -1         4-9.85700E-03-1.28636E+03-6.56463E+05-1.43361E-02-3.04753E+04 1.47839E-04
 -1         5-6.12652E-02-1.46412E+03-6.94538E+05 2.26823E-08 9.25836E+02-1.40433E-07
 -1         6-1.64333E-02-1.62890E+03-3.71648E+03 1.80811E-08 1.82147E+03-7.77458E-09
 -1         7-1.49278E-02-2.62966E+03-3.51916E+03-3.18663E-08 3.50887E+03-7.63173E-10
 -1         8-9.46866E-03-1.28628E+03-6.56463E+05-6.31462E-09-3.04750E+04-2.91926E-07
 -1         9-3.87578E-02-1.56685E+03-3.49078E+05-2.59072E-01 1.43305E+03-9.26464E-02
 -1        10 7.08595E-03-2.06267E+03-3.52977E+03 4.90439E-03 2.66156E+03 2.34206E-03
 -1        11-1.24619E-02-1.96533E+03-3.29969E+05-6.55918E-03-1.34999E+04-5.23262E-03
 -1        12 6.20636E-03-1.29745E+03-6.75636E+05 2.30311E-03-1.46287E+04-1.59903E-03
 -1        13-6.12652E-02-1.46484E+03-6.94538E+05-7.78106E-01 9.25753E+02 1.88042E-03
 -1        14-1.64333E-02-1.62894E+03-3.71655E+03 3.01258E-01 1.82145E+03-1.81191E-01
 -1        15-1.50428E-02-2.62965E+03-3.51923E+03-4.24957E-03 3.50892E+03-6.25431E-03
 -1        16-9.66283E-03-1.28632E+03-6.56463E+05-1.45879E-02-3.04751E+04 8.25351E-03
 -1        17-3.87578E-02-1.56542E+03-3.49078E+05 2.14637E-08 1.43301E+03-7.52357E-08
 -1        18 7.20088E-03-2.06266E+03-3.52984E+03 9.67179E-10 2.66161E+03-2.95255E-10
 -1        19-1.21524E-02-1.96529E+03-3.29969E+05-1.66624E-08-1.34998E+04-1.28041E-07
 -1        20 6.40055E-03-1.29747E+03-6.75636E+05-3.23709E-10-1.46289E+04-2.12896E-07
 -1        21-1.80033E-02-1.65365E+03-3.29880E+03-8.95640E-03 2.99167E+03-2.21619E-02
 -1        22-6.70858E-03-5.19569E+03-6.16283E+05-3.51648E-02-5.50765E+04-3.33284E-03
 -1        23-1.79210E-02-1.65369E+03-3.29866E+03 1.48746E-08 2.99158E+03-5.29694E-09
 -1        24-6.59361E-03-5.19553E+03-6.16283E+05 5.79915E-09-5.50761E+04-2.59563E-07
 -1        25 8.13049E-03-2.07709E+03-3.41614E+03 4.16719E-03 3.24775E+03 8.23753E-03
 -1        26-1.22729E-02-3.42301E+03-3.09788E+05-1.68525E-02-2.60493E+04-1.31180E-02
 -1        27 3.59913E-03-3.16421E+03-6.36348E+05 1.20877E-02-4.28720E+04 9.81018E-04
 -1        28-1.79621E-02-1.65367E+03-3.29873E+03-4.37040E-03 2.99162E+03-1.30185E-02
 -1        29-6.65110E-03-5.19561E+03-6.16283E+05-3.54977E-02-5.50763E+04 7.27044E-03
 -1        30 8.28660E-03-2.07707E+03-3.41621E+03-1.21645E-08 3.24780E+03 1.54261E-09
 -1        31-1.21740E-02-3.42293E+03-3.09788E+05 9.39892E-11-2.60492E+04-1.19739E-07
 -1        32 3.85077E-03-3.16427E+03-6.36348E+05-5.81596E-09-4.28721E+04-2.79148E-07
 -1        33-2.19295E-02-1.23185E+03-3.14962E+03-1.32207E-02 3.04493E+03-3.26535E-02
 -1        34-6.49380E-03-9.99236E+03-5.74818E+05-5.97299E-02-7.53224E+04-3.92081E-03
 -1        35-2.19099E-02-1.23191E+03-3.14947E+03 5.07860E-09 3.04486E+03-8.46402E-09
 -1        36-6.44461E-03-9.99210E+03-5.74818E+05 4.95075E-08-7.53221E+04-2.95348E-07
 -1        37 9.96139E-03-1.41269E+03-3.24043E+03 5.34063E-03 3.00790E+03 1.37091E-02
 -1        38-1.40768E-02-5.61294E+03-2.88977E+05-3.01560E-02-3.61397E+04-1.92084E-02
 -1        39 2.89573E-03-7.57629E+03-5.95528E+05 2.32619E-02-6.52576E+04 1.88231E-03
 -1        40-2.19197E-02-1.23188E+03-3.14954E+03-6.58042E-03 3.04489E+03-1.80162E-02
 -1        41-6.46920E-03-9.99223E+03-5.74818E+05-5.96720E-02-7.53222E+04 8.66613E-03
 -1        42 1.00124E-02-1.41266E+03-3.24050E+03-2.62100E-09 3.00794E+03 2.79899E-09
 -1        43-1.40421E-02-5.61280E+03-2.88977E+05 3.48311E-08-3.61396E+04-1.41096E-07
 -1        44 2.97781E-03-7.57639E+03-5.95528E+05 1.50699E-08-6.52578E+04-2.79448E-07
 -1        45-2.58505E-02-7.23469E+02-2.99102E+03-2.21795E-02 2.93189E+03-4.15241E-02
 -1        46-7.81876E-03-1.55970E+04-5.32863E+05-9.02540E-02-9.07574E+04-1.94040E-03
 -1        47-2.59610E-02-7.23543E+02-2.99088E+03 1.80209E-07 2.93184E+03 8.49416E-09
 -1        48-7.89936E-03-1.55967E+04-5.32863E+05-3.67203E-07-9.07569E+04-2.80529E-07
 -1        49 1.20822E-02-9.69704E+02-3.09217E+03 8.66612E-03 2.97946E+03 1.86232E-02
 -1        50-1.66378E-02-8.16029E+03-2.67922E+05-4.79083E-02-4.39126E+04-2.34638E-02
 -1        51 3.23088E-03-1.27934E+04-5.53804E+05 3.67909E-02-8.30731E+04 1.51350E-03
 -1        52-2.59058E-02-7.23506E+02-2.99095E+03-1.15329E-02 2.93187E+03-2.05909E-02
 -1        53-7.85905E-03-1.55969E+04-5.32863E+05-8.93745E-02-9.07571E+04 1.27703E-02
 -1        54 1.20368E-02-9.69672E+02-3.09224E+03 1.16606E-07 2.97949E+03 6.46850E-10
 -1        55-1.67332E-02-8.16008E+03-2.67922E+05 5.24160E-08-4.39124E+04-1.35125E-07
 -1        56 3.21518E-03-1.27936E+04-5.53804E+05-1.81291E-07-8.30733E+04-2.95148E-07
 -1        57-2.81683E-02-2.93882E+02-2.84817E+03-3.67593E-02 2.85568E+03-4.68984E-02
 -1        58-9.38425E-03-2.12789E+04-4.91010E+05-1.29614E-01-1.01941E+05 3.31118E-03
 -1        59-2.84697E-02-2.93968E+02-2.84804E+03 1.23507E-08 2.85564E+03-1.00195E-08
 -1        60-9.62636E-03-2.12784E+04-4.91010E+05 1.41719E-07-1.01940E+05-3.06064E-07
 -1        61 1.39009E-02-5.13547E+02-2.93392E+03 1.45887E-02 2.88657E+03 2.23603E-02
 -1        62-1.84989E-02-1.07866E+04-2.46924E+05-7.19375E-02-4.95419E+04-2.47137E-02
 -1        63 4.04056E-03-1.84484E+04-5.11910E+05 5.39519E-02-9.63649E+04-2.27319E-04
 -1        64-2.83190E-02-2.93925E+02-2.84811E+03-2.00065E-02 2.85566E+03-1.93181E-02
 -1        65-9.50531E-03-2.12787E+04-4.91010E+05-1.27384E-01-1.01940E+05 2.04718E-02
 -1        66 1.36949E-02-5.13508E+02-2.93398E+03 1.87270E-07 2.88659E+03-1.06319E-08
 -1        67-1.87704E-02-1.07863E+04-2.46924E+05-1.34123E-07-4.95418E+04-1.26046E-07
 -1        68 3.87923E-03-1.84486E+04-5.11910E+05-1.34958E-07-9.63651E+04-2.84455E-07
 -1        69-2.62523E-02 1.03929E+02-2.70668E+03-5.79631E-02 2.76593E+03-4.53750E-02
 -1        70-9.28056E-03-2.66277E+04-4.49753E+05-1.81394E-01-1.09217E+05 1.38141E-02
 -1        71-2.68447E-02 1.03835E+02-2.70661E+03 3.22806E-07 2.76592E+03 3.63886E-08
 -1        72-9.78505E-03-2.66269E+04-4.49753E+05 4.52623E-08-1.09216E+05-3.18096E-07
 -1        73 1.44003E-02-1.06169E+02-2.78574E+03 2.36149E-02 2.80603E+03 2.36402E-02
 -1        74-1.73817E-02-1.32621E+04-2.26225E+05-1.04414E-01-5.32251E+04-2.04045E-02
 -1        75 4.56205E-03-2.39673E+04-4.70362E+05 7.63519E-02-1.05585E+05-3.96630E-03
 -1        76-2.65485E-02 1.03882E+02-2.70665E+03-3.29803E-02 2.76593E+03-1.18667E-02
 -1        77-9.53281E-03-2.66273E+04-4.49753E+05-1.77204E-01-1.09217E+05 3.34834E-02
 -1        78 1.39534E-02-1.06125E+02-2.78579E+03 1.90714E-07 2.80604E+03 4.54095E-09
 -1        79-1.79299E-02-1.32617E+04-2.26226E+05 3.47405E-07-5.32249E+04-1.52289E-07
 -1        80 4.18872E-03-2.39677E+04-4.70362E+05 2.23955E-07-1.05585E+05-2.61534E-07
 -1        81-1.59796E-02 4.61100E+02-2.57115E+03-8.67365E-02 2.67938E+03-3.15616E-02
 -1        82-4.32359E-03-3.12882E+04-4.09452E+05-2.49989E-01-1.13015E+05 3.33901E-02
 -1        83-1.69870E-02 4.61002E+02-2.57116E+03 1.49932E-07 2.67938E+03-2.05967E-08
 -1        84-5.24429E-03-3.12872E+04-4.09452E+05 4.91595E-07-1.13014E+05-3.61753E-07
 -1        85 1.19488E-02 2.68633E+02-2.64268E+03 3.62693E-02 2.71994E+03 2.03137E-02
 -1        86-9.62857E-03-1.54139E+04-2.06008E+05-1.47853E-01-5.51677E+04-6.07179E-03
 -1        87 3.61039E-03-2.89728E+04-4.29590E+05 1.05979E-01-1.11117E+05-1.10897E-02
 -1        88-1.64833E-02 4.61051E+02-2.57116E+03-5.17293E-02 2.67938E+03 5.14351E-03
 -1        89-4.78392E-03-3.12877E+04-4.09452E+05-2.43339E-01-1.13015E+05 5.46331E-02
 -1        90 1.11489E-02 2.68680E+02-2.64270E+03 1.11068E-07 2.71994E+03 1.19638E-08
 -1        91-1.05923E-02-1.54133E+04-2.06008E+05 3.95348E-07-5.51674E+04-2.03229E-07
 -1        92 2.89779E-03-2.89732E+04-4.29590E+05 2.35412E-07-1.11117E+05-3.08405E-07
 -1        93 8.81573E-03 7.83040E+02-2.44121E+03-1.23698E-01 2.59404E+03 2.42302E-03
 -1        94 1.09142E-02-3.50165E+04-3.70367E+05-3.40519E-01-1.13744E+05 6.85239E-02
 -1        95 7.24480E-03 7.82947E+02-2.44136E+03-1.11577E-07 2.59406E+03-1.19964E-08
 -1        96 9.29600E-03-3.50150E+04-3.70368E+05-8.72609E-07-1.13743E+05-2.40069E-07
 -1        97 4.02642E-03 6.07367E+02-2.50729E+03 5.30225E-02 2.63554E+03 9.11510E-03
 -1        98 1.05900E-02-1.71172E+04-1.86401E+05-2.04965E-01-5.55749E+04 2.53257E-02
 -1        99-8.66525E-04-3.31662E+04-3.89902E+05 1.45256E-01-1.13377E+05-2.40771E-02
 -1       100 8.03030E-03 7.82994E+02-2.44129E+03-7.79909E-02 2.59405E+03 3.62049E-02
 -1       101 1.01050E-02-3.50157E+04-3.70368E+05-3.31684E-01-1.13744E+05 8.82642E-02
 -1       102 2.73726E-03 6.07414E+02-2.50725E+03-1.24008E-07 2.63553E+03 2.46820E-09
 -1       103 8.99562E-03-1.71164E+04-1.86401E+05-7.90552E-07-5.55745E+04-5.79531E-08
 -1       104-2.13598E-03-3.31668E+04-3.89902E+05-1.55812E-08-1.13378E+05-3.69130E-07
 -1       105 5.67763E-02 1.07106E+03-2.31840E+03-1.69255E-01 2.51239E+03 6.73124E-02
 -1       106 4.56369E-02-3.76488E+04-3.32665E+05-4.59179E-01-1.11803E+05 1.29536E-01
 -1       107 5.45405E-02 1.07098E+03-2.31875E+03-5.66981E-09 2.51243E+03 9.26017E-08
 -1       108 4.30410E-02-3.76469E+04-3.32666E+05 3.18254E-07-1.11802E+05-3.45678E-07
 -1       109-1.30566E-02 9.12313E+02-2.37946E+03 7.40959E-02 2.55307E+03-1.45738E-02
 -1       110 5.21367E-02-1.82896E+04-1.67489E+05-2.78920E-01-5.46450E+04 8.41866E-02
 -1       111-1.23255E-02-3.63447E+04-3.51513E+05 1.96911E-01-1.12769E+05-4.69774E-02
 -1       112 5.56584E-02 1.07102E+03-2.31858E+03-1.14464E-01 2.51241E+03 8.68286E-02
 -1       113 4.43390E-02-3.76479E+04-3.32666E+05-4.49957E-01-1.11802E+05 1.40671E-01
 -1       114-1.49599E-02 9.12352E+02-2.37934E+03 1.99063E-07 2.55305E+03-4.65443E-09
 -1       115 4.97210E-02-1.82884E+04-1.67489E+05 6.44983E-08-5.46444E+04-1.12106E-07
 -1       116-1.44326E-02-3.63456E+04-3.51512E+05-2.13771E-07-1.12770E+05-3.05968E-07
 -1       117 1.39250E-01 1.32730E+03-2.20362E+03-2.22493E-01 2.43533E+03 1.76629E-01
 -1       118 1.14281E-01-3.90949E+04-2.96434E+05-6.11674E-01-1.07565E+05 2.32211E-01
 -1       119 1.36234E-01 1.32727E+03-2.20426E+03 3.30154E-07 2.43539E+03-1.83511E-07
 -1       120 1.09789E-01-3.90923E+04-2.96435E+05-1.21615E-07-1.07563E+05-4.79760E-08
 -1       121-4.43073E-02 1.18462E+03-2.25988E+03 9.98196E-02 2.47431E+03-5.68299E-02
 -1       122 1.28215E-01-1.88847E+04-1.49316E+05-3.72094E-01-5.25643E+04 1.85122E-01
 -1       123-3.66275E-02-3.83817E+04-3.14548E+05 2.64434E-01-1.09678E+05-8.61365E-02
 -1       124 1.37742E-01 1.32729E+03-2.20394E+03-1.65173E-01 2.43536E+03 1.62869E-01
 -1       125 1.12035E-01-3.90936E+04-2.96434E+05-6.08941E-01-1.07564E+05 2.20724E-01
 -1       126-4.69334E-02 1.18464E+03-2.25963E+03 1.06445E-07 2.47429E+03-1.08959E-08
 -1       127 1.24460E-01-1.88830E+04-1.49317E+05 7.98978E-07-5.25635E+04-2.16765E-07
 -1       128-4.01715E-02-3.83828E+04-3.14548E+05 3.60993E-09-1.09679E+05-1.27901E-07
 -1       129 2.69297E-01 1.55354E+03-2.09783E+03-2.85766E-01 2.36384E+03 3.45801E-01
 -1       130 2.40963E-01-3.93239E+04-2.61694E+05-8.08353E-01-1.01375E+05 3.99360E-01
 -1       131 2.65974E-01 1.55361E+03-2.09883E+03-2.14823E-07 2.36396E+03-1.61845E-09
 -1       132 2.35252E-01-3.93203E+04-2.61696E+05 1.44037E-06-1.01372E+05-2.64181E-07
 -1       133-9.61637E-02 1.42591E+03-2.14900E+03 1.29172E-01 2.40031E+03-1.24967E-01
 -1       134 2.56360E-01-1.88863E+04-1.31894E+05-4.90975E-01-4.95049E+04 3.47210E-01
 -1       135-8.25564E-02-3.92165E+04-2.79065E+05 3.50181E-01-1.04463E+05-1.50948E-01
 -1       136 2.67635E-01 1.55358E+03-2.09833E+03-2.38481E-01 2.36390E+03 2.69843E-01
 -1       137 2.38108E-01-3.93221E+04-2.61695E+05-8.22283E-01-1.01373E+05 3.39799E-01
 -1       138-9.93332E-02 1.42590E+03-2.14859E+03 6.15904E-07 2.40026E+03-3.95641E-08
 -1       139 2.51843E-01-1.88840E+04-1.31895E+05 2.27688E-07-4.95038E+04 1.10384E-08
 -1       140-8.76577E-02-3.92180E+04-2.79064E+05 4.21961E-07-1.04464E+05-3.87760E-07
 -1       141 4.60375E-01 1.75156E+03-2.00181E+03-3.50507E-01 2.29866E+03 5.88636E-01
 -1       142 4.56161E-01-3.83547E+04-2.28414E+05-1.04436E+00-9.35455E+04 6.65249E-01
 -1       143 4.56431E-01 1.75181E+03-2.00322E+03 3.01237E-07 2.29890E+03-3.00032E-09
 -1       144 4.42881E-01-3.83498E+04-2.28417E+05-1.18394E-06-9.35424E+04-4.46965E-07
 -1       145-1.75254E-01 1.63775E+03-2.04738E+03 1.65956E-01 2.33199E+03-2.26875E-01
 -1       146 4.62663E-01-1.83031E+04-1.15206E+05-6.29499E-01-4.56227E+04 5.95187E-01
 -1       147-1.65608E-01-3.88432E+04-2.45058E+05 4.62128E-01-9.74525E+04-2.55152E-01
 -1       148 4.58403E-01 1.75168E+03-2.00251E+03-3.43857E-01 2.29878E+03 4.08189E-01
 -1       149 4.49521E-01-3.83523E+04-2.28415E+05-1.11462E+00-9.35440E+04 5.13896E-01
 -1       150-1.78888E-01 1.63767E+03-2.04678E+03-1.60692E-07 2.33190E+03-8.89850E-08
 -1       151 4.54050E-01-1.82999E+04-1.15208E+05-5.83122E-07-4.56212E+04-1.33256E-07
 -1       152-1.75103E-01-3.88453E+04-2.45057E+05 1.74029E-08-9.74539E+04-2.29732E-07
 -1       153 7.17264E-01 1.92295E+03-1.91619E+03-4.58173E-01 2.24033E+03 9.14919E-01
 -1       154 8.25928E-01-3.62459E+04-1.96516E+05-1.37418E+00-8.43570E+04 1.06798E+00
 -1       155 7.17547E-01 1.92356E+03-1.91803E+03-3.23871E-07 2.24085E+03-7.42584E-08
 -1       156 8.24122E-01-3.62391E+04-1.96520E+05 1.48459E-06-8.43528E+04-2.09537E-07
 -1       157-2.88791E-01 1.82160E+03-1.95549E+03 1.98371E-01 2.27002E+03-3.67898E-01
 -1       158 7.67297E-01-1.71635E+04-9.92146E+04-8.36704E-01-4.10573E+04 9.52019E-01
 -1       159-3.01639E-01-3.73003E+04-2.12471E+05 5.88396E-01-8.89426E+04-4.18016E-01
 -1       160 7.17406E-01 1.92326E+03-1.91711E+03-5.18110E-01 2.24059E+03 5.78023E-01
 -1       161 8.25025E-01-3.62425E+04-1.96518E+05-1.50338E+00-8.43549E+04 7.55678E-01
 -1       162-2.90622E-01 1.82140E+03-1.95467E+03-3.64300E-07 2.26984E+03 3.57585E-09
 -1       163 7.66535E-01-1.71590E+04-9.92171E+04 2.19684E-07-4.10552E+04-1.11625E-07
 -1       164-3.09181E-01-3.73032E+04-2.12470E+05-5.74603E-07-8.89444E+04-1.11543E-07
 -1       165 1.03681E+00 2.06951E+03-1.84170E+03-4.91092E-01 2.18949E+03 1.30254E+00
 -1       166 1.36456E+00-3.30874E+04-1.65888E+05-1.63503E+00-7.40572E+04 1.69682E+00
 -1       167 1.03316E+00 2.07073E+03-1.84380E+03-9.98126E-09 2.19056E+03 2.90301E-07
 -1       168 1.29628E+00-3.30781E+04-1.65892E+05 1.04122E-06-7.40512E+04 2.76406E-07
 -1       169-4.33255E-01 1.97890E+03-1.87383E+03 2.81228E-01 2.21498E+03-5.52123E-01
 -1       170 1.23354E+00-1.55119E+04-8.38634E+04-9.74659E-01-3.59326E+04 1.45944E+00
 -1       171-5.39549E-01-3.46618E+04-1.81211E+05 7.93246E-01-7.91970E+04-6.62602E-01
 -1       172 1.03499E+00 2.07012E+03-1.84275E+03-7.51602E-01 2.19002E+03 7.36968E-01
 -1       173 1.33042E+00-3.30827E+04-1.65890E+05-2.08804E+00-7.40542E+04 1.10224E+00
 -1       174-4.34934E-01 1.97843E+03-1.87281E+03-6.15326E-07 2.21459E+03 6.21864E-08
 -1       175 1.19758E+00-1.55055E+04-8.38667E+04 1.11581E-06-3.59293E+04 1.36102E-07
 -1       176-5.74596E-01-3.46658E+04-1.81209E+05 2.26761E-06-7.91995E+04-2.23232E-07
 -1       177 1.35065E+00 2.19202E+03-1.77795E+03-9.85404E-01 2.14606E+03 1.75020E+00
 -1       178 2.38288E+00-2.89947E+04-1.36388E+05-2.49206E+00-6.28636E+04 2.49921E+00
 -1       179 1.38530E+00 2.19459E+03-1.78019E+03 7.90788E-07 2.14835E+03 3.96516E-08
 -1       180 2.53467E+00-2.89812E+04-1.36393E+05-3.29210E-07-6.28553E+04-5.62468E-07
 -1       181-6.13080E-01 2.11054E+03-1.80262E+03 2.42094E-01 2.16699E+03-7.50760E-01
 -1       182 1.76628E+00-1.34053E+04-6.90822E+04-1.65115E+00-3.03571E+04 2.06592E+00
 -1       183-8.53353E-01-3.10298E+04-1.51149E+05 8.60715E-01-6.84479E+04-1.03823E+00
 -1       184 1.36798E+00 2.19331E+03-1.77907E+03-1.30354E+00 2.14720E+03 9.26701E-01
 -1       185 2.45878E+00-2.89880E+04-1.36391E+05-2.74852E+00-6.28594E+04 1.50006E+00
 -1       186-5.97583E-01 2.10969E+03-1.80154E+03-2.74984E-07 2.16623E+03 9.21524E-08
 -1       187 1.85950E+00-1.33959E+04-6.90860E+04 2.34756E-07-3.03521E+04-2.54413E-07
 -1       188-8.11580E-01-3.10352E+04-1.51147E+05 8.57948E-07-6.84515E+04 1.17641E-07
 -1       189 1.60690E+00 2.29457E+03-1.72741E+03-1.63206E-01 2.11290E+03 1.94249E+00
 -1       190 3.22413E+00-2.40991E+04-1.07854E+05-1.54766E+00-5.09705E+04 4.09766E+00
 -1       191 1.57046E+00 2.29853E+03-1.72854E+03-9.96359E-07 2.11688E+03-2.24438E-07
 -1       192 2.50884E+00-2.40821E+04-1.07861E+05 1.70347E-07-5.09569E+04 3.94671E-07
 -1       193-7.39659E-01 2.21858E+03-1.74328E+03 7.99279E-01 2.12695E+03-9.95146E-01
 -1       194 2.82585E+00-1.09097E+04-5.47896E+04-7.65964E-01-2.44272E+04 3.03710E+00
 -1       195-1.55050E+00-2.65265E+04-1.22135E+05 1.63365E+00-5.69003E+04-1.50369E+00
 -1       196 1.58868E+00 2.29655E+03-1.72798E+03-1.58612E+00 2.11489E+03 7.30548E-01
 -1       197 2.86649E+00-2.40906E+04-1.07858E+05-4.33989E+00-5.09637E+04 2.22668E+00
 -1       198-7.40544E-01 2.21670E+03-1.74214E+03 1.54022E-06 2.12526E+03-2.45648E-08
 -1       199 2.44997E+00-1.08970E+04-5.47941E+04-8.43683E-07-2.44184E+04 7.46447E-08
 -1       200-1.83231E+00-2.65349E+04-1.22132E+05-1.08265E-06-5.69050E+04-1.28650E-07
 -1       201 1.37956E+00 2.36822E+03-1.67909E+03-5.09393E+00 2.08333E+03 2.43985E+00
 -1       202 6.98832E+00-1.85609E+04-8.01166E+04-7.93401E+00-3.85379E+04 4.42015E+00
 -1       203 1.65613E+00 2.37832E+03-1.68090E+03 2.41658E-06 2.09271E+03-3.24329E-07
 -1       204 9.48803E+00-1.85288E+04-8.01203E+04 3.37365E-07-3.85232E+04 3.07545E-07
 -1       205-9.06326E-01 2.29986E+03-1.69293E+03-5.66284E-01 2.09183E+03-9.17133E-01
 -1       206 2.68713E+00-8.10260E+03-4.08974E+04-6.54192E+00-1.82249E+04 3.19888E+00
 -1       207-1.78964E+00-2.12948E+04-9.39978E+04 2.75342E-02-4.47292E+04-2.49250E+00
 -1       208 1.51785E+00 2.37327E+03-1.67999E+03-4.43846E+00 2.08802E+03 1.28124E+00
 -1       209 8.23817E+00-1.85449E+04-8.01185E+04-4.27782E+00-3.85305E+04 2.26075E+00
 -1       210-7.86307E-01 2.29750E+03-1.69299E+03 8.53719E-07 2.08927E+03-1.78407E-07
 -1       211 4.07529E+00-8.08001E+03-4.08997E+04 1.04475E-06-1.82138E+04-6.86149E-08
 -1       212-8.97197E-01-2.13034E+04-9.39941E+04 1.40128E-07-4.47381E+04 3.26158E-07
 -1       213 6.88217E-01 2.45112E+03-1.66918E+03 9.76059E+00 2.08985E+03-3.44908E-01
 -1       214 3.00107E+00-1.25020E+04-5.29563E+04 1.21169E+01-2.57560E+04 1.23610E+01
 -1       215 1.98049E-01 2.45749E+03-1.65942E+03-7.27795E-07 2.09919E+03 3.50579E-07
 -1       216-6.63947E+00-1.24844E+04-5.29737E+04-1.48166E-06-2.57102E+04-6.32030E-07
 -1       217-3.78657E-01 2.37005E+03-1.66641E+03 5.84836E+00 2.07139E+03-1.51484E+00
 -1       218 7.54393E+00-5.05528E+03-2.73048E+04 1.11897E+01-1.18345E+04 6.88829E+00
 -1       219-5.04430E+00-1.54690E+04-6.65461E+04 7.67004E+00-3.21052E+04-2.35374E+00
 -1       220 4.43133E-01 2.45431E+03-1.66430E+03-2.58742E-01 2.09452E+03-2.49281E+00
 -1       221-1.81920E+00-1.24932E+04-5.29650E+04-1.33604E+01-2.57331E+04 5.38954E+00
 -1       222-4.85291E-01 2.36200E+03-1.66459E+03-1.37950E-07 2.06415E+03 3.52445E-08
 -1       223 2.47851E+00-5.03579E+03-2.73124E+04-8.06800E-07-1.18042E+04-7.02721E-08
 -1       224-8.61560E+00-1.54939E+04-6.65455E+04-3.52619E-07-3.21118E+04-6.54692E-08
 -1       225-2.15567E+00 2.40077E+03-1.54754E+03-5.23424E+01 2.02486E+03 5.21707E+00
 -1       226 3.21528E+01-6.24813E+03-2.62927E+04-6.79878E+01-1.26210E+04-7.01272E+00
 -1       227-3.29667E-01 2.45396E+03-1.56807E+03 2.47356E-06 2.07083E+03-2.08693E-07
 -1       228 6.80347E+01-6.11432E+03-2.62504E+04 2.76725E-06-1.26395E+04-2.93024E-07
 -1       229-6.99576E-01 2.37459E+03-1.61321E+03-1.56137E+01 2.02471E+03 2.05530E+00
 -1       230-6.34126E+00-1.89723E+03-1.39296E+04-6.17512E+01-5.28951E+03-4.07531E+00
 -1       231 1.01079E+00-9.26189E+03-3.96134E+04-1.85520E+01-1.91169E+04-8.42402E+00
 -1       232-1.24267E+00 2.42737E+03-1.55781E+03-2.67469E+01 2.04785E+03 7.51027E+00
 -1       233 5.00938E+01-6.18123E+03-2.62716E+04 7.57625E+00-1.26302E+04-2.78627E+00
 -1       234-3.23115E-02 2.37531E+03-1.62482E+03 7.98234E-07 2.02197E+03-4.00338E-08
 -1       235 1.25128E+01-1.81405E+03-1.39079E+04 1.73953E-06-5.28659E+03-4.90221E-07
 -1       236 1.41347E+01-9.25156E+03-3.96010E+04 1.74306E-06-1.91547E+04-5.97681E-07
 -1       237-1.07989E+01 2.37738E+03-1.80214E+03 2.23907E+02 1.97468E+03-5.00739E+01
 -1       238-1.79882E+02 1.67789E+03 4.58635E+02 3.04749E+02 7.48138E+02-5.71977E+01
 -1       239-1.39856E+01 2.08905E+03-1.70222E+03-6.48829E-06 1.70941E+03-3.65768E-07
 -1       240-3.14876E+02 7.61167E+02 4.47223E+02-1.54914E-06 5.28163E+02 4.76185E-07
 -1       241 4.30580E+00 2.52356E+03-1.73445E+03 6.91451E+01 2.09628E+03-7.60881E+00
 -1       242-1.48761E+01 2.06178E+03-6.20216E+02 2.75015E+02 1.31548E+03-2.95304E+01
 -1       243-2.98799E+01-2.62083E+03-1.28809E+04 8.23517E+01-6.08473E+03 9.53434E+00
 -1       244-1.23923E+01 2.23322E+03-1.75218E+03 1.42880E+02 1.84205E+03-4.20352E+01
 -1       245-2.47379E+02 1.21953E+03 4.52929E+02 5.02129E+01 6.38151E+02-3.60622E+01
 -1       246 3.62603E+00 2.46996E+03-1.70231E+03-1.68765E-06 2.05190E+03-2.64828E-07
 -1       247-8.39664E+01 1.45528E+03-6.22872E+02-4.76295E-06 1.11427E+03 7.63557E-08
 -1       248-7.94383E+01-2.77960E+03-1.29222E+04-1.97042E-07-6.03629E+03 1.55910E-08
 -1       249-6.12652E-02-1.46556E+03-6.94538E+05 7.85840E-01 9.25670E+02 3.71075E-03
 -1       250-1.64333E-02-1.62899E+03-3.71662E+03-3.20794E-01 1.82143E+03 1.82699E-01
 -1       251-1.51577E-02-2.62963E+03-3.51930E+03 8.71892E-03 3.50897E+03 1.07856E-02
 -1       252-9.85700E-03-1.28636E+03-6.56463E+05 1.43361E-02-3.04753E+04-1.47981E-04
 -1       253-6.12652E-02-1.46484E+03-6.94538E+05 7.78106E-01 9.25753E+02-1.88070E-03
 -1       254-1.64333E-02-1.62894E+03-3.71655E+03-3.01258E-01 1.82145E+03 1.81191E-01
 -1       255-1.50428E-02-2.62965E+03-3.51923E+03 4.24956E-03 3.50892E+03 6.25431E-03
 -1       256-9.66283E-03-1.28632E+03-6.56463E+05 1.45879E-02-3.04751E+04-8.25387E-03
 -1       257-3.87578E-02-1.56685E+03-3.49078E+05 2.59072E-01 1.43305E+03 9.26463E-02
 -1       258 7.08595E-03-2.06267E+03-3.52977E+03-4.90439E-03 2.66156E+03-2.34207E-03
 -1       259-1.24619E-02-1.96533E+03-3.29969E+05 6.55920E-03-1.34999E+04 5.23259E-03
 -1       260 6.20635E-03-1.29745E+03-6.75636E+05-2.30311E-03-1.46287E+04 1.59883E-03
 -1       261-1.80033E-02-1.65365E+03-3.29880E+03 8.95642E-03 2.99167E+03 2.21619E-02
 -1       262-6.70858E-03-5.19569E+03-6.16283E+05 3.51648E-02-5.50765E+04 3.33259E-03
 -1       263-1.79621E-02-1.65367E+03-3.29873E+03 4.37043E-03 2.99162E+03 1.30185E-02
 -1       264-6.65109E-03-5.19561E+03-6.16283E+05 3.54977E-02-5.50763E+04-7.27082E-03
 -1       265 8.13050E-03-2.07709E+03-3.41614E+03-4.16716E-03 3.24775E+03-8.23753E-03
 -1       266-1.22729E-02-3.42301E+03-3.09788E+05 1.68526E-02-2.60493E+04 1.31179E-02
 -1       267 3.59913E-03-3.16421E+03-6.36348E+05-1.20878E-02-4.28720E+04-9.81210E-04
 -1       268-2.19295E-02-1.23185E+03-3.14962E+03 1.32207E-02 3.04493E+03 3.26535E-02
 -1       269-6.49382E-03-9.99236E+03-5.74818E+05 5.97298E-02-7.53224E+04 3.92053E-03
 -1       270-2.19197E-02-1.23188E+03-3.14954E+03 6.58040E-03 3.04489E+03 1.80162E-02
 -1       271-6.46922E-03-9.99223E+03-5.74818E+05 5.96720E-02-7.53222E+04-8.66657E-03
 -1       272 9.96140E-03-1.41269E+03-3.24043E+03-5.34070E-03 3.00790E+03-1.37091E-02
 -1       273-1.40768E-02-5.61294E+03-2.88977E+05 3.01560E-02-3.61397E+04 1.92083E-02
 -1       274 2.89571E-03-7.57629E+03-5.95528E+05-2.32620E-02-6.52576E+04-1.88258E-03
 -1       275-2.58505E-02-7.23469E+02-2.99102E+03 2.21792E-02 2.93189E+03 4.15241E-02
 -1       276-7.81881E-03-1.55970E+04-5.32863E+05 9.02542E-02-9.07574E+04 1.94010E-03
 -1       277-2.59057E-02-7.23506E+02-2.99095E+03 1.15329E-02 2.93187E+03 2.05909E-02
 -1       278-7.85910E-03-1.55969E+04-5.32863E+05 8.93742E-02-9.07571E+04-1.27707E-02
 -1       279 1.20822E-02-9.69704E+02-3.09217E+03-8.66619E-03 2.97946E+03-1.86232E-02
 -1       280-1.66378E-02-8.16029E+03-2.67922E+05 4.79080E-02-4.39126E+04 2.34637E-02
 -1       281 3.23087E-03-1.27934E+04-5.53804E+05-3.67908E-02-8.30731E+04-1.51378E-03
 -1       282-2.81683E-02-2.93882E+02-2.84817E+03 3.67594E-02 2.85568E+03 4.68985E-02
 -1       283-9.38424E-03-2.12789E+04-4.91010E+05 1.29614E-01-1.01941E+05-3.31158E-03
 -1       284-2.83190E-02-2.93925E+02-2.84811E+03 2.00066E-02 2.85566E+03 1.93181E-02
 -1       285-9.50530E-03-2.12787E+04-4.91010E+05 1.27384E-01-1.01940E+05-2.04723E-02
 -1       286 1.39008E-02-5.13547E+02-2.93392E+03-1.45889E-02 2.88657E+03-2.23603E-02
 -1       287-1.84989E-02-1.07866E+04-2.46924E+05 7.19376E-02-4.95419E+04 2.47135E-02
 -1       288 4.04059E-03-1.84484E+04-5.11910E+05-5.39516E-02-9.63649E+04 2.26952E-04
 -1       289-2.62524E-02 1.03929E+02-2.70668E+03 5.79625E-02 2.76593E+03 4.53750E-02
 -1       290-9.28054E-03-2.66277E+04-4.49753E+05 1.81393E-01-1.09217E+05-1.38145E-02
 -1       291-2.65486E-02 1.03882E+02-2.70665E+03 3.29803E-02 2.76593E+03 1.18667E-02
 -1       292-9.53279E-03-2.66273E+04-4.49753E+05 1.77204E-01-1.09217E+05-3.34839E-02
 -1       293 1.44003E-02-1.06169E+02-2.78574E+03-2.36150E-02 2.80603E+03-2.36403E-02
 -1       294-1.73817E-02-1.32621E+04-2.26225E+05 1.04413E-01-5.32251E+04 2.04044E-02
 -1       295 4.56201E-03-2.39673E+04-4.70362E+05-7.63526E-02-1.05585E+05 3.96602E-03
 -1       296-1.59795E-02 4.61100E+02-2.57115E+03 8.67369E-02 2.67938E+03 3.15617E-02
 -1       297-4.32369E-03-3.12882E+04-4.09452E+05 2.49987E-01-1.13015E+05-3.33903E-02
 -1       298-1.64832E-02 4.61051E+02-2.57116E+03 5.17297E-02 2.67938E+03-5.14349E-03
 -1       299-4.78402E-03-3.12877E+04-4.09452E+05 2.43339E-01-1.13015E+05-5.46336E-02
 -1       300 1.19488E-02 2.68633E+02-2.64268E+03-3.62694E-02 2.71994E+03-2.03138E-02
 -1       301-9.62855E-03-1.54139E+04-2.06008E+05 1.47852E-01-5.51677E+04 6.07167E-03
 -1       302 3.61034E-03-2.89728E+04-4.29590E+05-1.05981E-01-1.11117E+05 1.10895E-02
 -1       303 8.81560E-03 7.83040E+02-2.44121E+03 1.23697E-01 2.59404E+03-2.42291E-03
 -1       304 1.09144E-02-3.50165E+04-3.70367E+05 3.40522E-01-1.13744E+05-6.85242E-02
 -1       305 8.03017E-03 7.82994E+02-2.44129E+03 7.79901E-02 2.59405E+03-3.62048E-02
 -1       306 1.01053E-02-3.50157E+04-3.70368E+05 3.31684E-01-1.13744E+05-8.82646E-02
 -1       307 4.02639E-03 6.07367E+02-2.50729E+03-5.30226E-02 2.63554E+03-9.11495E-03
 -1       308 1.05900E-02-1.71172E+04-1.86401E+05 2.04966E-01-5.55749E+04-2.53259E-02
 -1       309-8.66497E-04-3.31662E+04-3.89902E+05-1.45255E-01-1.13377E+05 2.40767E-02
 -1       310 5.67763E-02 1.07106E+03-2.31840E+03 1.69254E-01 2.51239E+03-6.73124E-02
 -1       311 4.56367E-02-3.76488E+04-3.32665E+05 4.59179E-01-1.11803E+05-1.29536E-01
 -1       312 5.56584E-02 1.07102E+03-2.31858E+03 1.14464E-01 2.51241E+03-8.68285E-02
 -1       313 4.43388E-02-3.76479E+04-3.32666E+05 4.49957E-01-1.11802E+05-1.40672E-01
 -1       314-1.30565E-02 9.12313E+02-2.37946E+03-7.40967E-02 2.55307E+03 1.45738E-02
 -1       315 5.21366E-02-1.82896E+04-1.67489E+05 2.78919E-01-5.46450E+04-8.41867E-02
 -1       316-1.23256E-02-3.63447E+04-3.51513E+05-1.96911E-01-1.12769E+05 4.69772E-02
 -1       317 1.39250E-01 1.32730E+03-2.20362E+03 2.22495E-01 2.43533E+03-1.76629E-01
 -1       318 1.14281E-01-3.90949E+04-2.96434E+05 6.11673E-01-1.07565E+05-2.32212E-01
 -1       319 1.37742E-01 1.32729E+03-2.20394E+03 1.65174E-01 2.43536E+03-1.62869E-01
 -1       320 1.12035E-01-3.90936E+04-2.96434E+05 6.08941E-01-1.07564E+05-2.20724E-01
 -1       321-4.43073E-02 1.18462E+03-2.25988E+03-9.98190E-02 2.47431E+03 5.68299E-02
 -1       322 1.28215E-01-1.88847E+04-1.49316E+05 3.72094E-01-5.25643E+04-1.85122E-01
 -1       323-3.66274E-02-3.83817E+04-3.14548E+05-2.64435E-01-1.09678E+05 8.61358E-02
 -1       324 2.69296E-01 1.55354E+03-2.09783E+03 2.85767E-01 2.36384E+03-3.45801E-01
 -1       325 2.40963E-01-3.93239E+04-2.61694E+05 8.08351E-01-1.01375E+05-3.99361E-01
 -1       326 2.67635E-01 1.55358E+03-2.09833E+03 2.38481E-01 2.36390E+03-2.69843E-01
 -1       327 2.38108E-01-3.93221E+04-2.61695E+05 8.22284E-01-1.01373E+05-3.39800E-01
 -1       328-9.61638E-02 1.42591E+03-2.14900E+03-1.29172E-01 2.40031E+03 1.24968E-01
 -1       329 2.56360E-01-1.88863E+04-1.31894E+05 4.90976E-01-4.95049E+04-3.47210E-01
 -1       330-8.25565E-02-3.92165E+04-2.79065E+05-3.50179E-01-1.04463E+05 1.50947E-01
 -1       331 4.60375E-01 1.75156E+03-2.00181E+03 3.50506E-01 2.29866E+03-5.88636E-01
 -1       332 4.56161E-01-3.83547E+04-2.28414E+05 1.04436E+00-9.35455E+04-6.65250E-01
 -1       333 4.58403E-01 1.75168E+03-2.00251E+03 3.43857E-01 2.29878E+03-4.08189E-01
 -1       334 4.49521E-01-3.83523E+04-2.28415E+05 1.11462E+00-9.35440E+04-5.13896E-01
 -1       335-1.75254E-01 1.63775E+03-2.04738E+03-1.65955E-01 2.33199E+03 2.26875E-01
 -1       336 4.62663E-01-1.83031E+04-1.15206E+05 6.29501E-01-4.56227E+04-5.95188E-01
 -1       337-1.65608E-01-3.88432E+04-2.45058E+05-4.62128E-01-9.74525E+04 2.55151E-01
 -1       338 7.17264E-01 1.92295E+03-1.91619E+03 4.58174E-01 2.24033E+03-9.14919E-01
 -1       339 8.25928E-01-3.62459E+04-1.96516E+05 1.37418E+00-8.43570E+04-1.06798E+00
 -1       340 7.17406E-01 1.92326E+03-1.91711E+03 5.18110E-01 2.24059E+03-5.78023E-01
 -1       341 8.25025E-01-3.62425E+04-1.96518E+05 1.50338E+00-8.43549E+04-7.55678E-01
 -1       342-2.88791E-01 1.82160E+03-1.95549E+03-1.98372E-01 2.27002E+03 3.67898E-01
 -1       343 7.67297E-01-1.71635E+04-9.92146E+04 8.36703E-01-4.10573E+04-9.52019E-01
 -1       344-3.01639E-01-3.73003E+04-2.12471E+05-5.88396E-01-8.89426E+04 4.18016E-01
 -1       345 1.03681E+00 2.06951E+03-1.84170E+03 4.91093E-01 2.18949E+03-1.30254E+00
 -1       346 1.36456E+00-3.30874E+04-1.65888E+05 1.63503E+00-7.40572E+04-1.69682E+00
 -1       347 1.03499E+00 2.07012E+03-1.84275E+03 7.51602E-01 2.19002E+03-7.36968E-01
 -1       348 1.33042E+00-3.30827E+04-1.65890E+05 2.08803E+00-7.40542E+04-1.10224E+00
 -1       349-4.33255E-01 1.97890E+03-1.87383E+03-2.81225E-01 2.21498E+03 5.52123E-01
 -1       350 1.23354E+00-1.55119E+04-8.38634E+04 9.74657E-01-3.59326E+04-1.45945E+00
 -1       351-5.39549E-01-3.46618E+04-1.81211E+05-7.93248E-01-7.91970E+04 6.62601E-01
 -1       352 1.35065E+00 2.19202E+03-1.77795E+03 9.85404E-01 2.14606E+03-1.75020E+00
 -1       353 2.38288E+00-2.89947E+04-1.36388E+05 2.49206E+00-6.28636E+04-2.49921E+00
 -1       354 1.36798E+00 2.19331E+03-1.77907E+03 1.30354E+00 2.14720E+03-9.26701E-01
 -1       355 2.45878E+00-2.89880E+04-1.36391E+05 2.74852E+00-6.28594E+04-1.50006E+00
 -1       356-6.13080E-01 2.11054E+03-1.80262E+03-2.42096E-01 2.16699E+03 7.50760E-01
 -1       357 1.76628E+00-1.34053E+04-6.90822E+04 1.65115E+00-3.03571E+04-2.06592E+00
 -1       358-8.53353E-01-3.10298E+04-1.51149E+05-8.60714E-01-6.84479E+04 1.03823E+00
 -1       359 1.60690E+00 2.29457E+03-1.72741E+03 1.63204E-01 2.11290E+03-1.94249E+00
 -1       360 3.22413E+00-2.40991E+04-1.07854E+05 1.54766E+00-5.09705E+04-4.09766E+00
 -1       361 1.58868E+00 2.29655E+03-1.72798E+03 1.58612E+00 2.11489E+03-7.30548E-01
 -1       362 2.86649E+00-2.40906E+04-1.07858E+05 4.33989E+00-5.09637E+04-2.22668E+00
 -1       363-7.39659E-01 2.21858E+03-1.74328E+03-7.99281E-01 2.12695E+03 9.95146E-01
 -1       364 2.82585E+00-1.09097E+04-5.47896E+04 7.65963E-01-2.44272E+04-3.03710E+00
 -1       365-1.55050E+00-2.65265E+04-1.22135E+05-1.63365E+00-5.69003E+04 1.50369E+00
 -1       366 1.37956E+00 2.36822E+03-1.67909E+03 5.09392E+00 2.08333E+03-2.43985E+00
 -1       367 6.98832E+00-1.85609E+04-8.01166E+04 7.93401E+00-3.85379E+04-4.42015E+00
 -1       368 1.51785E+00 2.37327E+03-1.67999E+03 4.43846E+00 2.08802E+03-1.28124E+00
 -1       369 8.23817E+00-1.85449E+04-8.01185E+04 4.27782E+00-3.85305E+04-2.26075E+00
 -1       370-9.06326E-01 2.29986E+03-1.69293E+03 5.66284E-01 2.09183E+03 9.17133E-01
 -1       371 2.68713E+00-8.10260E+03-4.08974E+04 6.54192E+00-1.82249E+04-3.19888E+00
 -1       372-1.78964E+00-2.12948E+04-9.39978E+04-2.75313E-02-4.47292E+04 2.49250E+00
 -1       373 6.88217E-01 2.45112E+03-1.66918E+03-9.76059E+00 2.08985E+03 3.44908E-01
 -1       374 3.00107E+00-1.25020E+04-5.29563E+04-1.21169E+01-2.57560E+04-1.23610E+01
 -1       375 4.43133E-01 2.45431E+03-1.66430E+03 2.58742E-01 2.09452E+03 2.49281E+00
 -1       376-1.81920E+00-1.24932E+04-5.29650E+04 1.33604E+01-2.57331E+04-5.38954E+00
 -1       377-3.78658E-01 2.37005E+03-1.66641E+03-5.84836E+00 2.07139E+03 1.51484E+00
 -1       378 7.54393E+00-5.05528E+03-2.73048E+04-1.11897E+01-1.18345E+04-6.88829E+00
 -1       379-5.04430E+00-1.54690E+04-6.65461E+04-7.67005E+00-3.21052E+04 2.35374E+00
 -1       380-2.15567E+00 2.40077E+03-1.54754E+03 5.23425E+01 2.02486E+03-5.21707E+00
 -1       381 3.21528E+01-6.24813E+03-2.62927E+04 6.79878E+01-1.26210E+04 7.01272E+00
 -1       382-1.24267E+00 2.42737E+03-1.55781E+03 2.67470E+01 2.04785E+03-7.51027E+00
 -1       383 5.00938E+01-6.18123E+03-2.62716E+04-7.57625E+00-1.26302E+04 2.78627E+00
 -1       384-6.99576E-01 2.37459E+03-1.61321E+03 1.56137E+01 2.02471E+03-2.05530E+00
 -1       385-6.34126E+00-1.89723E+03-1.39296E+04 6.17512E+01-5.28951E+03 4.07531E+00
 -1       386 1.01079E+00-9.26189E+03-3.96134E+04 1.85519E+01-1.91169E+04 8.42402E+00
 -1       387-1.07989E+01 2.37738E+03-1.80214E+03-2.23907E+02 1.97468E+03 5.00739E+01
 -1       388-1.79882E+02 1.67789E+03 4.58635E+02-3.04749E+02 7.48138E+02 5.71977E+01
 -1       389-1.23923E+01 2.23322E+03-1.75218E+03-1.42880E+02 1.84205E+03 4.20352E+01
 -1       390-2.47379E+02 1.21953E+03 4.52929E+02-5.02129E+01 6.38151E+02 3.60622E+01
 -1       391 4.30580E+00 2.52356E+03-1.73445E+03-6.91451E+01 2.09628E+03 7.60881E+00
 -1       392-1.48761E+01 2.06178E+03-6.20216E+02-2.75015E+02 1.31548E+03 2.95304E+01
 -1       393-2.98799E+01-2.62083E+03-1.28809E+04-8.23517E+01-6.08473E+03-9.53434E+00
 -1       394-2.90688E-01-1.79754E+03 7.01971E+05-5.32709E-01 2.73341E+03 3.86761E-01
 -1       395 3.84648E-02 1.18185E+03 6.63154E+05-4.27645E-02 3.10183E+04-7.34369E-03
 -1       396-2.90688E-01-1.79875E+03 7.01971E+05-1.13220E-08 2.73410E+03 1.57793E-07
 -1       397 3.72146E-02 1.18188E+03 6.63153E+05 3.36503E-08 3.10185E+04 2.92274E-07
 -1       398-1.53652E-01-1.69369E+03 3.49078E+05-7.94083E-02 2.21793E+03 1.01472E-01
 -1       399-2.23233E-02-2.53221E+02 6.82522E+05 1.67960E-02 1.67229E+04 1.43974E-02
 -1       400 1.16081E-02-7.16557E+02 3.29795E+05-3.07100E-02 1.72803E+04-9.15094E-03
 -1       401-2.90688E-01-1.79815E+03 7.01971E+05-5.78390E-01 2.73376E+03 4.18116E-01
 -1       402 3.78397E-02 1.18186E+03 6.63153E+05-3.16389E-02 3.10184E+04 1.37665E-02
 -1       403-1.53652E-01-1.69491E+03 3.49078E+05 2.29756E-09 2.21843E+03 7.61412E-08
 -1       404-2.29483E-02-2.53226E+02 6.82522E+05 1.19123E-08 1.67228E+04 2.18527E-07
 -1       405 1.10976E-02-7.16570E+02 3.29795E+05-1.53602E-09 1.72804E+04 1.27452E-07
 -1       406 3.24573E-02 4.53553E+03 6.22189E+05-6.26385E-02 5.67906E+04 3.64997E-02
 -1       407 3.16354E-02 4.53558E+03 6.22188E+05-1.17794E-08 5.67909E+04 2.79032E-07
 -1       408-1.61993E-02 2.90963E+03 6.42664E+05 2.59335E-02 4.39726E+04-7.21621E-03
 -1       409 7.14389E-03 1.43928E+03 3.09442E+05-4.10055E-02 2.98980E+04 7.53947E-03
 -1       410 3.20463E-02 4.53555E+03 6.22188E+05-5.14954E-02 5.67907E+04 4.61303E-02
 -1       411-1.72353E-02 2.90961E+03 6.42664E+05 2.70607E-08 4.39724E+04 2.82914E-07
 -1       412 6.77390E-03 1.43926E+03 3.09442E+05 1.17905E-08 2.98981E+04 1.24176E-07
 -1       413 3.81218E-02 9.77714E+03 5.80101E+05-8.66984E-02 7.69603E+04 8.65484E-02
 -1       414 3.71138E-02 9.77723E+03 5.80100E+05 3.66484E-08 7.69607E+04 3.13255E-07
 -1       415-1.61420E-02 7.19969E+03 6.01161E+05 3.67770E-02 6.69180E+04-2.98978E-02
 -1       416 7.96126E-03 4.27348E+03 2.88469E+05-5.62789E-02 4.00036E+04 2.78687E-02
 -1       417 3.76178E-02 9.77718E+03 5.80100E+05-7.48593E-02 7.69605E+04 8.48068E-02
 -1       418-1.70569E-02 7.19966E+03 6.01161E+05 7.02358E-08 6.69179E+04 2.83767E-07
 -1       419 7.46686E-03 4.27345E+03 2.88468E+05 1.33255E-08 4.00038E+04 1.41585E-07
 -1       420 5.62230E-02 1.55384E+04 5.37532E+05-1.16241E-01 9.25685E+04 1.51155E-01
 -1       421 5.50407E-02 1.55385E+04 5.37532E+05 1.17572E-07 9.25689E+04 2.89673E-07
 -1       422-2.17470E-02 1.26733E+04 5.58832E+05 5.00543E-02 8.47855E+04-5.77555E-02
 -1       423 1.49895E-02 7.40748E+03 2.67266E+05-7.75186E-02 4.77501E+04 5.65470E-02
 -1       424 5.56319E-02 1.55384E+04 5.37532E+05-1.03593E-01 9.25687E+04 1.34218E-01
 -1       425-2.28421E-02 1.26732E+04 5.58832E+05 1.61087E-07 8.47853E+04 2.94900E-07
 -1       426 1.43428E-02 7.40746E+03 2.67265E+05 2.97730E-09 4.77503E+04 1.48192E-07
 -1       427 8.99357E-02 2.14224E+04 4.95131E+05-1.52292E-01 1.03788E+05 2.39589E-01
 -1       428 8.84281E-02 2.14226E+04 4.95130E+05-2.62496E-07 1.03788E+05 3.32733E-07
 -1       429-3.41631E-02 1.84830E+04 5.16342E+05 6.63642E-02 9.81879E+04-9.50333E-02
 -1       430 3.06064E-02 1.05644E+04 2.46137E+05-1.05775E-01 5.33214E+04 9.92652E-02
 -1       431 8.91819E-02 2.14225E+04 4.95130E+05-1.39759E-01 1.03788E+05 1.99417E-01
 -1       432-3.55080E-02 1.84829E+04 5.16342E+05-2.20466E-07 9.81877E+04 3.17181E-07
 -1       433 2.97016E-02 1.05644E+04 2.46136E+05 8.60860E-08 5.33216E+04 1.29361E-07
 -1       434 1.44451E-01 2.69312E+04 4.53364E+05-1.95659E-01 1.11081E+05 3.62807E-01
 -1       435 1.42536E-01 2.69315E+04 4.53362E+05 1.04989E-07 1.11082E+05 2.58043E-07
 -1       436-5.54256E-02 2.41708E+04 4.74252E+05 8.61596E-02 1.07438E+05-1.46739E-01
 -1       437 5.87148E-02 1.35178E+04 2.25325E+05-1.42076E-01 5.69231E+04 1.63340E-01
 -1       438 1.43494E-01 2.69314E+04 4.53363E+05-1.85950E-01 1.11081E+05 2.86005E-01
 -1       439-5.71370E-02 2.41707E+04 4.74253E+05 6.36331E-08 1.07438E+05 2.69400E-07
 -1       440 5.74607E-02 1.35178E+04 2.25324E+05 5.05269E-08 5.69235E+04 1.58652E-07
 -1       441 2.27152E-01 3.17338E+04 4.12601E+05-2.47174E-01 1.14857E+05 5.33648E-01
 -1       442 2.24778E-01 3.17342E+04 4.12599E+05-9.31857E-08 1.14858E+05 3.24675E-07
 -1       443-8.87069E-02 2.93226E+04 4.32983E+05 1.09843E-01 1.12970E+05-2.18773E-01
 -1       444 1.05063E-01 1.60978E+04 2.05011E+05-1.87465E-01 5.87679E+04 2.58029E-01
 -1       445 2.25965E-01 3.17340E+04 4.12600E+05-2.45779E-01 1.14857E+05 3.99842E-01
 -1       446-9.08518E-02 2.93224E+04 4.32984E+05 6.78468E-08 1.12970E+05 2.53301E-07
 -1       447 1.03372E-01 1.60978E+04 2.05010E+05-4.62113E-08 5.87684E+04 1.64093E-07
 -1       448 3.47342E-01 3.55810E+04 3.73100E+05-3.07947E-01 1.15540E+05 7.66590E-01
 -1       449 3.44631E-01 3.55816E+04 3.73097E+05-8.32024E-07 1.15541E+05 3.71360E-07
 -1       450-1.38244E-01 3.36458E+04 3.92848E+05 1.37922E-01 1.15200E+05-3.17955E-01
 -1       451 1.77354E-01 1.81825E+04 1.85326E+05-2.42967E-01 5.90670E+04 3.94655E-01
 -1       452 3.45987E-01 3.55813E+04 3.73099E+05-3.24696E-01 1.15541E+05 5.46283E-01
 -1       453-1.40787E-01 3.36456E+04 3.92850E+05-5.26270E-07 1.15199E+05 3.38179E-07
 -1       454 1.75213E-01 1.81826E+04 1.85324E+05-1.73341E-07 5.90676E+04 1.11602E-07
 -1       455 5.15169E-01 3.83124E+04 3.35028E+05-3.80595E-01 1.13535E+05 1.07628E+00
 -1       456 5.12330E-01 3.83134E+04 3.35024E+05 8.15807E-07 1.13537E+05 2.11858E-07
 -1       457-2.09142E-01 3.69350E+04 3.54059E+05 1.71142E-01 1.14539E+05-4.51726E-01
 -1       458 2.85042E-01 1.96924E+04 1.66351E+05-3.10222E-01 5.80236E+04 5.86035E-01
 -1       459 5.13749E-01 3.83129E+04 3.35026E+05-4.31189E-01 1.13536E+05 7.28549E-01
 -1       460-2.11917E-01 3.69346E+04 3.54061E+05-2.18760E-07 1.14539E+05 2.91438E-07
 -1       461 2.82505E-01 1.96926E+04 1.66349E+05 4.96862E-07 5.80244E+04 1.37797E-07
 -1       462 7.39345E-01 3.98389E+04 2.98470E+05-4.69609E-01 1.09223E+05 1.47473E+00
 -1       463 7.37720E-01 3.98403E+04 2.98465E+05-8.16858E-07 1.09224E+05 3.03920E-07
 -1       464-3.06466E-01 3.90644E+04 3.16742E+05 2.11624E-01 1.11382E+05-6.26864E-01
 -1       465 4.37848E-01 2.05840E+04 1.48130E+05-3.91040E-01 5.58286E+04 8.44980E-01
 -1       466 7.38533E-01 3.98396E+04 2.98467E+05-5.79426E-01 1.09223E+05 9.44963E-01
 -1       467-3.08697E-01 3.90639E+04 3.16744E+05 1.77593E-07 1.11381E+05 2.20669E-07
 -1       468 4.35528E-01 2.05843E+04 1.48127E+05-9.38060E-07 5.58296E+04 1.61226E-07
 -1       469 1.02058E+00 4.01316E+04 2.63446E+05-5.90034E-01 1.02952E+05 1.96310E+00
 -1       470 1.02002E+00 4.01336E+04 2.63441E+05 3.26107E-08 1.02954E+05 1.04003E-08
 -1       471-4.33920E-01 3.99750E+04 2.80950E+05 2.62136E-01 1.06092E+05-8.48028E-01
 -1       472 6.43706E-01 2.08437E+04 1.30672E+05-4.93983E-01 5.26574E+04 1.17982E+00
 -1       473 1.02030E+00 4.01326E+04 2.63444E+05-7.91239E-01 1.02953E+05 1.18325E+00
 -1       474-4.35012E-01 3.99741E+04 2.80952E+05-3.24268E-07 1.06091E+05 2.53598E-07
 -1       475 6.41766E-01 2.08443E+04 1.30669E+05 2.93980E-07 5.26588E+04-1.39547E-07
 -1       476 1.34509E+00 3.92113E+04 2.29923E+05-7.54237E-01 9.50408E+04 2.52575E+00
 -1       477 1.35570E+00 3.92143E+04 2.29917E+05-8.66980E-08 9.50441E+04 1.60667E-07
 -1       478-5.88255E-01 3.96624E+04 2.46674E+05 3.35738E-01 9.90036E+04-1.11023E+00
 -1       479 8.98340E-01 2.04829E+04 1.13958E+05-6.20305E-01 4.86690E+04 1.58895E+00
 -1       480 1.35040E+00 3.92128E+04 2.29920E+05-1.10792E+00 9.50425E+04 1.41506E+00
 -1       481-5.83232E-01 3.96612E+04 2.46677E+05-5.16806E-07 9.90022E+04 2.18195E-07
 -1       482 9.01672E-01 2.04840E+04 1.13955E+05 2.49042E-07 4.86710E+04-1.28927E-08
 -1       483 1.64930E+00 3.71386E+04 1.97819E+05-1.05594E+00 8.57717E+04 3.08679E+00
 -1       484 1.65158E+00 3.71429E+04 1.97812E+05-9.68363E-07 8.57768E+04 4.38756E-07
 -1       485-7.59430E-01 3.81676E+04 2.13857E+05 4.32391E-01 9.04169E+04-1.40257E+00
 -1       486 1.18758E+00 1.95328E+04 9.79495E+04-8.36528E-01 4.40050E+04 2.04028E+00
 -1       487 1.65044E+00 3.71408E+04 1.97815E+05-1.57723E+00 8.57742E+04 1.57241E+00
 -1       488-7.52982E-01 3.81658E+04 2.13860E+05 6.37468E-07 9.04148E+04-3.08241E-08
 -1       489 1.18886E+00 1.95345E+04 9.79455E+04-2.85441E-07 4.40080E+04 1.51976E-07
 -1       490 1.84785E+00 3.40045E+04 1.67018E+05-1.41556E+00 7.53947E+04 3.55780E+00
 -1       491 1.94415E+00 3.40113E+04 1.67013E+05 7.09235E-07 7.54025E+04-8.65568E-07
 -1       492-8.90620E-01 3.55664E+04 1.82401E+05 6.48994E-01 8.05990E+04-1.65212E+00
 -1       493 1.40947E+00 1.80399E+04 8.25871E+04-1.04173E+00 3.87908E+04 2.47040E+00
 -1       494 1.89600E+00 3.40079E+04 1.67016E+05-2.34897E+00 7.53986E+04 1.57082E+00
 -1       495-8.41330E-01 3.55638E+04 1.82404E+05-7.75897E-07 8.05959E+04 9.92754E-08
 -1       496 1.45580E+00 1.80429E+04 8.25833E+04-2.50562E-07 3.87954E+04-1.40382E-07
 -1       497 1.53871E+00 2.99275E+04 1.37378E+05-2.62815E+00 6.41295E+04 3.48195E+00
 -1       498 1.40646E+00 2.99364E+04 1.37375E+05-2.51655E-06 6.41417E+04 2.59676E-07
 -1       499-9.62258E-01 3.19639E+04 1.52177E+05 8.05704E-01 6.97857E+04-1.85964E+00
 -1       500 1.54517E+00 1.60637E+04 6.77991E+04-1.89436E+00 3.31362E+04 2.67486E+00
 -1       501 1.47259E+00 2.99319E+04 1.37376E+05-3.39377E+00 6.41356E+04 1.11654E+00
 -1       502-9.80217E-01 3.19596E+04 1.52180E+05 2.30273E-08 6.97809E+04-9.84231E-08
 -1       503 1.49637E+00 1.60681E+04 6.77964E+04-8.66846E-07 3.31437E+04 1.42669E-07
 -1       504 8.39862E-01 2.50321E+04 1.08735E+05-2.61114E+00 5.21658E+04 3.03071E+00
 -1       505 1.74131E+00 2.50503E+04 1.08735E+05 1.23353E-07 5.21847E+04 2.27773E-07
 -1       506-5.51309E-01 2.74825E+04 1.23033E+05 1.90224E+00 5.81832E+04-1.48774E+00
 -1       507 8.13047E-01 1.36708E+04 5.35025E+04-1.47664E+00 2.71377E+04 2.46957E+00
 -1       508 1.29059E+00 2.50412E+04 1.08735E+05-5.65082E+00 5.21753E+04 3.09592E-01
 -1       509-1.66772E-01 2.74777E+04 1.23033E+05-1.65811E-06 5.81755E+04-4.85301E-08
 -1       510 1.24557E+00 1.36796E+04 5.35025E+04-5.82589E-09 2.71493E+04 1.21391E-08
 -1       511-3.36135E+00 1.95010E+04 8.08917E+04-1.06150E+01 3.96786E+04-1.01297E+00
 -1       512-5.89245E+00 1.95105E+04 8.09042E+04-3.51705E-07 3.97077E+04 1.98943E-07
 -1       513-3.36937E-01 2.22755E+04 9.47903E+04 7.81031E-01 4.59755E+04-1.51704E+00
 -1       514 5.05917E-01 1.09409E+04 3.96059E+04-7.82653E+00 2.08785E+04 9.44561E-01
 -1       515-4.62690E+00 1.95058E+04 8.08980E+04-6.92881E+00 3.96931E+04-2.87844E+00
 -1       516-1.15154E+00 2.22624E+04 9.47888E+04-8.68332E-07 4.59640E+04 5.82755E-07
 -1       517-6.21373E-01 1.09492E+04 3.96108E+04 1.36467E-06 2.08988E+04-2.46963E-09
 -1       518-3.55426E+00 1.33593E+04 5.37068E+04 5.29561E+00 2.67891E+04-1.60684E+00
 -1       519 6.92227E+00 1.34404E+04 5.37162E+04 2.09256E-07 2.68352E+04 6.12596E-07
 -1       520 4.01090E+00 1.64525E+04 6.72876E+04 1.01508E+01 3.33135E+04 3.30163E+00
 -1       521-7.13231E+00 7.93507E+03 2.60108E+04 7.27711E+00 1.44409E+04-1.85611E+00
 -1       522 1.68401E+00 1.33998E+04 5.37115E+04-1.73271E+01 2.68122E+04-3.15974E+00
 -1       523 7.98280E+00 1.64548E+04 6.72765E+04-3.69959E-07 3.32947E+04 1.80841E-09
 -1       524-2.13906E+00 7.97124E+03 2.60243E+04-5.57197E-07 1.44659E+04 4.11134E-07
 -1       525-3.68364E+01 7.26053E+03 2.67569E+04-7.74165E+01 1.37342E+04-3.05832E+01
 -1       526-7.26807E+01 7.13110E+03 2.68473E+04-5.14868E-06 1.37961E+04-3.71615E-07
 -1       527-1.29753E+00 1.03386E+04 4.02501E+04-1.57057E+01 2.03761E+04-3.21970E+00
 -1       528 1.84379E+00 4.80421E+03 1.26142E+04-6.32935E+01 7.87098E+03-9.50560E+00
 -1       529-5.47585E+01 7.19582E+03 2.68021E+04-2.23083E+00 1.37651E+04-2.43249E+01
 -1       530-1.39785E+01 1.02596E+04 4.02485E+04-3.11648E-06 2.03504E+04 1.47386E-07
 -1       531-1.51654E+01 4.77640E+03 1.26383E+04-4.56689E-07 7.93570E+03-5.07919E-08
 -1       532 1.45163E+02 1.24166E+01 5.76395E+02 3.80094E+02 1.27142E+03 8.09975E+01
 -1       533 2.78082E+02 1.63612E+02 2.98238E+02 3.05524E-06 6.33092E+02 6.22171E-07
 -1       534 4.18722E+01 3.49122E+03 1.37937E+04 9.54019E+01 7.15881E+03 4.15887E+01
 -1       535-1.32824E+01 1.16076E+03-6.64406E+02 2.91313E+02 1.66899E+03-8.64370E+00
 -1       536 2.11623E+02 8.80144E+01 4.37317E+02 1.21471E+02 9.52257E+02 9.53171E+01
 -1       537 9.04072E+01 3.68195E+03 1.37124E+04-2.77734E-08 7.11300E+03 1.42919E-07
 -1       538 5.15838E+01 1.09616E+03-7.06619E+02-9.72290E-07 1.17577E+03 1.07055E-07
 -1       539-2.90688E-01-1.79754E+03 7.01971E+05 5.32709E-01 2.73341E+03-3.86761E-01
 -1       540 3.84648E-02 1.18185E+03 6.63154E+05 4.27645E-02 3.10183E+04 7.34384E-03
 -1       541-2.90688E-01-1.79815E+03 7.01971E+05 5.78390E-01 2.73376E+03-4.18116E-01
 -1       542 3.78397E-02 1.18186E+03 6.63153E+05 3.16390E-02 3.10184E+04-1.37661E-02
 -1       543-1.53652E-01-1.69369E+03 3.49078E+05 7.94083E-02 2.21793E+03-1.01472E-01
 -1       544-2.23233E-02-2.53221E+02 6.82522E+05-1.67960E-02 1.67229E+04-1.43972E-02
 -1       545 1.16081E-02-7.16557E+02 3.29795E+05 3.07100E-02 1.72803E+04 9.15098E-03
 -1       546 3.24573E-02 4.53553E+03 6.22189E+05 6.26385E-02 5.67906E+04-3.64994E-02
 -1       547 3.20463E-02 4.53555E+03 6.22188E+05 5.14954E-02 5.67907E+04-4.61299E-02
 -1       548-1.61993E-02 2.90963E+03 6.42664E+05-2.59335E-02 4.39726E+04 7.21642E-03
 -1       549 7.14389E-03 1.43928E+03 3.09442E+05 4.10055E-02 2.98980E+04-7.53936E-03
 -1       550 3.81217E-02 9.77714E+03 5.80101E+05 8.66986E-02 7.69603E+04-8.65481E-02
 -1       551 3.76178E-02 9.77718E+03 5.80100E+05 7.48594E-02 7.69605E+04-8.48064E-02
 -1       552-1.61420E-02 7.19969E+03 6.01161E+05-3.67769E-02 6.69180E+04 2.98981E-02
 -1       553 7.96125E-03 4.27348E+03 2.88469E+05 5.62789E-02 4.00036E+04-2.78686E-02
 -1       554 5.62230E-02 1.55384E+04 5.37532E+05 1.16241E-01 9.25685E+04-1.51155E-01
 -1       555 5.56318E-02 1.55384E+04 5.37532E+05 1.03593E-01 9.25687E+04-1.34217E-01
 -1       556-2.17470E-02 1.26733E+04 5.58832E+05-5.00543E-02 8.47855E+04 5.77558E-02
 -1       557 1.49895E-02 7.40748E+03 2.67266E+05 7.75187E-02 4.77501E+04-5.65468E-02
 -1       558 8.99357E-02 2.14224E+04 4.95131E+05 1.52292E-01 1.03788E+05-2.39588E-01
 -1       559 8.91820E-02 2.14225E+04 4.95130E+05 1.39759E-01 1.03788E+05-1.99416E-01
 -1       560-3.41631E-02 1.84830E+04 5.16342E+05-6.63639E-02 9.81879E+04 9.50337E-02
 -1       561 3.06064E-02 1.05644E+04 2.46137E+05 1.05775E-01 5.33214E+04-9.92650E-02
 -1       562 1.44451E-01 2.69312E+04 4.53364E+05 1.95660E-01 1.11081E+05-3.62807E-01
 -1       563 1.43494E-01 2.69314E+04 4.53363E+05 1.85951E-01 1.11081E+05-2.86005E-01
 -1       564-5.54256E-02 2.41708E+04 4.74252E+05-8.61590E-02 1.07438E+05 1.46740E-01
 -1       565 5.87148E-02 1.35178E+04 2.25325E+05 1.42076E-01 5.69231E+04-1.63340E-01
 -1       566 2.27152E-01 3.17338E+04 4.12601E+05 2.47176E-01 1.14857E+05-5.33648E-01
 -1       567 2.25965E-01 3.17340E+04 4.12600E+05 2.45779E-01 1.14857E+05-3.99842E-01
 -1       568-8.87069E-02 2.93226E+04 4.32983E+05-1.09843E-01 1.12970E+05 2.18773E-01
 -1       569 1.05063E-01 1.60978E+04 2.05011E+05 1.87466E-01 5.87679E+04-2.58029E-01
 -1       570 3.47342E-01 3.55810E+04 3.73100E+05 3.07949E-01 1.15540E+05-7.66590E-01
 -1       571 3.45987E-01 3.55813E+04 3.73099E+05 3.24696E-01 1.15541E+05-5.46283E-01
 -1       572-1.38244E-01 3.36458E+04 3.92848E+05-1.37921E-01 1.15200E+05 3.17955E-01
 -1       573 1.77354E-01 1.81825E+04 1.85326E+05 2.42966E-01 5.90670E+04-3.94654E-01
 -1       574 5.15169E-01 3.83124E+04 3.35028E+05 3.80595E-01 1.13535E+05-1.07628E+00
 -1       575 5.13750E-01 3.83129E+04 3.35026E+05 4.31190E-01 1.13536E+05-7.28549E-01
 -1       576-2.09142E-01 3.69350E+04 3.54059E+05-1.71141E-01 1.14539E+05 4.51726E-01
 -1       577 2.85042E-01 1.96924E+04 1.66351E+05 3.10223E-01 5.80236E+04-5.86035E-01
 -1       578 7.39345E-01 3.98389E+04 2.98470E+05 4.69607E-01 1.09223E+05-1.47473E+00
 -1       579 7.38532E-01 3.98396E+04 2.98467E+05 5.79424E-01 1.09223E+05-9.44963E-01
 -1       580-3.06466E-01 3.90644E+04 3.16742E+05-2.11624E-01 1.11382E+05 6.26864E-01
 -1       581 4.37849E-01 2.05840E+04 1.48130E+05 3.91041E-01 5.58286E+04-8.44980E-01
 -1       582 1.02058E+00 4.01316E+04 2.63446E+05 5.90035E-01 1.02952E+05-1.96310E+00
 -1       583 1.02030E+00 4.01326E+04 2.63444E+05 7.91240E-01 1.02953E+05-1.18325E+00
 -1       584-4.33920E-01 3.99750E+04 2.80950E+05-2.62136E-01 1.06092E+05 8.48029E-01
 -1       585 6.43706E-01 2.08437E+04 1.30672E+05 4.93984E-01 5.26574E+04-1.17982E+00
 -1       586 1.34509E+00 3.92113E+04 2.29923E+05 7.54235E-01 9.50408E+04-2.52575E+00
 -1       587 1.35040E+00 3.92128E+04 2.29920E+05 1.10792E+00 9.50425E+04-1.41506E+00
 -1       588-5.88255E-01 3.96624E+04 2.46674E+05-3.35737E-01 9.90036E+04 1.11023E+00
 -1       589 8.98340E-01 2.04829E+04 1.13958E+05 6.20303E-01 4.86690E+04-1.58895E+00
 -1       590 1.64930E+00 3.71386E+04 1.97819E+05 1.05594E+00 8.57717E+04-3.08679E+00
 -1       591 1.65044E+00 3.71408E+04 1.97815E+05 1.57723E+00 8.57742E+04-1.57241E+00
 -1       592-7.59430E-01 3.81676E+04 2.13857E+05-4.32392E-01 9.04169E+04 1.40257E+00
 -1       593 1.18758E+00 1.95328E+04 9.79495E+04 8.36529E-01 4.40050E+04-2.04028E+00
 -1       594 1.84785E+00 3.40045E+04 1.67018E+05 1.41556E+00 7.53947E+04-3.55780E+00
 -1       595 1.89600E+00 3.40079E+04 1.67016E+05 2.34898E+00 7.53986E+04-1.57082E+00
 -1       596-8.90620E-01 3.55664E+04 1.82401E+05-6.48998E-01 8.05990E+04 1.65213E+00
 -1       597 1.40947E+00 1.80399E+04 8.25871E+04 1.04173E+00 3.87908E+04-2.47040E+00
 -1       598 1.53871E+00 2.99275E+04 1.37378E+05 2.62816E+00 6.41295E+04-3.48195E+00
 -1       599 1.47259E+00 2.99319E+04 1.37376E+05 3.39377E+00 6.41356E+04-1.11654E+00
 -1       600-9.62258E-01 3.19639E+04 1.52177E+05-8.05700E-01 6.97857E+04 1.85964E+00
 -1       601 1.54517E+00 1.60637E+04 6.77991E+04 1.89436E+00 3.31362E+04-2.67486E+00
 -1       602 8.39861E-01 2.50321E+04 1.08735E+05 2.61114E+00 5.21658E+04-3.03071E+00
 -1       603 1.29059E+00 2.50412E+04 1.08735E+05 5.65082E+00 5.21753E+04-3.09591E-01
 -1       604-5.51309E-01 2.74825E+04 1.23033E+05-1.90224E+00 5.81832E+04 1.48774E+00
 -1       605 8.13047E-01 1.36708E+04 5.35025E+04 1.47664E+00 2.71377E+04-2.46957E+00
 -1       606-3.36135E+00 1.95010E+04 8.08917E+04 1.06151E+01 3.96786E+04 1.01297E+00
 -1       607-4.62690E+00 1.95058E+04 8.08980E+04 6.92881E+00 3.96931E+04 2.87844E+00
 -1       608-3.36938E-01 2.22755E+04 9.47903E+04-7.81029E-01 4.59755E+04 1.51704E+00
 -1       609 5.05917E-01 1.09409E+04 3.96059E+04 7.82654E+00 2.08785E+04-9.44560E-01
 -1       610-3.55426E+00 1.33593E+04 5.37068E+04-5.29561E+00 2.67891E+04 1.60684E+00
 -1       611 1.68401E+00 1.33998E+04 5.37115E+04 1.73271E+01 2.68122E+04 3.15974E+00
 -1       612 4.01090E+00 1.64525E+04 6.72876E+04-1.01508E+01 3.33135E+04-3.30163E+00
 -1       613-7.13231E+00 7.93507E+03 2.60108E+04-7.27711E+00 1.44409E+04 1.85611E+00
 -1       614-3.68364E+01 7.26053E+03 2.67569E+04 7.74165E+01 1.37342E+04 3.05832E+01
 -1       615-5.47585E+01 7.19582E+03 2.68021E+04 2.23083E+00 1.37651E+04 2.43249E+01
 -1       616-1.29753E+00 1.03386E+04 4.02501E+04 1.57057E+01 2.03761E+04 3.21970E+00
 -1       617 1.84379E+00 4.80421E+03 1.26142E+04 6.32935E+01 7.87098E+03 9.50560E+00
 -1       618 1.45163E+02 1.24166E+01 5.76395E+02-3.80094E+02 1.27142E+03-8.09975E+01
 -1       619 2.11623E+02 8.80144E+01 4.37317E+02-1.21471E+02 9.52257E+02-9.53171E+01
 -1       620 4.18722E+01 3.49122E+03 1.37937E+04-9.54019E+01 7.15881E+03-4.15887E+01
 -1       621-1.32824E+01 1.16076E+03-6.64406E+02-2.91313E+02 1.66899E+03 8.64370E+00
 -3
    1PSTEP                         5           3           1          
  100CL  103 1.50000E-01         621                     0    3           1
 -4  DISP        4    1
 -5  D1          1    2    1    0
 -5  D2          1    2    2    0
 -5  D3          1    2    3    0
 -5  ALL         1    2    0    0    1ALL
 -1         1 0.00000E+00 0.00000E+00 0.00000E+00
 -1         2 0.00000E+00 0.00000E+00 0.00000E+00
 -1         3 5.72436E-11 1.64544E-02-3.81579E-04
 -1         4 1.39753E-10 1.62968E-02-5.19038E-03
 -1         5 0.00000E+00 0.00000E+00 0.00000E+00
 -1         6 0.00000E+00 0.00000E+00 0.00000E+00
 -1         7-1.03307E-13 1.64544E-02-3.81580E-04
 -1         8-7.64823E-14 1.62968E-02-5.19038E-03
 -1         9 0.00000E+00 0.00000E+00 0.00000E+00
 -1        10-3.69917E-12 4.16082E-03-5.76127E-05
 -1        11 9.86533E-11 1.63751E-02-2.78499E-03
 -1        12-3.32250E-11 4.11740E-03-2.49721E-03
 -1        13 0.00000E+00 0.00000E+00 0.00000E+00
 -1        14 0.00000E+00 0.00000E+00 0.00000E+00
 -1        15 2.85996E-11 1.64544E-02-3.81580E-04
 -1        16 6.98498E-11 1.62968E-02-5.19038E-03
 -1        17 0.00000E+00 0.00000E+00 0.00000E+00
 -1        18-2.58362E-14 4.16082E-03-5.76125E-05
 -1        19-8.98912E-14 1.63751E-02-2.78499E-03
 -1        20-1.33007E-14 4.11740E-03-2.49721E-03
 -1        21 2.04428E-10 6.44457E-02-2.78815E-03
 -1        22 2.87079E-10 6.38540E-02-1.21089E-02
 -1        23-4.12190E-13 6.44457E-02-2.78815E-03
 -1        24-3.56838E-13 6.38540E-02-1.21089E-02
 -1        25-5.35992E-11 3.66342E-02-1.21769E-03
 -1        26 2.45954E-10 6.41496E-02-7.44780E-03
 -1        27-1.07072E-10 3.62898E-02-8.31913E-03
 -1        28 1.02018E-10 6.44457E-02-2.78815E-03
 -1        29 1.43358E-10 6.38540E-02-1.21089E-02
 -1        30-2.32237E-13 3.66342E-02-1.21769E-03
 -1        31-3.84482E-13 6.41496E-02-7.44780E-03
 -1        32-1.91004E-13 3.62898E-02-8.31913E-03
 -1        33 4.58374E-10 1.41936E-01-8.91564E-03
 -1        34 4.31780E-10 1.40685E-01-2.24429E-02
 -1        35-9.23949E-13 1.41936E-01-8.91564E-03
 -1        36-8.40906E-13 1.40685E-01-2.24429E-02
 -1        37-1.51877E-10 9.96330E-02-5.29448E-03
 -1        38 4.45376E-10 1.41310E-01-1.56785E-02
 -1        39-1.81747E-10 9.87369E-02-1.67562E-02
 -1        40 2.28728E-10 1.41936E-01-8.91564E-03
 -1        41 2.15457E-10 1.40685E-01-2.24429E-02
 -1        42-6.43005E-13 9.96330E-02-5.29448E-03
 -1        43-8.82474E-13 1.41310E-01-1.56785E-02
 -1        44-5.73782E-13 9.87369E-02-1.67562E-02
 -1        45 8.42246E-10 2.46840E-01-2.01197E-02
 -1        46 5.66244E-10 2.44754E-01-3.75436E-02
 -1        47-1.63501E-12 2.46840E-01-2.01197E-02
 -1        48-1.52480E-12 2.44754E-01-3.75436E-02
 -1        49-3.09176E-10 1.91092E-01-1.38110E-02
 -1        50 7.04665E-10 2.45797E-01-2.88309E-02
 -1        51-2.53650E-10 1.89444E-01-2.93249E-02
 -1        52 4.20291E-10 2.46840E-01-2.01197E-02
 -1        53 2.82331E-10 2.44754E-01-3.75436E-02
 -1        54-1.25498E-12 1.91092E-01-1.38110E-02
 -1        55-1.57985E-12 2.45797E-01-2.88309E-02
 -1        56-1.15829E-12 1.89444E-01-2.93249E-02
 -1        57 1.37927E-09 3.77061E-01-3.74404E-02
 -1        58 6.78492E-10 3.74010E-01-5.84519E-02
 -1        59-2.54033E-12 3.77061E-01-3.74404E-02
 -1        60-2.40373E-12 3.74010E-01-5.84519E-02
 -1        61-5.38042E-10 3.08916E-01-2.79620E-02
 -1        62 1.02947E-09 3.75536E-01-4.79454E-02
 -1        63-3.18833E-10 3.06362E-01-4.72178E-02
 -1        64 6.88328E-10 3.77061E-01-3.74404E-02
 -1        65 3.37994E-10 3.74010E-01-5.84519E-02
 -1        66-2.06393E-12 3.08916E-01-2.79620E-02
 -1        67-2.47192E-12 3.75536E-01-4.79454E-02
 -1        68-1.94031E-12 3.06362E-01-4.72178E-02
 -1        69 2.08296E-09 5.30524E-01-6.16296E-02
 -1        70 7.42855E-10 5.26415E-01-8.59245E-02
 -1        71-3.63473E-12 5.30524E-01-6.16296E-02
 -1        72-3.47332E-12 5.26415E-01-8.59245E-02
 -1        73-8.49196E-10 4.51016E-01-4.86398E-02
 -1        74 1.41371E-09 5.28470E-01-7.37763E-02
 -1        75-3.69340E-10 4.47445E-01-7.13305E-02
 -1        76 1.03959E-09 5.30524E-01-6.16296E-02
 -1        77 3.69606E-10 5.26415E-01-8.59245E-02
 -1        78-3.06425E-12 4.51016E-01-4.86398E-02
 -1        79-3.55395E-12 5.28470E-01-7.37763E-02
 -1        80-2.91487E-12 4.47445E-01-7.13305E-02
 -1        81 2.94123E-09 7.05196E-01-9.31793E-02
 -1        82 7.05361E-10 6.99974E-01-1.20461E-01
 -1        83-4.91295E-12 7.05196E-01-9.31793E-02
 -1        84-4.72633E-12 6.99974E-01-1.20461E-01
 -1        85-1.24547E-09 6.15334E-01-7.64628E-02
 -1        86 1.82439E-09 7.02585E-01-1.06820E-01
 -1        87-3.87566E-10 6.10674E-01-1.02288E-01
 -1        88 1.46803E-09 7.05196E-01-9.31793E-02
 -1        89 3.50180E-10 6.99974E-01-1.20461E-01
 -1        90-4.25174E-12 6.15334E-01-7.64628E-02
 -1        91-4.81946E-12 7.02585E-01-1.06820E-01
 -1        92-4.07805E-12 6.10674E-01-1.02288E-01
 -1        93 3.89157E-09 8.99104E-01-1.32350E-01
 -1        94 4.60173E-10 8.92747E-01-1.62333E-01
 -1        95-6.36672E-12 8.99104E-01-1.32350E-01
 -1        96-6.15797E-12 8.92747E-01-1.62333E-01
 -1        97-1.71201E-09 7.99866E-01-1.11804E-01
 -1        98 2.17738E-09 8.95926E-01-1.47341E-01
 -1        99-3.37283E-10 7.94078E-01-1.40472E-01
 -1       100 1.94240E-09 8.99104E-01-1.32350E-01
 -1       101 2.26790E-10 8.92747E-01-1.62333E-01
 -1       102-5.61823E-12 7.99866E-01-1.11804E-01
 -1       103-6.26222E-12 8.95926E-01-1.47341E-01
 -1       104-5.42073E-12 7.94078E-01-1.40472E-01
 -1       105 4.78392E-09 1.11035E+00-1.79198E-01
 -1       106-1.87197E-10 1.10286E+00-2.11608E-01
 -1       107-7.99079E-12 1.11035E+00-1.79198E-01
 -1       108-7.76022E-12 1.10286E+00-2.11608E-01
 -1       109-2.20120E-09 1.00268E+00-1.54818E-01
 -1       110 2.30031E-09 1.10661E+00-1.95402E-01
 -1       111-1.49078E-10 9.95752E-01-1.86048E-01
 -1       112 2.38768E-09 1.11035E+00-1.79198E-01
 -1       113-9.78024E-11 1.10286E+00-2.11608E-01
 -1       114-7.15828E-12 1.00268E+00-1.54818E-01
 -1       115-7.87581E-12 1.10661E+00-1.95402E-01
 -1       116-6.93927E-12 9.95752E-01-1.86048E-01
 -1       117 5.32859E-09 1.33712E+00-2.33603E-01
 -1       118-1.57793E-09 1.32853E+00-2.68176E-01
 -1       119-9.77579E-12 1.33712E+00-2.33603E-01
 -1       120-9.52537E-12 1.32853E+00-2.68176E-01
 -1       121-2.61059E-09 1.22190E+00-2.05470E-01
 -1       122 1.87832E-09 1.33282E+00-2.50889E-01
 -1       123 3.01881E-10 1.21386E+00-2.38993E-01
 -1       124 2.65903E-09 1.33712E+00-2.33603E-01
 -1       125-7.94226E-10 1.32853E+00-2.68176E-01
 -1       126-8.86322E-12 1.22190E+00-2.05470E-01
 -1       127-9.65053E-12 1.33282E+00-2.50889E-01
 -1       128-8.62231E-12 1.21386E+00-2.38993E-01
 -1       129 5.02799E-09 1.57766E+00-2.95288E-01
 -1       130-4.27938E-09 1.56803E+00-3.31774E-01
 -1       131-1.17144E-11 1.57766E+00-2.95288E-01
 -1       132-1.14461E-11 1.56803E+00-3.31774E-01
 -1       133-2.75287E-09 1.45577E+00-2.63558E-01
 -1       134 3.76963E-10 1.57285E+00-3.13530E-01
 -1       135 1.23162E-09 1.44665E+00-2.99118E-01
 -1       136 2.50772E-09 1.57766E+00-2.95288E-01
 -1       137-2.14602E-09 1.56803E+00-3.31774E-01
 -1       138-1.07267E-11 1.45577E+00-2.63558E-01
 -1       139-1.15807E-11 1.57285E+00-3.13530E-01
 -1       140-1.04664E-11 1.44665E+00-2.99118E-01
 -1       141 3.09777E-09 1.83034E+00-3.63847E-01
 -1       142-9.22025E-09 1.81973E+00-4.02008E-01
 -1       143-1.37959E-11 1.83034E+00-3.63847E-01
 -1       144-1.35100E-11 1.81973E+00-4.02007E-01
 -1       145-2.31739E-09 1.70259E+00-3.28738E-01
 -1       146-3.05251E-09 1.82504E+00-3.82927E-01
 -1       147 2.99121E-09 1.69245E+00-3.66091E-01
 -1       148 1.54149E-09 1.83034E+00-3.63847E-01
 -1       149-4.61805E-09 1.81973E+00-4.02008E-01
 -1       150-1.27384E-11 1.70259E+00-3.28738E-01
 -1       151-1.36531E-11 1.82504E+00-3.82927E-01
 -1       152-1.24611E-11 1.69245E+00-3.66091E-01
 -1       153-1.61369E-09 2.09358E+00-4.38760E-01
 -1       154-1.77884E-08 2.08207E+00-4.78369E-01
 -1       155-1.60055E-11 2.09358E+00-4.38760E-01
 -1       156-1.57032E-11 2.08207E+00-4.78369E-01
 -1       157-8.30073E-10 1.96074E+00-4.00545E-01
 -1       158-9.70874E-09 2.08783E+00-4.58564E-01
 -1       159 6.15758E-09 1.94966E+00-4.39458E-01
 -1       160-8.14810E-10 2.09358E+00-4.38760E-01
 -1       161-8.90220E-09 2.08207E+00-4.78369E-01
 -1       162-1.48859E-11 1.96074E+00-4.00545E-01
 -1       163-1.58544E-11 2.08783E+00-4.58564E-01
 -1       164-1.45906E-11 1.94966E+00-4.39458E-01
 -1       165-1.06564E-08 2.36588E+00-5.19415E-01
 -1       166-3.22650E-08 2.35357E+00-5.60256E-01
 -1       167-1.83357E-11 2.36588E+00-5.19415E-01
 -1       168-1.80201E-11 2.35357E+00-5.60256E-01
 -1       169 2.38918E-09 2.22869E+00-4.78411E-01
 -1       170-2.13971E-08 2.35973E+00-5.39835E-01
 -1       171 1.15428E-08 2.21677E+00-5.18663E-01
 -1       172-5.33781E-09 2.36588E+00-5.19415E-01
 -1       173-1.61467E-08 2.35357E+00-5.60256E-01
 -1       174-1.71568E-11 2.22869E+00-4.78411E-01
 -1       175-1.81778E-11 2.35973E+00-5.39835E-01
 -1       176-1.68466E-11 2.21677E+00-5.18663E-01
 -1       177-2.59525E-08 2.64581E+00-6.05123E-01
 -1       178-5.51925E-08 2.63281E+00-6.46990E-01
 -1       179-2.07762E-11 2.64581E+00-6.05123E-01
 -1       180-2.04485E-11 2.63281E+00-6.46989E-01
 -1       181 8.20820E-09 2.50498E+00-5.61683E-01
 -1       182-4.07663E-08 2.63931E+00-6.26056E-01
 -1       183 2.06101E-08 2.49231E+00-6.03062E-01
 -1       184-1.29823E-08 2.64581E+00-6.05123E-01
 -1       185-2.75934E-08 2.63281E+00-6.46989E-01
 -1       186-1.95437E-11 2.50498E+00-5.61683E-01
 -1       187-2.06126E-11 2.63931E+00-6.26056E-01
 -1       188-1.92201E-11 2.49231E+00-6.03062E-01
 -1       189-4.94077E-08 2.93201E+00-6.95129E-01
 -1       190-9.28741E-08 2.91843E+00-7.37824E-01
 -1       191-2.33005E-11 2.93201E+00-6.95129E-01
 -1       192-2.29620E-11 2.91843E+00-7.37824E-01
 -1       193 1.77026E-08 2.78821E+00-6.49638E-01
 -1       194-7.03417E-08 2.92522E+00-7.16476E-01
 -1       195 3.44609E-08 2.77491E+00-6.91943E-01
 -1       196-2.47201E-08 2.93201E+00-6.95129E-01
 -1       197-4.65046E-08 2.91843E+00-7.37824E-01
 -1       198-2.20293E-11 2.78821E+00-6.49638E-01
 -1       199-2.31318E-11 2.92522E+00-7.16476E-01
 -1       200-2.16942E-11 2.77491E+00-6.91943E-01
 -1       201-8.25311E-08 3.22316E+00-7.88632E-01
 -1       202-1.43339E-07 3.20912E+00-8.31963E-01
 -1       203-2.58949E-11 3.22315E+00-7.88632E-01
 -1       204-2.55441E-11 3.20912E+00-8.31963E-01
 -1       205 3.16453E-08 3.07705E+00-7.41496E-01
 -1       206-1.15871E-07 3.21614E+00-8.10297E-01
 -1       207 5.82102E-08 3.06322E+00-7.84531E-01
 -1       208-4.12437E-08 3.22316E+00-7.88632E-01
 -1       209-7.14732E-08 3.20912E+00-8.31963E-01
 -1       210-2.45927E-11 3.07705E+00-7.41496E-01
 -1       211-2.57195E-11 3.21614E+00-8.10297E-01
 -1       212-2.42457E-11 3.06322E+00-7.84531E-01
 -1       213-1.24034E-07 3.51797E+00-8.84789E-01
 -1       214-2.42288E-07 3.50361E+00-9.28570E-01
 -1       215-2.85470E-11 3.51797E+00-8.84789E-01
 -1       216-2.81917E-11 3.50361E+00-9.28570E-01
 -1       217 5.10218E-08 3.37018E+00-8.36433E-01
 -1       218-1.71897E-07 3.51079E+00-9.06679E-01
 -1       219 8.51084E-08 3.35597E+00-8.80011E-01
 -1       220-6.20931E-08 3.51797E+00-8.84789E-01
 -1       221-1.21949E-07 3.50361E+00-9.28570E-01
 -1       222-2.72155E-11 3.37018E+00-8.36433E-01
 -1       223-2.83691E-11 3.51079E+00-9.06679E-01
 -1       224-2.68657E-11 3.35597E+00-8.80011E-01
 -1       225-1.69636E-07 3.81522E+00-9.82731E-01
 -1       226-2.90207E-07 3.80066E+00-1.02678E+00
 -1       227-3.12385E-11 3.81522E+00-9.82731E-01
 -1       228-3.08828E-11 3.80066E+00-1.02678E+00
 -1       229 7.26780E-08 3.66637E+00-9.33593E-01
 -1       230-2.72426E-07 3.80794E+00-1.00476E+00
 -1       231 1.56319E-07 3.65189E+00-9.77530E-01
 -1       232-8.46038E-08 3.81522E+00-9.82731E-01
 -1       233-1.42106E-07 3.80066E+00-1.02678E+00
 -1       234-2.98877E-11 3.66637E+00-9.33593E-01
 -1       235-3.10598E-11 3.80794E+00-1.00476E+00
 -1       236-2.95344E-11 3.65189E+00-9.77530E-01
 -1       237-2.01703E-07 4.11368E+00-1.08157E+00
 -1       238-7.00954E-07 4.09905E+00-1.12571E+00
 -1       239-3.39419E-11 4.11368E+00-1.08157E+00
 -1       240-3.35717E-11 4.09905E+00-1.12571E+00
 -1       241 9.88554E-08 3.96438E+00-1.03209E+00
 -1       242-2.89836E-07 4.10637E+00-1.10364E+00
 -1       243 1.36036E-07 3.94976E+00-1.07621E+00
 -1       244-1.01269E-07 4.11368E+00-1.08157E+00
 -1       245-3.61873E-07 4.09905E+00-1.12571E+00
 -1       246-3.25887E-11 3.96438E+00-1.03209E+00
 -1       247-3.37583E-11 4.10637E+00-1.10364E+00
 -1       248-3.22321E-11 3.94976E+00-1.07621E+00
 -1       249 0.00000E+00 0.00000E+00 0.00000E+00
 -1       250 0.00000E+00 0.00000E+00 0.00000E+00
 -1       251-5.74503E-11 1.64544E-02-3.81579E-04
 -1       252-1.39906E-10 1.62968E-02-5.19038E-03
 -1       253 0.00000E+00 0.00000E+00 0.00000E+00
 -1       254 0.00000E+00 0.00000E+00 0.00000E+00
 -1       255-2.88062E-11 1.64544E-02-3.81580E-04
 -1       256-7.00028E-11 1.62968E-02-5.19038E-03
 -1       257 0.00000E+00 0.00000E+00 0.00000E+00
 -1       258 3.64749E-12 4.16082E-03-5.76127E-05
 -1       259-9.88331E-11 1.63751E-02-2.78499E-03
 -1       260 3.31984E-11 4.11740E-03-2.49721E-03
 -1       261-2.05252E-10 6.44457E-02-2.78815E-03
 -1       262-2.87793E-10 6.38540E-02-1.21089E-02
 -1       263-1.02843E-10 6.44457E-02-2.78815E-03
 -1       264-1.44071E-10 6.38540E-02-1.21089E-02
 -1       265 5.31348E-11 3.66342E-02-1.21769E-03
 -1       266-2.46723E-10 6.41496E-02-7.44780E-03
 -1       267 1.06690E-10 3.62898E-02-8.31913E-03
 -1       268-4.60222E-10 1.41936E-01-8.91564E-03
 -1       269-4.33462E-10 1.40685E-01-2.24429E-02
 -1       270-2.30576E-10 1.41936E-01-8.91564E-03
 -1       271-2.17139E-10 1.40685E-01-2.24429E-02
 -1       272 1.50591E-10 9.96330E-02-5.29448E-03
 -1       273-4.47141E-10 1.41310E-01-1.56785E-02
 -1       274 1.80599E-10 9.87369E-02-1.67562E-02
 -1       275-8.45516E-10 2.46840E-01-2.01197E-02
 -1       276-5.69293E-10 2.44754E-01-3.75436E-02
 -1       277-4.23561E-10 2.46840E-01-2.01197E-02
 -1       278-2.85381E-10 2.44754E-01-3.75436E-02
 -1       279 3.06666E-10 1.91092E-01-1.38110E-02
 -1       280-7.07825E-10 2.45797E-01-2.88309E-02
 -1       281 2.51334E-10 1.89444E-01-2.93249E-02
 -1       282-1.38435E-09 3.77061E-01-3.74404E-02
 -1       283-6.83299E-10 3.74010E-01-5.84519E-02
 -1       284-6.93408E-10 3.77061E-01-3.74404E-02
 -1       285-3.42801E-10 3.74010E-01-5.84519E-02
 -1       286 5.33914E-10 3.08916E-01-2.79620E-02
 -1       287-1.03441E-09 3.75536E-01-4.79454E-02
 -1       288 3.14953E-10 3.06362E-01-4.72178E-02
 -1       289-2.09023E-09 5.30524E-01-6.16296E-02
 -1       290-7.49802E-10 5.26415E-01-8.59245E-02
 -1       291-1.04686E-09 5.30524E-01-6.16296E-02
 -1       292-3.76553E-10 5.26415E-01-8.59245E-02
 -1       293 8.43068E-10 4.51016E-01-4.86398E-02
 -1       294-1.42082E-09 5.28470E-01-7.37763E-02
 -1       295 3.63510E-10 4.47445E-01-7.13305E-02
 -1       296-2.95105E-09 7.05196E-01-9.31793E-02
 -1       297-7.14814E-10 6.99974E-01-1.20461E-01
 -1       298-1.47786E-09 7.05196E-01-9.31793E-02
 -1       299-3.59632E-10 6.99974E-01-1.20461E-01
 -1       300 1.23696E-09 6.15334E-01-7.64628E-02
 -1       301-1.83402E-09 7.02585E-01-1.06820E-01
 -1       302 3.79410E-10 6.10674E-01-1.02288E-01
 -1       303-3.90430E-09 8.99104E-01-1.32350E-01
 -1       304-4.72489E-10 8.92747E-01-1.62333E-01
 -1       305-1.95514E-09 8.99104E-01-1.32350E-01
 -1       306-2.39106E-10 8.92747E-01-1.62333E-01
 -1       307 1.70077E-09 7.99866E-01-1.11804E-01
 -1       308-2.18991E-09 8.95926E-01-1.47341E-01
 -1       309 3.26442E-10 7.94078E-01-1.40472E-01
 -1       310-4.79990E-09 1.11035E+00-1.79198E-01
 -1       311 1.71675E-10 1.10286E+00-2.11608E-01
 -1       312-2.40367E-09 1.11035E+00-1.79198E-01
 -1       313 8.22815E-11 1.10286E+00-2.11608E-01
 -1       314 2.18688E-09 1.00268E+00-1.54818E-01
 -1       315-2.31606E-09 1.10661E+00-1.95402E-01
 -1       316 1.35200E-10 9.95752E-01-1.86048E-01
 -1       317-5.34815E-09 1.33712E+00-2.33603E-01
 -1       318 1.55888E-09 1.32853E+00-2.68176E-01
 -1       319-2.67858E-09 1.33712E+00-2.33603E-01
 -1       320 7.75175E-10 1.32853E+00-2.68176E-01
 -1       321 2.59286E-09 1.22190E+00-2.05470E-01
 -1       322-1.89762E-09 1.33282E+00-2.50889E-01
 -1       323-3.19126E-10 1.21386E+00-2.38993E-01
 -1       324-5.05142E-09 1.57766E+00-2.95288E-01
 -1       325 4.25649E-09 1.56803E+00-3.31774E-01
 -1       326-2.53115E-09 1.57766E+00-2.95288E-01
 -1       327 2.12313E-09 1.56803E+00-3.31774E-01
 -1       328 2.73142E-09 1.45577E+00-2.63558E-01
 -1       329-4.00124E-10 1.57285E+00-3.13530E-01
 -1       330-1.25255E-09 1.44665E+00-2.99118E-01
 -1       331-3.12536E-09 1.83034E+00-3.63847E-01
 -1       332 9.19322E-09 1.81973E+00-4.02008E-01
 -1       333-1.56908E-09 1.83034E+00-3.63847E-01
 -1       334 4.59103E-09 1.81973E+00-4.02008E-01
 -1       335 2.29191E-09 1.70259E+00-3.28738E-01
 -1       336 3.02520E-09 1.82504E+00-3.82927E-01
 -1       337-3.01613E-09 1.69245E+00-3.66091E-01
 -1       338 1.58168E-09 2.09358E+00-4.38760E-01
 -1       339 1.77570E-08 2.08207E+00-4.78369E-01
 -1       340 7.82800E-10 2.09358E+00-4.38760E-01
 -1       341 8.87079E-09 2.08207E+00-4.78369E-01
 -1       342 8.00302E-10 1.96074E+00-4.00545E-01
 -1       343 9.67703E-09 2.08783E+00-4.58564E-01
 -1       344-6.18676E-09 1.94966E+00-4.39458E-01
 -1       345 1.06197E-08 2.36588E+00-5.19415E-01
 -1       346 3.22290E-08 2.35357E+00-5.60256E-01
 -1       347 5.30114E-09 2.36588E+00-5.19415E-01
 -1       348 1.61106E-08 2.35357E+00-5.60256E-01
 -1       349-2.42350E-09 2.22869E+00-4.78411E-01
 -1       350 2.13608E-08 2.35973E+00-5.39835E-01
 -1       351-1.15764E-08 2.21677E+00-5.18663E-01
 -1       352 2.59110E-08 2.64581E+00-6.05123E-01
 -1       353 5.51516E-08 2.63281E+00-6.46990E-01
 -1       354 1.29407E-08 2.64581E+00-6.05123E-01
 -1       355 2.75525E-08 2.63281E+00-6.46989E-01
 -1       356-8.24728E-09 2.50498E+00-5.61683E-01
 -1       357 4.07250E-08 2.63931E+00-6.26056E-01
 -1       358-2.06486E-08 2.49231E+00-6.03062E-01
 -1       359 4.93611E-08 2.93201E+00-6.95129E-01
 -1       360 9.28282E-08 2.91843E+00-7.37824E-01
 -1       361 2.46735E-08 2.93201E+00-6.95129E-01
 -1       362 4.64587E-08 2.91843E+00-7.37824E-01
 -1       363-1.77466E-08 2.78821E+00-6.49638E-01
 -1       364 7.02954E-08 2.92522E+00-7.16476E-01
 -1       365-3.45043E-08 2.77491E+00-6.91943E-01
 -1       366 8.24793E-08 3.22316E+00-7.88632E-01
 -1       367 1.43288E-07 3.20912E+00-8.31963E-01
 -1       368 4.11919E-08 3.22316E+00-7.88632E-01
 -1       369 7.14221E-08 3.20912E+00-8.31963E-01
 -1       370-3.16945E-08 3.07705E+00-7.41496E-01
 -1       371 1.15820E-07 3.21614E+00-8.10297E-01
 -1       372-5.82587E-08 3.06322E+00-7.84531E-01
 -1       373 1.23977E-07 3.51797E+00-8.84789E-01
 -1       374 2.42231E-07 3.50361E+00-9.28570E-01
 -1       375 6.20360E-08 3.51797E+00-8.84789E-01
 -1       376 1.21893E-07 3.50361E+00-9.28570E-01
 -1       377-5.10762E-08 3.37018E+00-8.36433E-01
 -1       378 1.71841E-07 3.51079E+00-9.06679E-01
 -1       379-8.51621E-08 3.35597E+00-8.80011E-01
 -1       380 1.69573E-07 3.81522E+00-9.82731E-01
 -1       381 2.90145E-07 3.80066E+00-1.02678E+00
 -1       382 8.45413E-08 3.81522E+00-9.82731E-01
 -1       383 1.42044E-07 3.80066E+00-1.02678E+00
 -1       384-7.27378E-08 3.66637E+00-9.33593E-01
 -1       385 2.72364E-07 3.80794E+00-1.00476E+00
 -1       386-1.56378E-07 3.65189E+00-9.77530E-01
 -1       387 2.01635E-07 4.11368E+00-1.08157E+00
 -1       388 7.00887E-07 4.09905E+00-1.12571E+00
 -1       389 1.01201E-07 4.11368E+00-1.08157E+00
 -1       390 3.61806E-07 4.09905E+00-1.12571E+00
 -1       391-9.89205E-08 3.96438E+00-1.03209E+00
 -1       392 2.89769E-07 4.10637E+00-1.10364E+00
 -1       393-1.36101E-07 3.94976E+00-1.07621E+00
 -1       394 0.00000E+00 0.00000E+00 0.00000E+00
 -1       395 4.55917E-10 1.66120E-02 4.42601E-03
 -1       396 0.00000E+00 0.00000E+00 0.00000E+00
 -1       397-1.30201E-13 1.66120E-02 4.42601E-03
 -1       398 0.00000E+00 0.00000E+00 0.00000E+00
 -1       399-1.39222E-10 4.20413E-03 2.38258E-03
 -1       400 2.56441E-10 1.65337E-02 2.02124E-03
 -1       401 0.00000E+00 0.00000E+00 0.00000E+00
 -1       402 2.27778E-10 1.66120E-02 4.42601E-03
 -1       403 0.00000E+00 0.00000E+00 0.00000E+00
 -1       404-3.83470E-14 4.20413E-03 2.38258E-03
 -1       405-1.16767E-13 1.65337E-02 2.02124E-03
 -1       406 7.38405E-10 6.50373E-02 6.53140E-03
 -1       407-4.67641E-13 6.50373E-02 6.53141E-03
 -1       408-3.18007E-10 3.69786E-02 5.88426E-03
 -1       409 4.71210E-10 6.47417E-02 1.87089E-03
 -1       410 3.68886E-10 6.50373E-02 6.53141E-03
 -1       411-2.73428E-13 3.69786E-02 5.88425E-03
 -1       412-4.39903E-13 6.47417E-02 1.87089E-03
 -1       413 8.69542E-10 1.43186E-01 4.61076E-03
 -1       414-1.00711E-12 1.43186E-01 4.61077E-03
 -1       415-4.22457E-10 1.00529E-01 6.16772E-03
 -1       416 6.63640E-10 1.42561E-01-2.15324E-03
 -1       417 4.34162E-10 1.43186E-01 4.61076E-03
 -1       418-7.12173E-13 1.00529E-01 6.16771E-03
 -1       419-9.65549E-13 1.42561E-01-2.15323E-03
 -1       420 8.18225E-10 2.48925E-01-2.69640E-03
 -1       421-1.74533E-12 2.48925E-01-2.69639E-03
 -1       422-4.50637E-10 1.92740E-01 1.70302E-03
 -1       423 8.29779E-10 2.47882E-01-1.14088E-02
 -1       424 4.08112E-10 2.48925E-01-2.69640E-03
 -1       425-1.35153E-12 1.92740E-01 1.70302E-03
 -1       426-1.69007E-12 2.47882E-01-1.14088E-02
 -1       427 4.92493E-10 3.80113E-01-1.64292E-02
 -1       428-2.67724E-12 3.80113E-01-1.64292E-02
 -1       429-3.73341E-10 3.11471E-01-8.70609E-03
 -1       430 9.35243E-10 3.78587E-01-2.69356E-02
 -1       431 2.44741E-10 3.80113E-01-1.64292E-02
 -1       432-2.18710E-12 3.11471E-01-8.70609E-03
 -1       433-2.60878E-12 3.78587E-01-2.69356E-02
 -1       434-2.78091E-10 5.34633E-01-3.73348E-02
 -1       435-3.79645E-12 5.34633E-01-3.73348E-02
 -1       436-1.27787E-10 4.54587E-01-2.59491E-02
 -1       437 9.01549E-10 5.32579E-01-4.94829E-02
 -1       438-1.41160E-10 5.34633E-01-3.73348E-02
 -1       439-3.21367E-12 4.54587E-01-2.59491E-02
 -1       440-3.71547E-12 5.32579E-01-4.94829E-02
 -1       441-1.77094E-09 7.10417E-01-6.58972E-02
 -1       442-5.09968E-12 7.10417E-01-6.58972E-02
 -1       443 3.93722E-10 6.19994E-01-5.06378E-02
 -1       444 5.83949E-10 7.07807E-01-7.95389E-02
 -1       445-8.88291E-10 7.10417E-01-6.58972E-02
 -1       446-4.42527E-12 6.19994E-01-5.06378E-02
 -1       447-5.00619E-12 7.07806E-01-7.95389E-02
 -1       448-4.41068E-09 9.05461E-01-1.02367E-01
 -1       449-6.57662E-12 9.05461E-01-1.02367E-01
 -1       450 1.36098E-09 8.05654E-01-8.31361E-02
 -1       451-2.61199E-10 9.02282E-01-1.17359E-01
 -1       452-2.20895E-09 9.05461E-01-1.02367E-01
 -1       453-5.81581E-12 8.05654E-01-8.31361E-02
 -1       454-6.47145E-12 9.02282E-01-1.17359E-01
 -1       455-8.82144E-09 1.11784E+00-1.46789E-01
 -1       456-8.22195E-12 1.11784E+00-1.46789E-01
 -1       457 3.02901E-09 1.00960E+00-1.23588E-01
 -1       458-2.02084E-09 1.11409E+00-1.62995E-01
 -1       459-4.41519E-09 1.11784E+00-1.46789E-01
 -1       460-7.37762E-12 1.00960E+00-1.23588E-01
 -1       461-8.10648E-12 1.11409E+00-1.62995E-01
 -1       462-1.58852E-08 1.34570E+00-1.99030E-01
 -1       463-1.00272E-11 1.34570E+00-1.99030E-01
 -1       464 5.76727E-09 1.22994E+00-1.71947E-01
 -1       465-5.28153E-09 1.34141E+00-2.16317E-01
 -1       466-7.94790E-09 1.34570E+00-1.99030E-01
 -1       467-9.10337E-12 1.22994E+00-1.71947E-01
 -1       468-9.90146E-12 1.34141E+00-2.16317E-01
 -1       469-2.68032E-08 1.58730E+00-2.58802E-01
 -1       470-1.19845E-11 1.58730E+00-2.58802E-01
 -1       471 1.00890E-08 1.46489E+00-2.27998E-01
 -1       472-1.08903E-08 1.58248E+00-2.77046E-01
 -1       473-1.34078E-08 1.58730E+00-2.58802E-01
 -1       474-1.09862E-11 1.46489E+00-2.27998E-01
 -1       475-1.18500E-11 1.58248E+00-2.77046E-01
 -1       476-4.31065E-08 1.84096E+00-3.25686E-01
 -1       477-1.40831E-11 1.84096E+00-3.25686E-01
 -1       478 1.66834E-08 1.71272E+00-2.91386E-01
 -1       479-2.00138E-08 1.83565E+00-3.44767E-01
 -1       480-2.15594E-08 1.84096E+00-3.25686E-01
 -1       481-1.30161E-11 1.71272E+00-2.91386E-01
 -1       482-1.39396E-11 1.83565E+00-3.44767E-01
 -1       483-6.66716E-08 2.10509E+00-3.99151E-01
 -1       484-1.63105E-11 2.10509E+00-3.99151E-01
 -1       485 2.63941E-08 1.97181E+00-3.61633E-01
 -1       486-3.41331E-08 2.09934E+00-4.18956E-01
 -1       487-3.33437E-08 2.10509E+00-3.99151E-01
 -1       488-1.51809E-11 1.97181E+00-3.61633E-01
 -1       489-1.61581E-11 2.09934E+00-4.18956E-01
 -1       490-9.92569E-08 2.37819E+00-4.78575E-01
 -1       491-1.86533E-11 2.37819E+00-4.78574E-01
 -1       492 4.02600E-08 2.24061E+00-4.38160E-01
 -1       493-5.50265E-08 2.37204E+00-4.98996E-01
 -1       494-4.96291E-08 2.37819E+00-4.78575E-01
 -1       495-1.74654E-11 2.24061E+00-4.38160E-01
 -1       496-1.84945E-11 2.37204E+00-4.98995E-01
 -1       497-1.42853E-07 2.65882E+00-5.63257E-01
 -1       498-2.11054E-11 2.65882E+00-5.63256E-01
 -1       499 5.89997E-08 2.51765E+00-5.20304E-01
 -1       500-8.41893E-08 2.65232E+00-5.84190E-01
 -1       501-7.14478E-08 2.65882E+00-5.63257E-01
 -1       502-1.98664E-11 2.51765E+00-5.20304E-01
 -1       503-2.09409E-11 2.65232E+00-5.84190E-01
 -1       504-1.95145E-07 2.94559E+00-6.52436E-01
 -1       505-2.36399E-11 2.94559E+00-6.52436E-01
 -1       506 8.39236E-08 2.80152E+00-6.07333E-01
 -1       507-1.23136E-07 2.93880E+00-6.73783E-01
 -1       508-9.75047E-08 2.94559E+00-6.52436E-01
 -1       509-2.23657E-11 2.80152E+00-6.07333E-01
 -1       510-2.34706E-11 2.93880E+00-6.73783E-01
 -1       511-2.59866E-07 3.23719E+00-7.45303E-01
 -1       512-2.62456E-11 3.23719E+00-7.45302E-01
 -1       513 1.11320E-07 3.09087E+00-6.98460E-01
 -1       514-1.68088E-07 3.23017E+00-7.66968E-01
 -1       515-1.30159E-07 3.23719E+00-7.45303E-01
 -1       516-2.49375E-11 3.09087E+00-6.98460E-01
 -1       517-2.60701E-11 3.23017E+00-7.66968E-01
 -1       518-2.95853E-07 3.53234E+00-8.41009E-01
 -1       519-2.89026E-11 3.53234E+00-8.41009E-01
 -1       520 1.49049E-07 3.38440E+00-7.92854E-01
 -1       521-2.21677E-07 3.52516E+00-8.62900E-01
 -1       522-1.47043E-07 3.53234E+00-8.41009E-01
 -1       523-2.75678E-11 3.38440E+00-7.92854E-01
 -1       524-2.87245E-11 3.52515E+00-8.62900E-01
 -1       525-3.85588E-07 3.82979E+00-9.38683E-01
 -1       526-3.15920E-11 3.82979E+00-9.38683E-01
 -1       527 1.46675E-07 3.68085E+00-8.89655E-01
 -1       528-2.34060E-07 3.82250E+00-9.60707E-01
 -1       529-1.95820E-07 3.82979E+00-9.38683E-01
 -1       530-3.02397E-11 3.68085E+00-8.89655E-01
 -1       531-3.14148E-11 3.82250E+00-9.60707E-01
 -1       532-6.81339E-08 4.12831E+00-1.03743E+00
 -1       533-3.43027E-11 4.12831E+00-1.03743E+00
 -1       534 2.42581E-07 3.97899E+00-9.87978E-01
 -1       535-2.97829E-07 4.12100E+00-1.05950E+00
 -1       536-2.29629E-08 4.12831E+00-1.03743E+00
 -1       537-3.29458E-11 3.97899E+00-9.87978E-01
 -1       538-3.41231E-11 4.12100E+00-1.05950E+00
 -1       539 0.00000E+00 0.00000E+00 0.00000E+00
 -1       540-4.56178E-10 1.66120E-02 4.42601E-03
 -1       541 0.00000E+00 0.00000E+00 0.00000E+00
 -1       542-2.28038E-10 1.66120E-02 4.42601E-03
 -1       543 0.00000E+00 0.00000E+00 0.00000E+00
 -1       544 1.39145E-10 4.20413E-03 2.38258E-03
 -1       545-2.56675E-10 1.65337E-02 2.02124E-03
 -1       546-7.39340E-10 6.50373E-02 6.53140E-03
 -1       547-3.69821E-10 6.50373E-02 6.53141E-03
 -1       548 3.17460E-10 3.69786E-02 5.88426E-03
 -1       549-4.72089E-10 6.47417E-02 1.87089E-03
 -1       550-8.71556E-10 1.43186E-01 4.61076E-03
 -1       551-4.36176E-10 1.43186E-01 4.61076E-03
 -1       552 4.21033E-10 1.00529E-01 6.16772E-03
 -1       553-6.65571E-10 1.42561E-01-2.15324E-03
 -1       554-8.21716E-10 2.48925E-01-2.69640E-03
 -1       555-4.11602E-10 2.48925E-01-2.69640E-03
 -1       556 4.47933E-10 1.92740E-01 1.70302E-03
 -1       557-8.33159E-10 2.47882E-01-1.14088E-02
 -1       558-4.97847E-10 3.80113E-01-1.64292E-02
 -1       559-2.50095E-10 3.80113E-01-1.64292E-02
 -1       560 3.68966E-10 3.11471E-01-8.70609E-03
 -1       561-9.40460E-10 3.78587E-01-2.69356E-02
 -1       562 2.70499E-10 5.34633E-01-3.73348E-02
 -1       563 1.33567E-10 5.34633E-01-3.73348E-02
 -1       564 1.21360E-10 4.54587E-01-2.59491E-02
 -1       565-9.08980E-10 5.32579E-01-4.94829E-02
 -1       566 1.76074E-09 7.10417E-01-6.58972E-02
 -1       567 8.78093E-10 7.10417E-01-6.58972E-02
 -1       568-4.02573E-10 6.19994E-01-5.06378E-02
 -1       569-5.93961E-10 7.07807E-01-7.95389E-02
 -1       570 4.39753E-09 9.05461E-01-1.02367E-01
 -1       571 2.19580E-09 9.05461E-01-1.02367E-01
 -1       572-1.37261E-09 8.05654E-01-8.31361E-02
 -1       573 2.48256E-10 9.02282E-01-1.17359E-01
 -1       574 8.80500E-09 1.11784E+00-1.46789E-01
 -1       575 4.39874E-09 1.11784E+00-1.46789E-01
 -1       576-3.04377E-09 1.00960E+00-1.23588E-01
 -1       577 2.00463E-09 1.11409E+00-1.62995E-01
 -1       578 1.58652E-08 1.34570E+00-1.99030E-01
 -1       579 7.92785E-09 1.34570E+00-1.99030E-01
 -1       580-5.78547E-09 1.22994E+00-1.71947E-01
 -1       581 5.26173E-09 1.34141E+00-2.16317E-01
 -1       582 2.67793E-08 1.58730E+00-2.58802E-01
 -1       583 1.33838E-08 1.58730E+00-2.58802E-01
 -1       584-1.01109E-08 1.46489E+00-2.27998E-01
 -1       585 1.08666E-08 1.58248E+00-2.77046E-01
 -1       586 4.30783E-08 1.84096E+00-3.25686E-01
 -1       587 2.15313E-08 1.84096E+00-3.25686E-01
 -1       588-1.67095E-08 1.71272E+00-2.91386E-01
 -1       589 1.99860E-08 1.83565E+00-3.44767E-01
 -1       590 6.66389E-08 2.10509E+00-3.99151E-01
 -1       591 3.33111E-08 2.10509E+00-3.99151E-01
 -1       592-2.64245E-08 1.97181E+00-3.61633E-01
 -1       593 3.41008E-08 2.09934E+00-4.18956E-01
 -1       594 9.92196E-08 2.37819E+00-4.78575E-01
 -1       595 4.95918E-08 2.37819E+00-4.78575E-01
 -1       596-4.02949E-08 2.24061E+00-4.38160E-01
 -1       597 5.49895E-08 2.37204E+00-4.98996E-01
 -1       598 1.42811E-07 2.65882E+00-5.63257E-01
 -1       599 7.14055E-08 2.65882E+00-5.63257E-01
 -1       600-5.90395E-08 2.51765E+00-5.20304E-01
 -1       601 8.41474E-08 2.65232E+00-5.84190E-01
 -1       602 1.95098E-07 2.94559E+00-6.52436E-01
 -1       603 9.74575E-08 2.94559E+00-6.52436E-01
 -1       604-8.39683E-08 2.80152E+00-6.07333E-01
 -1       605 1.23089E-07 2.93880E+00-6.73783E-01
 -1       606 2.59813E-07 3.23719E+00-7.45303E-01
 -1       607 1.30107E-07 3.23719E+00-7.45303E-01
 -1       608-1.11370E-07 3.09087E+00-6.98460E-01
 -1       609 1.68036E-07 3.23017E+00-7.66968E-01
 -1       610 2.95795E-07 3.53234E+00-8.41009E-01
 -1       611 1.46985E-07 3.53234E+00-8.41009E-01
 -1       612-1.49104E-07 3.38440E+00-7.92854E-01
 -1       613 2.21620E-07 3.52516E+00-8.62900E-01
 -1       614 3.85525E-07 3.82979E+00-9.38683E-01
 -1       615 1.95757E-07 3.82979E+00-9.38683E-01
 -1       616-1.46735E-07 3.68085E+00-8.89655E-01
 -1       617 2.33997E-07 3.82250E+00-9.60707E-01
 -1       618 6.80653E-08 4.12831E+00-1.03743E+00
 -1       619 2.28943E-08 4.12831E+00-1.03743E+00
 -1       620-2.42647E-07 3.97899E+00-9.87978E-01
 -1       621 2.97761E-07 4.12100E+00-1.05950E+00
 -3
    1PSTEP                         6           3           1          
  100CL  103 1.50000E-01         621                     0    3           1
 -4  STRESS      6    1
 -5  SXX         1    4    1    1
 -5  SYY         1    4    2    2
 -5  SZZ         1    4    3    3
 -5  SXY         1    4    1    2
 -5  SYZ         1    4    2    3
 -5  SZX         1    4    3    1
 -1         1-1.38703E-01-2.80038E+03-9.82915E+05-9.61580E-01 8.92425E+02 1.23009E-01
 -1         2-4.34149E-02-3.31941E+03-7.47090E+03 3.77790E-01 2.71921E+03-3.54509E-01
 -1         3-3.00212E-02-5.22130E+03-7.05691E+03-1.36372E-02 5.20824E+03-2.22262E-02
 -1         4-2.69299E-03-3.56206E+03-9.24138E+05-6.53691E-03-6.08802E+04 1.24856E-03
 -1         5-1.38703E-01-2.79866E+03-9.82915E+05-2.93817E-08 8.92436E+02 1.69579E-06
 -1         6-4.34149E-02-3.31928E+03-7.47063E+03-2.18077E-08 2.71928E+03 1.14198E-08
 -1         7-2.95521E-02-5.22134E+03-7.05664E+03 7.09015E-08 5.20814E+03 3.56434E-08
 -1         8-2.50894E-03-3.56195E+03-9.24138E+05 2.42001E-07-6.08799E+04 3.31366E-06
 -1         9-9.08403E-02-3.08610E+03-4.95119E+05-3.36677E-01 1.92641E+03-1.14361E-01
 -1        10 1.40764E-02-4.11600E+03-7.08453E+03 6.94297E-03 3.95476E+03 5.12948E-03
 -1        11-1.63064E-02-4.40190E+03-4.65564E+05-4.03798E-04-2.78701E+04-1.05233E-02
 -1        12 2.41493E-03-2.97493E+03-9.53825E+05-2.56821E-03-2.97109E+04-1.19890E-04
 -1        13-1.38703E-01-2.79952E+03-9.82915E+05-9.45019E-01 8.92431E+02 1.36089E-01
 -1        14-4.34149E-02-3.31935E+03-7.47076E+03 3.48161E-01 2.71924E+03-3.50385E-01
 -1        15-2.97866E-02-5.22132E+03-7.05677E+03-7.34531E-03 5.20819E+03-1.20886E-02
 -1        16-2.60097E-03-3.56200E+03-9.24138E+05-9.49140E-03-6.08801E+04 1.55354E-02
 -1        17-9.08403E-02-3.08440E+03-4.95119E+05-2.10974E-08 1.92618E+03 8.52484E-07
 -1        18 1.43109E-02-4.11599E+03-7.08466E+03 1.63463E-08 3.95481E+03 3.08027E-08
 -1        19-1.59788E-02-4.40186E+03-4.65564E+05 1.41864E-07-2.78700E+04 1.45692E-06
 -1        20 2.50700E-03-2.97496E+03-9.53825E+05 1.12276E-07-2.97111E+04 2.45077E-06
 -1        21-3.55473E-02-3.21495E+03-6.58201E+03-1.72130E-02 4.34800E+03-4.44110E-02
 -1        22 6.71448E-04-1.42721E+04-8.59523E+05-2.99164E-02-1.09177E+05 6.74401E-03
 -1        23-3.53825E-02-3.21502E+03-6.58175E+03-2.40697E-08 4.34793E+03 2.75562E-08
 -1        24 6.15534E-04-1.42719E+04-8.59523E+05 4.24106E-07-1.09177E+05 2.99239E-06
 -1        25 1.60643E-02-4.09260E+03-6.83318E+03 7.25392E-03 4.76769E+03 1.66865E-02
 -1        26-1.73467E-02-8.74178E+03-4.33045E+05-1.33504E-02-5.24287E+04-2.01085E-02
 -1        27 1.30864E-04-8.78268E+03-8.91783E+05 8.99798E-03-8.52390E+04-1.74518E-03
 -1        28-3.54649E-02-3.21499E+03-6.58188E+03-9.19716E-03 4.34796E+03-2.52617E-02
 -1        29 6.43498E-04-1.42720E+04-8.59523E+05-3.26235E-02-1.09177E+05 2.18676E-02
 -1        30 1.63812E-02-4.09257E+03-6.83331E+03 1.28225E-08 4.76773E+03 3.35467E-08
 -1        31-1.72916E-02-8.74167E+03-4.33045E+05 1.90223E-07-5.24286E+04 1.36516E-06
 -1        32 1.94917E-04-8.78277E+03-8.91783E+05 3.05274E-07-8.52392E+04 3.19277E-06
 -1        33-4.32743E-02-2.34389E+03-6.24836E+03-2.73058E-02 4.33345E+03-6.45918E-02
 -1        34 3.14384E-03-2.75847E+04-7.91601E+05-5.51403E-02-1.47458E+05 1.72576E-02
 -1        35-4.32372E-02-2.34399E+03-6.24809E+03 3.19300E-08 4.33342E+03 8.32815E-09
 -1        36 2.93877E-03-2.75843E+04-7.91601E+05 7.15350E-07-1.47458E+05 3.18511E-06
 -1        37 1.96581E-02-2.72608E+03-6.44507E+03 1.07306E-02 4.31263E+03 2.72938E-02
 -1        38-1.99077E-02-1.49659E+04-3.98914E+05-2.88320E-02-7.15645E+04-2.65068E-02
 -1        39-1.14289E-03-2.09067E+04-8.25500E+05 2.09503E-02-1.28446E+05-5.74258E-03
 -1        40-4.32557E-02-2.34394E+03-6.24822E+03-1.40834E-02 4.33343E+03-3.49230E-02
 -1        41 3.04131E-03-2.75845E+04-7.91601E+05-5.80652E-02-1.47458E+05 3.24892E-02
 -1        42 1.97590E-02-2.72604E+03-6.44520E+03 3.23885E-08 4.31265E+03 2.86860E-08
 -1        43-1.99910E-02-1.49657E+04-3.98914E+05 3.04865E-07-7.15644E+04 1.45062E-06
 -1        44-1.27337E-03-2.09069E+04-8.25500E+05 6.13580E-07-1.28446E+05 3.11269E-06
 -1        45-5.09912E-02-1.32124E+03-5.88817E+03-4.44875E-02 4.05777E+03-8.13025E-02
 -1        46 7.06006E-03-4.27061E+04-7.22696E+05-8.43823E-02-1.75322E+05 3.42855E-02
 -1        47-5.12183E-02-1.32135E+03-5.88792E+03-1.67574E-07 4.05776E+03 1.97095E-08
 -1        48 6.60699E-03-4.27056E+04-7.22696E+05 7.44858E-07-1.75321E+05 3.22221E-06
 -1        49 2.38402E-02-1.82464E+03-6.10877E+03 1.75975E-02 4.17154E+03 3.66672E-02
 -1        50-2.17306E-02-2.20139E+04-3.64284E+05-4.82381E-02-8.56317E+04-2.86279E-02
 -1        51-2.55180E-03-3.51606E+04-7.57060E+05 3.43390E-02-1.61461E+05-1.24717E-02
 -1        52-5.11048E-02-1.32130E+03-5.88804E+03-2.24206E-02 4.05777E+03-3.98265E-02
 -1        53 6.83352E-03-4.27059E+04-7.22696E+05-8.81693E-02-1.75322E+05 4.89611E-02
 -1        54 2.37452E-02-1.82459E+03-6.10890E+03 3.90375E-09 4.17155E+03 3.00540E-08
 -1        55-2.20701E-02-2.20137E+04-3.64284E+05 3.75945E-07-8.56316E+04 1.46475E-06
 -1        56-2.88088E-03-3.51609E+04-7.57060E+05 7.73771E-07-1.61461E+05 3.19296E-06
 -1        57-5.54764E-02-4.77435E+02-5.55482E+03-6.92375E-02 3.83579E+03-9.09290E-02
 -1        58 1.55229E-02-5.76833E+04-6.54502E+05-1.20021E-01-1.94063E+05 6.11093E-02
 -1        59-5.60883E-02-4.77568E+02-5.55461E+03 2.61644E-08 3.83581E+03 1.13824E-08
 -1        60 1.47104E-02-5.76825E+04-6.54503E+05 9.25176E-07-1.94062E+05 3.18879E-06
 -1        61 2.74108E-02-9.17263E+02-5.74674E+03 2.82053E-02 3.92873E+03 4.35939E-02
 -1        62-1.96389E-02-2.90807E+04-3.30022E+05-7.28945E-02-9.51126E+04-2.33559E-02
 -1        63-5.33545E-03-5.02300E+04-6.88532E+05 5.03079E-02-1.84724E+05-2.30973E-02
 -1        64-5.57824E-02-4.77501E+02-5.55471E+03-3.45150E-02 3.83580E+03-3.73139E-02
 -1        65 1.51167E-02-5.76829E+04-6.54503E+05-1.25698E-01-1.94063E+05 7.38152E-02
 -1        66 2.69912E-02-9.17202E+02-5.74685E+03 5.62955E-08 3.92873E+03 6.61580E-09
 -1        67-2.03505E-02-2.90803E+04-3.30022E+05 3.91643E-07-9.51125E+04 1.47823E-06
 -1        68-5.96826E-03-5.02303E+04-6.88532E+05 9.88270E-07-1.84724E+05 3.20534E-06
 -1        69-5.14490E-02 2.84743E+02-5.22086E+03-1.01348E-01 3.59581E+03-8.70520E-02
 -1        70 3.34100E-02-7.13783E+04-5.88354E+05-1.64532E-01-2.04724E+05 1.03416E-01
 -1        71-5.26467E-02 2.84592E+02-5.22075E+03 3.11546E-08 3.59585E+03-1.20594E-08
 -1        72 3.20374E-02-7.13773E+04-5.88355E+05 1.65751E-06-2.04724E+05 3.02477E-06
 -1        73 2.83252E-02-1.26031E+02-5.40152E+03 4.26918E-02 3.70520E+03 4.56303E-02
 -1        74-8.54211E-03-3.55472E+04-2.96781E+05-1.03749E-01-1.00564E+05-4.99771E-03
 -1        75-1.14056E-02-6.45705E+04-6.21381E+05 7.00946E-02-1.99403E+05-3.97752E-02
 -1        76-5.20478E-02 2.84667E+02-5.22080E+03-5.05148E-02 3.59583E+03-2.30853E-02
 -1        77 3.27237E-02-7.13778E+04-5.88354E+05-1.74021E-01-2.04724E+05 1.10959E-01
 -1        78 2.74204E-02-1.25962E+02-5.40160E+03 2.26739E-08 3.70518E+03-8.08978E-10
 -1        79-9.82656E-03-3.55466E+04-2.96782E+05 6.51621E-07-1.00563E+05 1.39424E-06
 -1        80-1.24982E-02-6.45710E+04-6.21380E+05 8.40596E-07-1.99403E+05 3.12995E-06
 -1        81-3.06459E-02 9.50896E+02-4.89731E+03-1.39349E-01 3.36661E+03-5.96807E-02
 -1        82 6.85474E-02-8.29038E+04-5.25161E+05-2.20331E-01-2.08488E+05 1.70257E-01
 -1        83-3.26767E-02 9.50729E+02-4.89736E+03 8.42136E-08 3.36665E+03 4.65648E-08
 -1        84 6.63305E-02-8.29024E+04-5.25162E+05 7.50968E-07-2.08488E+05 3.00609E-06
 -1        85 2.33112E-02 5.84137E+02-5.06450E+03 6.07328E-02 3.47685E+03 3.87546E-02
 -1        86 1.96106E-02-4.09771E+04-2.65024E+05-1.41037E-01-1.02560E+05 3.55906E-02
 -1        87-2.37991E-02-7.71794E+04-5.56727E+05 9.49496E-02-2.06603E+05-6.60760E-02
 -1        88-3.16614E-02 9.50813E+02-4.89734E+03-7.03922E-02 3.36663E+03 9.02192E-03
 -1        89 6.74390E-02-8.29031E+04-5.25162E+05-2.37461E-01-2.08488E+05 1.66071E-01
 -1        90 2.16969E-02 5.84213E+02-5.06452E+03-2.40169E-07 3.47682E+03 1.50805E-08
 -1        91 1.74874E-02-4.09763E+04-2.65024E+05 3.42238E-07-1.02560E+05 1.38621E-06
 -1        92-2.55938E-02-7.71800E+04-5.56727E+05 1.40653E-06-2.06604E+05 3.06598E-06
 -1        93 1.92825E-02 1.53544E+03-4.58517E+03-1.79661E-01 3.14718E+03 5.54387E-03
 -1        94 1.33251E-01-9.17079E+04-4.65512E+05-2.89346E-01-2.06475E+05 2.75264E-01
 -1        95 1.61202E-02 1.53525E+03-4.58547E+03-5.50548E-07 3.14719E+03 6.33378E-08
 -1        96 1.29748E-01-9.17059E+04-4.65513E+05 6.81632E-07-2.06474E+05 2.76267E-06
 -1        97 7.32063E-03 1.20942E+03-4.74231E+03 8.12315E-02 3.25713E+03 1.69615E-02
 -1        98 7.71972E-02-4.50871E+04-2.35043E+05-1.83686E-01-1.01663E+05 1.12029E-01
 -1        99-4.74053E-02-8.73399E+04-4.95318E+05 1.26065E-01-2.07472E+05-1.07518E-01
 -1       100 1.77014E-02 1.53534E+03-4.58532E+03-9.40791E-02 3.14719E+03 6.70945E-02
 -1       101 1.31499E-01-9.17069E+04-4.65512E+05-3.21866E-01-2.06474E+05 2.47037E-01
 -1       102 4.72398E-03 1.20950E+03-4.74222E+03-4.78641E-09 3.25711E+03 7.06524E-08
 -1       103 7.38652E-02-4.50860E+04-2.35044E+05 4.37258E-08-1.01663E+05 1.30437E-06
 -1       104-5.02649E-02-8.73408E+04-4.95318E+05 1.38056E-06-2.07472E+05 2.77906E-06
 -1       105 1.15644E-01 2.04447E+03-4.28893E+03-2.16433E-01 2.94239E+03 1.27873E-01
 -1       106 2.46568E-01-9.74827E+04-4.09717E+05-3.73279E-01-1.99730E+05 4.38072E-01
 -1       107 1.11149E-01 2.04427E+03-4.28960E+03 8.14274E-08 2.94234E+03 2.05133E-07
 -1       108 2.41359E-01-9.74800E+04-4.09719E+05 3.49255E-06-1.99729E+05 2.35716E-06
 -1       109-2.70359E-02 1.75773E+03-4.43615E+03 1.01812E-01 3.04811E+03-2.81001E-02
 -1       110 1.82313E-01-4.77202E+04-2.06998E+05-2.29430E-01-9.83932E+04 2.43426E-01
 -1       111-8.98030E-02-9.46241E+04-4.37605E+05 1.64233E-01-2.03090E+05-1.72223E-01
 -1       112 1.13397E-01 2.04437E+03-4.28927E+03-1.22213E-01 2.94237E+03 1.60924E-01
 -1       113 2.43964E-01-9.74813E+04-4.09718E+05-4.35422E-01-1.99729E+05 3.64192E-01
 -1       114-3.08644E-02 1.75782E+03-4.43591E+03-4.18126E-07 3.04812E+03 6.67041E-08
 -1       115 1.77462E-01-4.77186E+04-2.06999E+05 1.17691E-06-9.83930E+04 1.29899E-06
 -1       116-9.41586E-02-9.46252E+04-4.37604E+05 2.39320E-06-2.03090E+05 2.59947E-06
 -1       117 2.81170E-01 2.48556E+03-4.01157E+03-2.39723E-01 2.75401E+03 3.31171E-01
 -1       118 4.35910E-01-1.00122E+05-3.57870E+05-4.71256E-01-1.89189E+05 6.86051E-01
 -1       119 2.75109E-01 2.48537E+03-4.01271E+03 1.17302E-07 2.75387E+03-1.35262E-07
 -1       120 4.27884E-01-1.00118E+05-3.57873E+05 1.64022E-06-1.89188E+05 2.71520E-06
 -1       121-8.97854E-02 2.23468E+03-4.14865E+03 1.19213E-01 2.85349E+03-1.07253E-01
 -1       122 3.60455E-01-4.88194E+04-1.80937E+05-2.72871E-01-9.32167E+04 4.55256E-01
 -1       123-1.62660E-01-9.88253E+04-3.83791E+05 2.10490E-01-1.94445E+05-2.71706E-01
 -1       124 2.78139E-01 2.48547E+03-4.01214E+03-1.57005E-01 2.75394E+03 3.00723E-01
 -1       125 4.31897E-01-1.00120E+05-3.57872E+05-5.90929E-01-1.89188E+05 5.30570E-01
 -1       126-9.50634E-02 2.23477E+03-4.14820E+03 3.27934E-07 2.85354E+03-3.56194E-08
 -1       127 3.53411E-01-4.88172E+04-1.80939E+05 1.01709E-06-9.32164E+04 1.25261E-06
 -1       128-1.69277E-01-9.88269E+04-3.83790E+05 1.48470E-06-1.94446E+05 2.60617E-06
 -1       129 5.42027E-01 2.86523E+03-3.75579E+03-2.42765E-01 2.58347E+03 6.42255E-01
 -1       130 7.42442E-01-9.96701E+04-3.09897E+05-5.88830E-01-1.75665E+05 1.05451E+00
 -1       131 5.35358E-01 2.86511E+03-3.75754E+03 6.36780E-07 2.58322E+03 3.44112E-07
 -1       132 7.32652E-01-9.96649E+04-3.09900E+05 1.17364E-06-1.75664E+05 1.48244E-06
 -1       133-1.93827E-01 2.64667E+03-3.88176E+03 1.27176E-01 2.67525E+03-2.33301E-01
 -1       134 6.43853E-01-4.84039E+04-1.56823E+05-3.13665E-01-8.65400E+04 7.78571E-01
 -1       135-2.82093E-01-9.99131E+04-3.33886E+05 2.63252E-01-1.82412E+05-4.21586E-01
 -1       136 5.38692E-01 2.86517E+03-3.75667E+03-2.07139E-01 2.58335E+03 4.95921E-01
 -1       137 7.37547E-01-9.96675E+04-3.09899E+05-8.06883E-01-1.75665E+05 7.60260E-01
 -1       138-2.00192E-01 2.64674E+03-3.88104E+03-2.25177E-09 2.67534E+03 1.28183E-07
 -1       139 6.35623E-01-4.84008E+04-1.56826E+05 2.54349E-07-8.65397E+04 1.10354E-06
 -1       140-2.91001E-01-9.99153E+04-3.33885E+05 1.85032E-06-1.82413E+05 1.94396E-06
 -1       141 9.25216E-01 3.18961E+03-3.52375E+03-2.02826E-01 2.43142E+03 1.08436E+00
 -1       142 1.21275E+00-9.62848E+04-2.65596E+05-7.07752E-01-1.59849E+05 1.59164E+00
 -1       143 9.17286E-01 3.18971E+03-3.52616E+03-1.04161E-07 2.43113E+03-1.08253E-07
 -1       144 1.19393E+00-9.62774E+04-2.65600E+05 1.28969E-06-1.59846E+05 1.91843E-06
 -1       145-3.52443E-01 2.99964E+03-3.63734E+03 1.25975E-01 2.51476E+03-4.19846E-01
 -1       146 1.07491E+00-4.65494E+04-1.34557E+05-3.32524E-01-7.87073E+04 1.25045E+00
 -1       147-4.73311E-01-9.79884E+04-2.87754E+05 3.29893E-01-1.67742E+05-6.41660E-01
 -1       148 9.21251E-01 3.18966E+03-3.52496E+03-2.85766E-01 2.43127E+03 7.46520E-01
 -1       149 1.20334E+00-9.62811E+04-2.65598E+05-1.12024E+00-1.59847E+05 1.07027E+00
 -1       150-3.59742E-01 2.99964E+03-3.63629E+03 8.56596E-07 2.51489E+03 1.56046E-07
 -1       151 1.06153E+00-4.65450E+04-1.34560E+05 6.91184E-07-7.87066E+04 8.75173E-07
 -1       152-4.87618E-01-9.79915E+04-2.87752E+05 1.44308E-06-1.67743E+05 1.77112E-06
 -1       153 1.44036E+00 3.46416E+03-3.31702E+03-1.73982E-01 2.29804E+03 1.67346E+00
 -1       154 1.93736E+00-9.02014E+04-2.24674E+05-9.12277E-01-1.42307E+05 2.33585E+00
 -1       155 1.44096E+00 3.46481E+03-3.32011E+03 6.32875E-07 2.29790E+03-1.50267E-07
 -1       156 1.93485E+00-9.01909E+04-2.24679E+05 1.72986E-06-1.42303E+05 2.29795E-06
 -1       157-5.80122E-01 3.29903E+03-3.41686E+03 9.37932E-02 2.37271E+03-6.75512E-01
 -1       158 1.68300E+00-4.33710E+04-1.13994E+05-4.00423E-01-7.00026E+04 1.89741E+00
 -1       159-7.59386E-01-9.32475E+04-2.45146E+05 3.86768E-01-1.51063E+05-9.58286E-01
 -1       160 1.44066E+00 3.46449E+03-3.31857E+03-4.47183E-01 2.29797E+03 1.05221E+00
 -1       161 1.93611E+00-9.01961E+04-2.24676E+05-1.56802E+00-1.42305E+05 1.46187E+00
 -1       162-5.83791E-01 3.29886E+03-3.41547E+03-1.51313E-08 2.37283E+03 1.36090E-07
 -1       163 1.68204E+00-4.33644E+04-1.13998E+05 1.62320E-06-7.00014E+04 1.04675E-06
 -1       164-7.70050E-01-9.32518E+04-2.45144E+05 2.41670E-07-1.51064E+05 2.15888E-06
 -1       165 2.08129E+00 3.69423E+03-3.13710E+03 9.18608E-03 2.18338E+03 2.36707E+00
 -1       166 2.90893E+00-8.17080E+04-1.86777E+05-9.43011E-01-1.23498E+05 3.39816E+00
 -1       167 2.07387E+00 3.69597E+03-3.14059E+03 4.81627E-08 2.18383E+03 2.04252E-07
 -1       168 2.82642E+00-8.16929E+04-1.86783E+05-6.24785E-07-1.23493E+05 1.38474E-06
 -1       169-8.69819E-01 3.54984E+03-3.22166E+03 1.09051E-01 2.24940E+03-1.00699E+00
 -1       170 2.53955E+00-3.90104E+04-9.49558E+04-3.09216E-01-6.06550E+04 2.76712E+00
 -1       171-1.20420E+00-8.59515E+04-2.05741E+05 5.38960E-01-1.32888E+05-1.38791E+00
 -1       172 2.07758E+00 3.69510E+03-3.13884E+03-7.01207E-01 2.18361E+03 1.33540E+00
 -1       173 2.86767E+00-8.17005E+04-1.86780E+05-2.30568E+00-1.23495E+05 1.96989E+00
 -1       174-8.73231E-01 3.54924E+03-3.21995E+03-3.06805E-07 2.24935E+03 7.02919E-08
 -1       175 2.49458E+00-3.90005E+04-9.49608E+04 4.38721E-07-6.06526E+04 5.30316E-07
 -1       176-1.24672E+00-8.59578E+04-2.05738E+05 2.86895E-06-1.32890E+05 1.64214E-06
 -1       177 2.71104E+00 3.88324E+03-2.98348E+03-4.56620E-01 2.08702E+03 3.16447E+00
 -1       178 4.51994E+00-7.11273E+04-1.51510E+05-1.93094E+00-1.03782E+05 4.58121E+00
 -1       179 2.78080E+00 3.88759E+03-2.98714E+03-1.91124E-06 2.08900E+03-3.03515E-07
 -1       180 4.72982E+00-7.11046E+04-1.51517E+05 1.86182E-06-1.03774E+05 1.83113E-06
 -1       181-1.23060E+00 3.75576E+03-3.05238E+03-7.02822E-02 2.14458E+03-1.36068E+00
 -1       182 3.47979E+00-3.36268E+04-7.72461E+04-1.03829E+00-5.08446E+04 3.72888E+00
 -1       183-1.75484E+00-7.64049E+04-1.69162E+05 4.41164E-01-1.13624E+05-2.00355E+00
 -1       184 2.74592E+00 3.88542E+03-2.98531E+03-1.41209E+00 2.08801E+03 1.67319E+00
 -1       185 4.62488E+00-7.11159E+04-1.51513E+05-3.24348E+00-1.03778E+05 2.43310E+00
 -1       186-1.19944E+00 3.75443E+03-3.05060E+03-3.79097E-07 2.14405E+03-3.20147E-07
 -1       187 3.61962E+00-3.36114E+04-7.72514E+04-4.54597E-07-5.08400E+04 9.74212E-07
 -1       188-1.69112E+00-7.64138E+04-1.69159E+05-2.34330E-06-1.13627E+05 1.46954E-06
 -1       189 3.22573E+00 4.03982E+03-2.86032E+03 9.06738E-01 2.01101E+03 3.49263E+00
 -1       190 5.68913E+00-5.87968E+04-1.18449E+05 1.46124E-03-8.34382E+04 6.86134E+00
 -1       191 3.15191E+00 4.04739E+03-2.86218E+03 2.70051E-06 2.01587E+03 1.88056E-07
 -1       192 4.79077E+00-5.87656E+04-1.18458E+05-2.04594E-06-8.34224E+04 8.00361E-07
 -1       193-1.48461E+00 3.92191E+03-2.91146E+03 6.13014E-01 2.05818E+03-1.79568E+00
 -1       194 5.01065E+00-2.73888E+04-6.06528E+04 6.11754E-01-4.07102E+04 5.14355E+00
 -1       195-2.79098E+00-6.49349E+04-1.35000E+05 1.50839E+00-9.35896E+04-2.60557E+00
 -1       196 3.18882E+00 4.04361E+03-2.86125E+03-1.94518E+00 2.01344E+03 1.31081E+00
 -1       197 5.23995E+00-5.87812E+04-1.18453E+05-5.54279E+00-8.34303E+04 3.30795E+00
 -1       198-1.48662E+00 3.91859E+03-2.90961E+03 5.31795E-07 2.05650E+03-1.54877E-07
 -1       199 4.52452E+00-2.73659E+04-6.06590E+04-4.23193E-07-4.07003E+04 5.63579E-07
 -1       200-3.13533E+00-6.49493E+04-1.34997E+05 1.08086E-06-9.35947E+04 1.57190E-06
 -1       201 2.77045E+00 4.15157E+03-2.74996E+03-6.17615E+00 1.95187E+03 4.38059E+00
 -1       202 1.06143E+01-4.50863E+04-8.71696E+04-1.04172E+01-6.26645E+04 6.27242E+00
 -1       203 3.32732E+00 4.17100E+03-2.75275E+03-1.04425E-06 1.96336E+03-2.18731E-07
 -1       204 1.39607E+01-4.50298E+04-8.71713E+04-2.68642E-07-6.26456E+04 2.20712E-07
 -1       205-1.81977E+00 4.04443E+03-2.79428E+03-1.39645E+00 1.98736E+03-1.64380E+00
 -1       206 4.67721E+00-2.04750E+04-4.49600E+04-8.34968E+00-3.03520E+04 4.99243E+00
 -1       207-3.11251E+00-5.18893E+04-1.02826E+05-1.29534E+00-7.30197E+04-4.09540E+00
 -1       208 3.04888E+00 4.16129E+03-2.75135E+03-5.89103E+00 1.95762E+03 2.30340E+00
 -1       209 1.22875E+01-4.50581E+04-8.71705E+04-6.17755E+00-6.26550E+04 2.47199E+00
 -1       210-1.57833E+00 4.03963E+03-2.79435E+03 5.20184E-07 1.98381E+03 2.74276E-07
 -1       211 6.62891E+00-2.04356E+04-4.49611E+04-1.53012E-06-3.03383E+04 2.94747E-07
 -1       212-1.88806E+00-5.19064E+04-1.02822E+05 3.01958E-07-7.30308E+04 4.53630E-07
 -1       213 1.38374E+00 4.28275E+03-2.71199E+03 1.44644E+01 1.93493E+03-6.55168E-01
 -1       214 3.81566E+00-3.03012E+04-5.71940E+04 2.24871E+01-4.16586E+04 1.80983E+01
 -1       215 3.96196E-01 4.29958E+03-2.69643E+03-7.02131E-07 1.95292E+03-5.10491E-07
 -1       216-8.85569E+00-3.02512E+04-5.72136E+04 9.93533E-07-4.15973E+04 6.75725E-07
 -1       217-7.60511E-01 4.14926E+03-2.72421E+03 7.85820E+00 1.93613E+03-2.72014E+00
 -1       218 1.02657E+01-1.30582E+04-2.99335E+04 1.89233E+01-1.98578E+04 9.88533E+00
 -1       219-7.12865E+00-3.75904E+04-7.21919E+04 1.13787E+01-5.21063E+04-2.60525E+00
 -1       220 8.89969E-01 4.29116E+03-2.70421E+03-1.85745E+00 1.94392E+03-4.50781E+00
 -1       221-2.52002E+00-3.02762E+04-5.72038E+04-1.87616E+01-4.16279E+04 7.21556E+00
 -1       222-9.75548E-01 4.13394E+03-2.72140E+03-1.63552E-06 1.92755E+03-2.99522E-07
 -1       223 3.43608E+00-1.30100E+04-2.99454E+04-1.22827E-07-1.98162E+04 1.50035E-07
 -1       224-1.17927E+01-3.76323E+04-7.21936E+04 1.22800E-06-5.21149E+04 7.64070E-07
 -1       225-4.32797E+00 4.20692E+03-2.50414E+03-7.53928E+01 1.89486E+03 9.38641E+00
 -1       226 4.16499E+01-1.50327E+04-2.82166E+04-1.11737E+02-2.03756E+04-1.91051E+01
 -1       227-6.53532E-01 4.30493E+03-2.53655E+03-1.96821E-06 1.94470E+03 5.22368E-07
 -1       228 8.98697E+01-1.48252E+04-2.81416E+04-1.09163E-06-2.03894E+04 6.07688E-07
 -1       229-1.40780E+00 4.14815E+03-2.62019E+03-2.22083E+01 1.87703E+03 3.71895E+00
 -1       230-1.00235E+01-5.36250E+03-1.53879E+04-9.64186E+01-9.23429E+03-8.67608E+00
 -1       231 1.27894E+00-2.24642E+04-4.26844E+04-3.17723E+01-3.09145E+04-1.35410E+01
 -1       232-2.49075E+00 4.25592E+03-2.52034E+03-3.56461E+01 1.91978E+03 1.35296E+01
 -1       233 6.57598E+01-1.49289E+04-2.81791E+04 4.78410E+00-2.03825E+04-1.12299E+01
 -1       234-6.55368E-02 4.14477E+03-2.63871E+03-1.33732E-06 1.86689E+03-5.10565E-07
 -1       235 1.59238E+01-5.23730E+03-1.53384E+04-8.91108E-08-9.22783E+03-6.45130E-08
 -1       236 1.90589E+01-2.24677E+04-4.26694E+04 9.30471E-07-3.09680E+04 4.89241E-07
 -1       237-2.17045E+01 4.07260E+03-2.91941E+03 3.06066E+02 1.71304E+03-9.02294E+01
 -1       238-2.53340E+02 2.99521E+03 7.65143E+02 4.52828E+02 1.14393E+03-5.98632E+01
 -1       239-2.81123E+01 3.53260E+03-2.75802E+03 4.66914E-06 1.40975E+03-3.81498E-07
 -1       240-4.35421E+02 1.48477E+03 6.74903E+02 8.50938E-06 8.78978E+02 6.84162E-07
 -1       241 8.65293E+00 4.37838E+03-2.80123E+03 9.91800E+01 1.88987E+03-1.36999E+01
 -1       242-2.93909E+01 3.53614E+03-9.64229E+02 3.98679E+02 1.36789E+03-4.52709E+01
 -1       243-3.61392E+01-6.53538E+03-1.37155E+04 1.36813E+02-9.77209E+03 2.59726E+01
 -1       244-2.49084E+01 3.80260E+03-2.83871E+03 1.89304E+02 1.56140E+03-7.57450E+01
 -1       245-3.44381E+02 2.23999E+03 7.20023E+02 8.22602E+01 1.01145E+03-2.39175E+01
 -1       246 7.28720E+00 4.28389E+03-2.74985E+03 2.27117E-06 1.84798E+03 3.27338E-07
 -1       247-1.23636E+02 2.55008E+03-1.03621E+03 7.14480E-06 1.13390E+03 5.54008E-07
 -1       248-1.03074E+02-6.76364E+03-1.37864E+04 6.31156E-07-9.70735E+03 5.77551E-07
 -1       249-1.38703E-01-2.80038E+03-9.82915E+05 9.61580E-01 8.92425E+02-1.23006E-01
 -1       250-4.34149E-02-3.31941E+03-7.47090E+03-3.77790E-01 2.71921E+03 3.54509E-01
 -1       251-3.00212E-02-5.22130E+03-7.05691E+03 1.36372E-02 5.20824E+03 2.22262E-02
 -1       252-2.69298E-03-3.56206E+03-9.24138E+05 6.53704E-03-6.08802E+04-1.24733E-03
 -1       253-1.38703E-01-2.79952E+03-9.82915E+05 9.45019E-01 8.92431E+02-1.36086E-01
 -1       254-4.34149E-02-3.31935E+03-7.47076E+03-3.48161E-01 2.71924E+03 3.50385E-01
 -1       255-2.97866E-02-5.22132E+03-7.05677E+03 7.34540E-03 5.20819E+03 1.20887E-02
 -1       256-2.60096E-03-3.56200E+03-9.24138E+05 9.49171E-03-6.08801E+04-1.55315E-02
 -1       257-9.08404E-02-3.08610E+03-4.95119E+05 3.36677E-01 1.92641E+03 1.14363E-01
 -1       258 1.40764E-02-4.11600E+03-7.08453E+03-6.94303E-03 3.95476E+03-5.12944E-03
 -1       259-1.63064E-02-4.40190E+03-4.65564E+05 4.03848E-04-2.78701E+04 1.05235E-02
 -1       260 2.41496E-03-2.97493E+03-9.53825E+05 2.56827E-03-2.97109E+04 1.22097E-04
 -1       261-3.55473E-02-3.21495E+03-6.58201E+03 1.72131E-02 4.34800E+03 4.44110E-02
 -1       262 6.71417E-04-1.42721E+04-8.59523E+05 2.99166E-02-1.09177E+05-6.74151E-03
 -1       263-3.54649E-02-3.21499E+03-6.58188E+03 9.19717E-03 4.34796E+03 2.52618E-02
 -1       264 6.43468E-04-1.42720E+04-8.59523E+05 3.26241E-02-1.09177E+05-2.18634E-02
 -1       265 1.60643E-02-4.09260E+03-6.83318E+03-7.25389E-03 4.76769E+03-1.66865E-02
 -1       266-1.73467E-02-8.74178E+03-4.33045E+05 1.33505E-02-5.24287E+04 2.01095E-02
 -1       267 1.30852E-04-8.78268E+03-8.91783E+05-8.99781E-03-8.52390E+04 1.74712E-03
 -1       268-4.32743E-02-2.34389E+03-6.24836E+03 2.73059E-02 4.33345E+03 6.45918E-02
 -1       269 3.14382E-03-2.75847E+04-7.91601E+05 5.51406E-02-1.47458E+05-1.72548E-02
 -1       270-4.32557E-02-2.34394E+03-6.24822E+03 1.40835E-02 4.33343E+03 3.49231E-02
 -1       271 3.04129E-03-2.75845E+04-7.91601E+05 5.80661E-02-1.47458E+05-3.24846E-02
 -1       272 1.96581E-02-2.72608E+03-6.44507E+03-1.07305E-02 4.31263E+03-2.72938E-02
 -1       273-1.99077E-02-1.49659E+04-3.98914E+05 2.88322E-02-7.15645E+04 2.65079E-02
 -1       274-1.14290E-03-2.09067E+04-8.25500E+05-2.09500E-02-1.28446E+05 5.74528E-03
 -1       275-5.09912E-02-1.32124E+03-5.88817E+03 4.44880E-02 4.05777E+03 8.13025E-02
 -1       276 7.06006E-03-4.27061E+04-7.22696E+05 8.43829E-02-1.75322E+05-3.42824E-02
 -1       277-5.11048E-02-1.32130E+03-5.88804E+03 2.24207E-02 4.05777E+03 3.98265E-02
 -1       278 6.83353E-03-4.27059E+04-7.22696E+05 8.81703E-02-1.75322E+05-4.89563E-02
 -1       279 2.38402E-02-1.82464E+03-6.10878E+03-1.75973E-02 4.17154E+03-3.66671E-02
 -1       280-2.17306E-02-2.20139E+04-3.64284E+05 4.82384E-02-8.56317E+04 2.86293E-02
 -1       281-2.55182E-03-3.51606E+04-7.57060E+05-3.43385E-02-1.61461E+05 1.24747E-02
 -1       282-5.54764E-02-4.77435E+02-5.55482E+03 6.92375E-02 3.83579E+03 9.09290E-02
 -1       283 1.55229E-02-5.76833E+04-6.54502E+05 1.20022E-01-1.94063E+05-6.11059E-02
 -1       284-5.57824E-02-4.77501E+02-5.55471E+03 3.45151E-02 3.83580E+03 3.73139E-02
 -1       285 1.51166E-02-5.76829E+04-6.54503E+05 1.25699E-01-1.94063E+05-7.38104E-02
 -1       286 2.74107E-02-9.17263E+02-5.74674E+03-2.82050E-02 3.92873E+03-4.35938E-02
 -1       287-1.96389E-02-2.90807E+04-3.30022E+05 7.28949E-02-9.51126E+04 2.33573E-02
 -1       288-5.33547E-03-5.02300E+04-6.88532E+05-5.03070E-02-1.84724E+05 2.31006E-02
 -1       289-5.14491E-02 2.84743E+02-5.22086E+03 1.01348E-01 3.59581E+03 8.70522E-02
 -1       290 3.34100E-02-7.13783E+04-5.88354E+05 1.64533E-01-2.04724E+05-1.03413E-01
 -1       291-5.20479E-02 2.84667E+02-5.22080E+03 5.05148E-02 3.59583E+03 2.30853E-02
 -1       292 3.27237E-02-7.13778E+04-5.88354E+05 1.74023E-01-2.04724E+05-1.10954E-01
 -1       293 2.83252E-02-1.26031E+02-5.40152E+03-4.26918E-02 3.70520E+03-4.56303E-02
 -1       294-8.54211E-03-3.55472E+04-2.96781E+05 1.03750E-01-1.00564E+05 4.99939E-03
 -1       295-1.14056E-02-6.45705E+04-6.21381E+05-7.00937E-02-1.99403E+05 3.97788E-02
 -1       296-3.06456E-02 9.50896E+02-4.89731E+03 1.39349E-01 3.36661E+03 5.96807E-02
 -1       297 6.85470E-02-8.29038E+04-5.25161E+05 2.20336E-01-2.08488E+05-1.70253E-01
 -1       298-3.16611E-02 9.50813E+02-4.89734E+03 7.03921E-02 3.36663E+03-9.02187E-03
 -1       299 6.74387E-02-8.29031E+04-5.25162E+05 2.37464E-01-2.08488E+05-1.66066E-01
 -1       300 2.33113E-02 5.84137E+02-5.06450E+03-6.07329E-02 3.47685E+03-3.87546E-02
 -1       301 1.96106E-02-4.09771E+04-2.65024E+05 1.41039E-01-1.02560E+05-3.55888E-02
 -1       302-2.37992E-02-7.71794E+04-5.56727E+05-9.49468E-02-2.06603E+05 6.60798E-02
 -1       303 1.92823E-02 1.53544E+03-4.58517E+03 1.79664E-01 3.14718E+03-5.54406E-03
 -1       304 1.33251E-01-9.17079E+04-4.65512E+05 2.89346E-01-2.06475E+05-2.75260E-01
 -1       305 1.77012E-02 1.53534E+03-4.58532E+03 9.40797E-02 3.14719E+03-6.70946E-02
 -1       306 1.31500E-01-9.17069E+04-4.65512E+05 3.21867E-01-2.06474E+05-2.47032E-01
 -1       307 7.32046E-03 1.20942E+03-4.74231E+03-8.12303E-02 3.25713E+03-1.69615E-02
 -1       308 7.71971E-02-4.50871E+04-2.35043E+05 1.83688E-01-1.01663E+05-1.12027E-01
 -1       309-4.74051E-02-8.73399E+04-4.95318E+05-1.26063E-01-2.07472E+05 1.07521E-01
 -1       310 1.15644E-01 2.04447E+03-4.28893E+03 2.16433E-01 2.94239E+03-1.27873E-01
 -1       311 2.46568E-01-9.74827E+04-4.09717E+05 3.73282E-01-1.99730E+05-4.38069E-01
 -1       312 1.13397E-01 2.04437E+03-4.28927E+03 1.22213E-01 2.94237E+03-1.60924E-01
 -1       313 2.43964E-01-9.74813E+04-4.09718E+05 4.35427E-01-1.99729E+05-3.64188E-01
 -1       314-2.70359E-02 1.75773E+03-4.43615E+03-1.01811E-01 3.04811E+03 2.81001E-02
 -1       315 1.82313E-01-4.77202E+04-2.06998E+05 2.29431E-01-9.83932E+04-2.43424E-01
 -1       316-8.98030E-02-9.46241E+04-4.37605E+05-1.64231E-01-2.03090E+05 1.72227E-01
 -1       317 2.81170E-01 2.48556E+03-4.01157E+03 2.39721E-01 2.75401E+03-3.31170E-01
 -1       318 4.35910E-01-1.00122E+05-3.57870E+05 4.71256E-01-1.89189E+05-6.86048E-01
 -1       319 2.78139E-01 2.48547E+03-4.01214E+03 1.57004E-01 2.75394E+03-3.00724E-01
 -1       320 4.31897E-01-1.00120E+05-3.57872E+05 5.90931E-01-1.89188E+05-5.30565E-01
 -1       321-8.97854E-02 2.23468E+03-4.14865E+03-1.19214E-01 2.85349E+03 1.07253E-01
 -1       322 3.60455E-01-4.88194E+04-1.80937E+05 2.72870E-01-9.32167E+04-4.55254E-01
 -1       323-1.62660E-01-9.88253E+04-3.83791E+05-2.10491E-01-1.94445E+05 2.71709E-01
 -1       324 5.42026E-01 2.86523E+03-3.75579E+03 2.42767E-01 2.58347E+03-6.42255E-01
 -1       325 7.42442E-01-9.96701E+04-3.09897E+05 5.88829E-01-1.75665E+05-1.05450E+00
 -1       326 5.38692E-01 2.86517E+03-3.75667E+03 2.07141E-01 2.58335E+03-4.95921E-01
 -1       327 7.37547E-01-9.96675E+04-3.09899E+05 8.06884E-01-1.75665E+05-7.60256E-01
 -1       328-1.93827E-01 2.64667E+03-3.88176E+03-1.27176E-01 2.67525E+03 2.33301E-01
 -1       329 6.43853E-01-4.84039E+04-1.56823E+05 3.13668E-01-8.65400E+04-7.78570E-01
 -1       330-2.82093E-01-9.99131E+04-3.33886E+05-2.63251E-01-1.82412E+05 4.21590E-01
 -1       331 9.25216E-01 3.18961E+03-3.52375E+03 2.02827E-01 2.43142E+03-1.08436E+00
 -1       332 1.21275E+00-9.62848E+04-2.65596E+05 7.07755E-01-1.59849E+05-1.59163E+00
 -1       333 9.21251E-01 3.18966E+03-3.52496E+03 2.85766E-01 2.43127E+03-7.46520E-01
 -1       334 1.20334E+00-9.62811E+04-2.65598E+05 1.12024E+00-1.59847E+05-1.07027E+00
 -1       335-3.52443E-01 2.99964E+03-3.63734E+03-1.25973E-01 2.51476E+03 4.19846E-01
 -1       336 1.07491E+00-4.65494E+04-1.34557E+05 3.32524E-01-7.87073E+04-1.25045E+00
 -1       337-4.73311E-01-9.79884E+04-2.87754E+05-3.29892E-01-1.67742E+05 6.41664E-01
 -1       338 1.44036E+00 3.46416E+03-3.31702E+03 1.73979E-01 2.29804E+03-1.67346E+00
 -1       339 1.93736E+00-9.02014E+04-2.24674E+05 9.12277E-01-1.42307E+05-2.33585E+00
 -1       340 1.44066E+00 3.46449E+03-3.31857E+03 4.47183E-01 2.29797E+03-1.05221E+00
 -1       341 1.93611E+00-9.01961E+04-2.24676E+05 1.56802E+00-1.42305E+05-1.46187E+00
 -1       342-5.80122E-01 3.29903E+03-3.41686E+03-9.37933E-02 2.37271E+03 6.75513E-01
 -1       343 1.68300E+00-4.33710E+04-1.13994E+05 4.00422E-01-7.00026E+04-1.89741E+00
 -1       344-7.59386E-01-9.32475E+04-2.45146E+05-3.86769E-01-1.51063E+05 9.58288E-01
 -1       345 2.08129E+00 3.69423E+03-3.13710E+03-9.18737E-03 2.18338E+03-2.36707E+00
 -1       346 2.90893E+00-8.17080E+04-1.86777E+05 9.43012E-01-1.23498E+05-3.39816E+00
 -1       347 2.07758E+00 3.69510E+03-3.13884E+03 7.01206E-01 2.18361E+03-1.33540E+00
 -1       348 2.86767E+00-8.17005E+04-1.86780E+05 2.30568E+00-1.23495E+05-1.96989E+00
 -1       349-8.69819E-01 3.54984E+03-3.22166E+03-1.09051E-01 2.24940E+03 1.00699E+00
 -1       350 2.53955E+00-3.90104E+04-9.49558E+04 3.09215E-01-6.06550E+04-2.76712E+00
 -1       351-1.20420E+00-8.59515E+04-2.05741E+05-5.38959E-01-1.32888E+05 1.38791E+00
 -1       352 2.71104E+00 3.88324E+03-2.98348E+03 4.56623E-01 2.08702E+03-3.16446E+00
 -1       353 4.51994E+00-7.11273E+04-1.51510E+05 1.93094E+00-1.03782E+05-4.58121E+00
 -1       354 2.74592E+00 3.88542E+03-2.98531E+03 1.41209E+00 2.08801E+03-1.67319E+00
 -1       355 4.62488E+00-7.11159E+04-1.51513E+05 3.24348E+00-1.03778E+05-2.43310E+00
 -1       356-1.23060E+00 3.75576E+03-3.05238E+03 7.02814E-02 2.14458E+03 1.36069E+00
 -1       357 3.47979E+00-3.36268E+04-7.72461E+04 1.03829E+00-5.08446E+04-3.72888E+00
 -1       358-1.75484E+00-7.64049E+04-1.69162E+05-4.41161E-01-1.13624E+05 2.00356E+00
 -1       359 3.22573E+00 4.03982E+03-2.86032E+03-9.06741E-01 2.01101E+03-3.49263E+00
 -1       360 5.68913E+00-5.87968E+04-1.18449E+05-1.45634E-03-8.34382E+04-6.86133E+00
 -1       361 3.18882E+00 4.04361E+03-2.86125E+03 1.94518E+00 2.01344E+03-1.31081E+00
 -1       362 5.23995E+00-5.87812E+04-1.18453E+05 5.54279E+00-8.34303E+04-3.30795E+00
 -1       363-1.48461E+00 3.92191E+03-2.91146E+03-6.13013E-01 2.05818E+03 1.79568E+00
 -1       364 5.01065E+00-2.73888E+04-6.06528E+04-6.11750E-01-4.07102E+04-5.14355E+00
 -1       365-2.79098E+00-6.49349E+04-1.35000E+05-1.50839E+00-9.35896E+04 2.60557E+00
 -1       366 2.77045E+00 4.15157E+03-2.74996E+03 6.17615E+00 1.95187E+03-4.38059E+00
 -1       367 1.06143E+01-4.50863E+04-8.71696E+04 1.04172E+01-6.26645E+04-6.27242E+00
 -1       368 3.04888E+00 4.16129E+03-2.75135E+03 5.89104E+00 1.95762E+03-2.30340E+00
 -1       369 1.22875E+01-4.50581E+04-8.71705E+04 6.17755E+00-6.26550E+04-2.47199E+00
 -1       370-1.81977E+00 4.04443E+03-2.79428E+03 1.39645E+00 1.98736E+03 1.64380E+00
 -1       371 4.67721E+00-2.04750E+04-4.49600E+04 8.34968E+00-3.03520E+04-4.99243E+00
 -1       372-3.11251E+00-5.18893E+04-1.02826E+05 1.29534E+00-7.30197E+04 4.09540E+00
 -1       373 1.38374E+00 4.28275E+03-2.71199E+03-1.44644E+01 1.93493E+03 6.55169E-01
 -1       374 3.81566E+00-3.03012E+04-5.71940E+04-2.24871E+01-4.16586E+04-1.80983E+01
 -1       375 8.89969E-01 4.29116E+03-2.70421E+03 1.85745E+00 1.94392E+03 4.50781E+00
 -1       376-2.52002E+00-3.02762E+04-5.72038E+04 1.87616E+01-4.16279E+04-7.21556E+00
 -1       377-7.60511E-01 4.14926E+03-2.72421E+03-7.85820E+00 1.93613E+03 2.72014E+00
 -1       378 1.02657E+01-1.30582E+04-2.99335E+04-1.89233E+01-1.98578E+04-9.88532E+00
 -1       379-7.12865E+00-3.75904E+04-7.21919E+04-1.13787E+01-5.21063E+04 2.60526E+00
 -1       380-4.32797E+00 4.20692E+03-2.50414E+03 7.53929E+01 1.89486E+03-9.38641E+00
 -1       381 4.16499E+01-1.50327E+04-2.82166E+04 1.11737E+02-2.03756E+04 1.91051E+01
 -1       382-2.49075E+00 4.25592E+03-2.52034E+03 3.56461E+01 1.91978E+03-1.35296E+01
 -1       383 6.57598E+01-1.49289E+04-2.81791E+04-4.78410E+00-2.03825E+04 1.12299E+01
 -1       384-1.40780E+00 4.14815E+03-2.62019E+03 2.22083E+01 1.87703E+03-3.71895E+00
 -1       385-1.00235E+01-5.36250E+03-1.53879E+04 9.64186E+01-9.23429E+03 8.67608E+00
 -1       386 1.27894E+00-2.24642E+04-4.26844E+04 3.17723E+01-3.09145E+04 1.35410E+01
 -1       387-2.17045E+01 4.07260E+03-2.91941E+03-3.06066E+02 1.71304E+03 9.02294E+01
 -1       388-2.53340E+02 2.99521E+03 7.65143E+02-4.52828E+02 1.14393E+03 5.98632E+01
 -1       389-2.49084E+01 3.80260E+03-2.83871E+03-1.89304E+02 1.56140E+03 7.57450E+01
 -1       390-3.44381E+02 2.23999E+03 7.20023E+02-8.22602E+01 1.01145E+03 2.39175E+01
 -1       391 8.65293E+00 4.37838E+03-2.80123E+03-9.91800E+01 1.88987E+03 1.36999E+01
 -1       392-2.93909E+01 3.53614E+03-9.64229E+02-3.98679E+02 1.36789E+03 4.52709E+01
 -1       393-3.61392E+01-6.53538E+03-1.37155E+04-1.36813E+02-9.77209E+03-2.59726E+01
 -1       394-4.85633E-01-3.85560E+03 9.97859E+05-5.65420E-01 4.64563E+03 6.02794E-01
 -1       395 5.74458E-02 3.40328E+03 9.37488E+05-6.34035E-02 6.21661E+04-1.17778E-02
 -1       396-4.85633E-01-3.85697E+03 9.97859E+05-4.09825E-08 4.64664E+03-1.71860E-06
 -1       397 5.56084E-02 3.40333E+03 9.37488E+05-1.91049E-07 6.21664E+04-3.33779E-06
 -1       398-2.64742E-01-3.56131E+03 4.95120E+05-4.90329E-02 3.56183E+03 1.22754E-01
 -1       399-3.29188E-02-1.24868E+02 9.67618E+05 2.57923E-02 3.30950E+04 2.27816E-02
 -1       400 1.36616E-02-8.98789E+02 4.65182E+05-4.82036E-02 3.37213E+04-1.69675E-02
 -1       401-4.85633E-01-3.85629E+03 9.97859E+05-6.38549E-01 4.64614E+03 6.55699E-01
 -1       402 5.65271E-02 3.40330E+03 9.37488E+05-4.35865E-02 6.21663E+04 2.51502E-02
 -1       403-2.64742E-01-3.56269E+03 4.95120E+05-3.58924E-08 3.56264E+03-8.52472E-07
 -1       404-3.38374E-02-1.24879E+02 9.67618E+05-9.97179E-08 3.30948E+04-2.48862E-06
 -1       405 1.29764E-02-8.98795E+02 4.65182E+05-4.54866E-08 3.37214E+04-1.43334E-06
 -1       406 5.00188E-02 1.30908E+04 8.71147E+05-8.73544E-02 1.12540E+05 5.91321E-02
 -1       407 4.86978E-02 1.30909E+04 8.71146E+05-3.60289E-07 1.12541E+05-3.04025E-06
 -1       408-2.45888E-02 8.35795E+03 9.04314E+05 3.73264E-02 8.74873E+04-1.15606E-02
 -1       409 7.14449E-03 4.93614E+03 4.32276E+05-6.24980E-02 5.84583E+04 8.63560E-03
 -1       410 4.93583E-02 1.30908E+04 8.71147E+05-6.61682E-02 1.12541E+05 7.76285E-02
 -1       411-2.61681E-02 8.35792E+03 9.04314E+05-2.78757E-07 8.74871E+04-3.22347E-06
 -1       412 6.56578E-03 4.93613E+03 4.32275E+05-1.82385E-07 5.84585E+04-1.36153E-06
 -1       413 6.04802E-02 2.74021E+04 8.01832E+05-1.13830E-01 1.50893E+05 1.42164E-01
 -1       414 5.88052E-02 2.74022E+04 8.01831E+05-5.02720E-07 1.50893E+05-3.20547E-06
 -1       415-2.52843E-02 2.03335E+04 8.36514E+05 4.98113E-02 1.31798E+05-4.88166E-02
 -1       416 8.44544E-03 1.25307E+04 3.97781E+05-8.29591E-02 7.76152E+04 4.16259E-02
 -1       417 5.96427E-02 2.74022E+04 8.01832E+05-9.13250E-02 1.50893E+05 1.41779E-01
 -1       418-2.67823E-02 2.03334E+04 8.36515E+05-4.33731E-07 1.31798E+05-3.15337E-06
 -1       419 7.62579E-03 1.25307E+04 3.97780E+05-1.66621E-07 7.76154E+04-1.45248E-06
 -1       420 9.10109E-02 4.29364E+04 7.31567E+05-1.43074E-01 1.79111E+05 2.50518E-01
 -1       421 8.89721E-02 4.29367E+04 7.31566E+05-7.67040E-07 1.79112E+05-3.22943E-06
 -1       422-3.49198E-02 3.52022E+04 7.66726E+05 6.37532E-02 1.65040E+05-9.53706E-02
 -1       423 1.97749E-02 2.08078E+04 3.62832E+05-1.09978E-01 9.15843E+04 8.97273E-02
 -1       424 8.99915E-02 4.29365E+04 7.31567E+05-1.20534E-01 1.79112E+05 2.24677E-01
 -1       425-3.67768E-02 3.52021E+04 7.66726E+05-6.31543E-07 1.65040E+05-3.24036E-06
 -1       426 1.86413E-02 2.08079E+04 3.62831E+05-5.54610E-07 9.15845E+04-1.44865E-06
 -1       427 1.47583E-01 5.84009E+04 6.62173E+05-1.73791E-01 1.97927E+05 3.99139E-01
 -1       428 1.44929E-01 5.84013E+04 6.62171E+05-6.90314E-07 1.97928E+05-3.16399E-06
 -1       429-5.57451E-02 5.06728E+04 6.96886E+05 7.89237E-02 1.88535E+05-1.58029E-01
 -1       430 4.57154E-02 2.89621E+04 3.28302E+05-1.43249E-01 1.00881E+05 1.62551E-01
 -1       431 1.46256E-01 5.84011E+04 6.62172E+05-1.55087E-01 1.97928E+05 3.34559E-01
 -1       432-5.80912E-02 5.06727E+04 6.96886E+05-1.02774E-06 1.88535E+05-3.21489E-06
 -1       433 4.40820E-02 2.89621E+04 3.28301E+05-2.48048E-07 1.00881E+05-1.45445E-06
 -1       434 2.39637E-01 7.24768E+04 5.94931E+05-2.03074E-01 2.08582E+05 6.05790E-01
 -1       435 2.36204E-01 7.24773E+04 5.94928E+05-1.27661E-06 2.08582E+05-3.05886E-06
 -1       436-9.15070E-02 6.54244E+04 6.28558E+05 9.42950E-02 2.03259E+05-2.44896E-01
 -1       437 9.36168E-02 3.63812E+04 2.94849E+05-1.81401E-01 1.06088E+05 2.72549E-01
 -1       438 2.37921E-01 7.24770E+04 5.94930E+05-1.96532E-01 2.08582E+05 4.80670E-01
 -1       439-9.45502E-02 6.54242E+04 6.28560E+05-7.69364E-07 2.03259E+05-3.16913E-06
 -1       440 9.13008E-02 3.63813E+04 2.94848E+05-4.30018E-07 1.06089E+05-1.42335E-06
 -1       441 3.80601E-01 8.43237E+04 5.30771E+05-2.26568E-01 2.12244E+05 8.91322E-01
 -1       442 3.76259E-01 8.43245E+04 5.30768E+05-1.68511E-06 2.12245E+05-2.97118E-06
 -1       443-1.47939E-01 7.83771E+04 5.62851E+05 1.08069E-01 2.10413E+05-3.65549E-01
 -1       444 1.74318E-01 4.26379E+04 2.62931E+05-2.21762E-01 1.07805E+05 4.35518E-01
 -1       445 3.78430E-01 8.43241E+04 5.30770E+05-2.47442E-01 2.12245E+05 6.72817E-01
 -1       446-1.51827E-01 7.83767E+04 5.62853E+05-1.54117E-06 2.10413E+05-3.07866E-06
 -1       447 1.71131E-01 4.26381E+04 2.62930E+05-7.25097E-07 1.07805E+05-1.32219E-06
 -1       448 5.87766E-01 9.33814E+04 4.70275E+05-2.38745E-01 2.10073E+05 1.27934E+00
 -1       449 5.82640E-01 9.33825E+04 4.70270E+05-2.65070E-08 2.10073E+05-3.02332E-06
 -1       450-2.32795E-01 8.88261E+04 5.00518E+05 1.17836E-01 2.11158E+05-5.31080E-01
 -1       451 3.02594E-01 4.74593E+04 2.32840E+05-2.60020E-01 1.06610E+05 6.70816E-01
 -1       452 5.85203E-01 9.33819E+04 4.70273E+05-3.12808E-01 2.10073E+05 9.20209E-01
 -1       453-2.37529E-01 8.88256E+04 5.00520E+05-9.48618E-07 2.11158E+05-2.98301E-06
 -1       454 2.98449E-01 4.74596E+04 2.32837E+05-2.66711E-07 1.06610E+05-1.37136E-06
 -1       455 8.80975E-01 9.93514E+04 4.13750E+05-2.34938E-01 2.03132E+05 1.79404E+00
 -1       456 8.75336E-01 9.93530E+04 4.13744E+05-2.57622E-06 2.03133E+05-2.68366E-06
 -1       457-3.55701E-01 9.63400E+04 4.42004E+05 1.20763E-01 2.06603E+05-7.53669E-01
 -1       458 4.97103E-01 5.06990E+04 2.04726E+05-2.91111E-01 1.03037E+05 1.00050E+00
 -1       459 8.78155E-01 9.93522E+04 4.13747E+05-4.02314E-01 2.03132E+05 1.22900E+00
 -1       460-3.61083E-01 9.63393E+04 4.42007E+05-9.36241E-07 2.06603E+05-2.88691E-06
 -1       461 4.92035E-01 5.06994E+04 2.04722E+05-6.37318E-07 1.03037E+05-1.25711E-06
 -1       462 1.27935E+00 1.02134E+05 3.61281E+05-2.12557E-01 1.92377E+05 2.45625E+00
 -1       463 1.27515E+00 1.02136E+05 3.61273E+05-5.89024E-07 1.92377E+05-2.47080E-06
 -1       464-5.26946E-01 1.00718E+05 3.87503E+05 1.15553E-01 1.97757E+05-1.04469E+00
 -1       465 7.78343E-01 5.23109E+04 1.78631E+05-3.08758E-01 9.75647E+04 1.44706E+00
 -1       466 1.27725E+00 1.02135E+05 3.61277E+05-5.35164E-01 1.92377E+05 1.59820E+00
 -1       467-5.31862E-01 1.00717E+05 3.87507E+05-1.13619E-06 1.97756E+05-2.67393E-06
 -1       468 7.73216E-01 5.23116E+04 1.78626E+05-3.74184E-07 9.75652E+04-1.26567E-06
 -1       469 1.79164E+00 1.01781E+05 3.12783E+05-1.86621E-01 1.78634E+05 3.27103E+00
 -1       470 1.78888E+00 1.01785E+05 3.12775E+05-1.44035E-06 1.78635E+05-2.29903E-06
 -1       471-7.55520E-01 1.01936E+05 3.37017E+05 1.01715E-01 1.85510E+05-1.41273E+00
 -1       472 1.16522E+00 5.23248E+04 1.54510E+05-3.16825E-01 9.06079E+04 2.02645E+00
 -1       473 1.79026E+00 1.01783E+05 3.12779E+05-7.45126E-01 1.78635E+05 2.01089E+00
 -1       474-7.58995E-01 1.01934E+05 3.37021E+05-9.37642E-07 1.85510E+05-2.09446E-06
 -1       475 1.16050E+00 5.23260E+04 1.54505E+05 2.49079E-07 9.06086E+04-1.16772E-06
 -1       476 2.40491E+00 9.84593E+04 2.68046E+05-1.71407E-01 1.62603E+05 4.22077E+00
 -1       477 2.41841E+00 9.84647E+04 2.68037E+05-1.42257E-06 1.62606E+05-1.89356E-06
 -1       478-1.04084E+00 1.00102E+05 2.90395E+05 9.64164E-02 1.70627E+05-1.85212E+00
 -1       479 1.65914E+00 5.08263E+04 1.32259E+05-3.09882E-01 8.25162E+04 2.74011E+00
 -1       480 2.41166E+00 9.84620E+04 2.68042E+05-1.09990E+00 1.62605E+05 2.42674E+00
 -1       481-1.03547E+00 1.00100E+05 2.90400E+05-2.70509E-06 1.70626E+05-2.00514E-06
 -1       482 1.66192E+00 5.08283E+04 1.32253E+05-8.61788E-07 8.25175E+04-9.70991E-07
 -1       483 3.03378E+00 9.24106E+04 2.26768E+05-3.23456E-01 1.44860E+05 5.19483E+00
 -1       484 3.03718E+00 9.24187E+04 2.26757E+05 4.17472E-07 1.44865E+05-1.58921E-06
 -1       485-1.37161E+00 9.54217E+04 2.47381E+05 9.81637E-02 1.53744E+05-2.35021E+00
 -1       486 2.24293E+00 4.79398E+04 1.11724E+05-3.91425E-01 7.35775E+04 3.54138E+00
 -1       487 3.03548E+00 9.24146E+04 2.26763E+05-1.69172E+00 1.44863E+05 2.74350E+00
 -1       488-1.36316E+00 9.54184E+04 2.47387E+05 1.27376E-06 1.53743E+05-2.37209E-06
 -1       489 2.24493E+00 4.79431E+04 1.11717E+05 8.33433E-08 7.35800E+04-8.42646E-07
 -1       490 3.54291E+00 8.39285E+04 1.88583E+05-5.35015E-01 1.25868E+05 6.08442E+00
 -1       491 3.68184E+00 8.39416E+04 1.88574E+05-6.44899E-07 1.25875E+05-2.82560E-06
 -1       492-1.66802E+00 8.81628E+04 2.07643E+05 2.71747E-01 1.35382E+05-2.79819E+00
 -1       493 2.76766E+00 4.38149E+04 9.27219E+04-4.20611E-01 6.40233E+04 4.34125E+00
 -1       494 3.61238E+00 8.39351E+04 1.88579E+05-2.76734E+00 1.25872E+05 2.84243E+00
 -1       495-1.59687E+00 8.81578E+04 2.07648E+05-1.52433E-06 1.35379E+05-2.01621E-06
 -1       496 2.83342E+00 4.38208E+04 9.27155E+04-1.02540E-06 6.40279E+04-1.04649E-06
 -1       497 3.35741E+00 7.33430E+04 1.53087E+05-2.17014E+00 1.05987E+05 6.16373E+00
 -1       498 3.18618E+00 7.33617E+04 1.53080E+05 2.01674E-06 1.06001E+05-8.72360E-07
 -1       499-1.89191E+00 7.86381E+04 1.70794E+05 3.37181E-01 1.15956E+05-3.21608E+00
 -1       500 3.16992E+00 3.86179E+04 7.50510E+04-1.46887E+00 5.40341E+04 4.80805E+00
 -1       501 3.27180E+00 7.33524E+04 1.53083E+05-4.39934E+00 1.05994E+05 2.25681E+00
 -1       502-1.90803E+00 7.86298E+04 1.70798E+05-1.86063E-07 1.15950E+05-1.38050E-06
 -1       503 3.11918E+00 3.86275E+04 7.50461E+04 4.82642E-07 5.40430E+04-7.98343E-07
 -1       504 2.47484E+00 6.09821E+04 1.19853E+05-1.92006E+00 8.54939E+04 5.91212E+00
 -1       505 3.74825E+00 6.10184E+04 1.19852E+05-4.96773E-06 8.55180E+04-3.46646E-07
 -1       506-1.43060E+00 6.71791E+04 1.36421E+05 1.99218E+00 9.57849E+04-2.75453E+00
 -1       507 2.29706E+00 3.25213E+04 5.84945E+04-6.64315E-01 4.37490E+04 4.73581E+00
 -1       508 3.11154E+00 6.10003E+04 1.19852E+05-7.90072E+00 8.55060E+04 1.22479E+00
 -1       509-8.79630E-01 6.71682E+04 1.36423E+05 2.40365E-07 9.57750E+04-5.35396E-07
 -1       510 2.89690E+00 3.25396E+04 5.84939E+04-3.83131E-07 4.37640E+04-1.48665E-07
 -1       511-3.32457E+00 4.72511E+04 8.84098E+04-1.52538E+01 6.45927E+04-2.60799E-01
 -1       512-6.73707E+00 4.72814E+04 8.84258E+04-5.09067E-06 6.46374E+04-2.03766E-07
 -1       513-1.16107E+00 5.41533E+04 1.04080E+05 6.67071E-02 7.51141E+04-3.08659E+00
 -1       514 1.73811E+00 2.57090E+04 4.28301E+04-1.06620E+01 3.32680E+04 2.39397E+00
 -1       515-5.03082E+00 4.72663E+04 8.84178E+04-1.09471E+01 6.46150E+04-3.64491E+00
 -1       516-2.23019E+00 5.41279E+04 1.04079E+05-5.77100E-06 7.50992E+04-4.36088E-07
 -1       517 3.10239E-01 2.57324E+04 4.28356E+04-2.19379E-06 3.32976E+04-5.05004E-07
 -1       518-4.92811E+00 3.22963E+04 5.83985E+04 1.01715E+01 4.34338E+04 1.17818E+00
 -1       519 9.42875E+00 3.24397E+04 5.84069E+04 2.33867E-06 4.34896E+04 3.45888E-07
 -1       520 5.05376E+00 3.98467E+04 7.33673E+04 1.58519E+01 5.41246E+04 4.39065E+00
 -1       521-9.43815E+00 1.83385E+04 2.78237E+04 1.18704E+01 2.26803E+04-9.02274E-01
 -1       522 2.25032E+00 3.23680E+04 5.84027E+04-2.59005E+01 4.34617E+04-3.23742E+00
 -1       523 1.05244E+01 3.98390E+04 7.33522E+04 1.16009E-06 5.40933E+04-4.29872E-07
 -1       524-2.75336E+00 1.84038E+04 2.78456E+04 1.08680E-06 2.27154E+04-1.49719E-07
 -1       525-5.10557E+01 1.72317E+04 2.89618E+04-1.28658E+02 2.21114E+04-4.87537E+01
 -1       526-9.92065E+01 1.70879E+04 2.90986E+04 5.85786E-06 2.22571E+04-7.52947E-07
 -1       527-1.86099E+00 2.48704E+04 4.36937E+04-2.66272E+01 3.29474E+04-7.40051E+00
 -1       528 9.92549E-01 1.06689E+04 1.32564E+04-9.91717E+01 1.19970E+04-1.58669E+01
 -1       529-7.51311E+01 1.71598E+04 2.90302E+04-1.28547E+01 2.21842E+04-3.76679E+01
 -1       530-1.87528E+01 2.47411E+04 4.36954E+04 2.24637E-06 3.29225E+04 1.75986E-07
 -1       531-2.12458E+01 1.06736E+04 1.32804E+04 5.04013E-07 1.21064E+04 5.14251E-07
 -1       532 1.83531E+02 8.13927E+02 8.60989E+02 5.88556E+02 2.14007E+03 1.02614E+02
 -1       533 3.61444E+02 6.65344E+02 4.87617E+02-5.12142E-06 1.08973E+03-9.17394E-07
 -1       534 6.02498E+01 8.62601E+03 1.51825E+04 1.60250E+02 1.16881E+04 6.61961E+01
 -1       535-2.72182E+01 2.44104E+03-1.14211E+03 4.28080E+02 1.98715E+03-2.35832E+01
 -1       536 2.72488E+02 7.39636E+02 6.74303E+02 2.10539E+02 1.61490E+03 1.30663E+02
 -1       537 1.25127E+02 8.86989E+03 1.50557E+04-1.74967E-07 1.15619E+04-7.33872E-07
 -1       538 5.85348E+01 2.05757E+03-1.14055E+03-7.81682E-07 1.26020E+03-1.05212E-06
 -1       539-4.85633E-01-3.85560E+03 9.97859E+05 5.65419E-01 4.64563E+03-6.02798E-01
 -1       540 5.74459E-02 3.40328E+03 9.37488E+05 6.34034E-02 6.21661E+04 1.17764E-02
 -1       541-4.85633E-01-3.85629E+03 9.97859E+05 6.38549E-01 4.64614E+03-6.55702E-01
 -1       542 5.65271E-02 3.40330E+03 9.37488E+05 4.35863E-02 6.21663E+04-2.51543E-02
 -1       543-2.64742E-01-3.56131E+03 4.95120E+05 4.90328E-02 3.56183E+03-1.22756E-01
 -1       544-3.29188E-02-1.24868E+02 9.67618E+05-2.57923E-02 3.30950E+04-2.27839E-02
 -1       545 1.36616E-02-8.98789E+02 4.65182E+05 4.82036E-02 3.37213E+04 1.69673E-02
 -1       546 5.00188E-02 1.30908E+04 8.71147E+05 8.73540E-02 1.12540E+05-5.91347E-02
 -1       547 4.93583E-02 1.30908E+04 8.71147E+05 6.61677E-02 1.12541E+05-7.76328E-02
 -1       548-2.45888E-02 8.35795E+03 9.04314E+05-3.73267E-02 8.74873E+04 1.15585E-02
 -1       549 7.14450E-03 4.93614E+03 4.32276E+05 6.24979E-02 5.84583E+04-8.63661E-03
 -1       550 6.04803E-02 2.74021E+04 8.01832E+05 1.13830E-01 1.50893E+05-1.42167E-01
 -1       551 5.96427E-02 2.74022E+04 8.01832E+05 9.13242E-02 1.50893E+05-1.41784E-01
 -1       552-2.52843E-02 2.03335E+04 8.36514E+05-4.98119E-02 1.31798E+05 4.88138E-02
 -1       553 8.44545E-03 1.25307E+04 3.97781E+05 8.29589E-02 7.76152E+04-4.16271E-02
 -1       554 9.10110E-02 4.29364E+04 7.31567E+05 1.43074E-01 1.79111E+05-2.50521E-01
 -1       555 8.99915E-02 4.29365E+04 7.31567E+05 1.20533E-01 1.79112E+05-2.24682E-01
 -1       556-3.49199E-02 3.52022E+04 7.66726E+05-6.37539E-02 1.65040E+05 9.53675E-02
 -1       557 1.97749E-02 2.08078E+04 3.62832E+05 1.09978E-01 9.15843E+04-8.97287E-02
 -1       558 1.47583E-01 5.84009E+04 6.62173E+05 1.73789E-01 1.97927E+05-3.99142E-01
 -1       559 1.46256E-01 5.84011E+04 6.62172E+05 1.55085E-01 1.97928E+05-3.34564E-01
 -1       560-5.57451E-02 5.06728E+04 6.96886E+05-7.89250E-02 1.88535E+05 1.58025E-01
 -1       561 4.57154E-02 2.89621E+04 3.28302E+05 1.43248E-01 1.00881E+05-1.62552E-01
 -1       562 2.39638E-01 7.24768E+04 5.94931E+05 2.03073E-01 2.08582E+05-6.05794E-01
 -1       563 2.37921E-01 7.24770E+04 5.94930E+05 1.96531E-01 2.08582E+05-4.80675E-01
 -1       564-9.15070E-02 6.54244E+04 6.28558E+05-9.42957E-02 2.03259E+05 2.44892E-01
 -1       565 9.36168E-02 3.63812E+04 2.94849E+05 1.81401E-01 1.06088E+05-2.72550E-01
 -1       566 3.80601E-01 8.43237E+04 5.30771E+05 2.26567E-01 2.12244E+05-8.91326E-01
 -1       567 3.78430E-01 8.43241E+04 5.30770E+05 2.47439E-01 2.12245E+05-6.72822E-01
 -1       568-1.47939E-01 7.83771E+04 5.62851E+05-1.08071E-01 2.10413E+05 3.65545E-01
 -1       569 1.74318E-01 4.26379E+04 2.62931E+05 2.21761E-01 1.07805E+05-4.35520E-01
 -1       570 5.87766E-01 9.33814E+04 4.70275E+05 2.38741E-01 2.10073E+05-1.27934E+00
 -1       571 5.85203E-01 9.33819E+04 4.70273E+05 3.12806E-01 2.10073E+05-9.20214E-01
 -1       572-2.32795E-01 8.88261E+04 5.00518E+05-1.17838E-01 2.11158E+05 5.31076E-01
 -1       573 3.02594E-01 4.74593E+04 2.32840E+05 2.60019E-01 1.06610E+05-6.70818E-01
 -1       574 8.80975E-01 9.93514E+04 4.13750E+05 2.34937E-01 2.03132E+05-1.79404E+00
 -1       575 8.78156E-01 9.93522E+04 4.13747E+05 4.02311E-01 2.03132E+05-1.22901E+00
 -1       576-3.55701E-01 9.63400E+04 4.42004E+05-1.20767E-01 2.06603E+05 7.53665E-01
 -1       577 4.97103E-01 5.06990E+04 2.04726E+05 2.91110E-01 1.03037E+05-1.00050E+00
 -1       578 1.27935E+00 1.02134E+05 3.61281E+05 2.12554E-01 1.92377E+05-2.45625E+00
 -1       579 1.27725E+00 1.02135E+05 3.61277E+05 5.35162E-01 1.92377E+05-1.59821E+00
 -1       580-5.26946E-01 1.00718E+05 3.87503E+05-1.15555E-01 1.97757E+05 1.04469E+00
 -1       581 7.78343E-01 5.23109E+04 1.78631E+05 3.08756E-01 9.75647E+04-1.44707E+00
 -1       582 1.79164E+00 1.01781E+05 3.12783E+05 1.86616E-01 1.78634E+05-3.27104E+00
 -1       583 1.79026E+00 1.01783E+05 3.12779E+05 7.45122E-01 1.78635E+05-2.01089E+00
 -1       584-7.55520E-01 1.01936E+05 3.37017E+05-1.01718E-01 1.85510E+05 1.41273E+00
 -1       585 1.16522E+00 5.23248E+04 1.54510E+05 3.16822E-01 9.06079E+04-2.02646E+00
 -1       586 2.40491E+00 9.84593E+04 2.68046E+05 1.71403E-01 1.62603E+05-4.22077E+00
 -1       587 2.41166E+00 9.84620E+04 2.68042E+05 1.09990E+00 1.62605E+05-2.42674E+00
 -1       588-1.04084E+00 1.00102E+05 2.90395E+05-9.64204E-02 1.70627E+05 1.85212E+00
 -1       589 1.65914E+00 5.08263E+04 1.32259E+05 3.09882E-01 8.25162E+04-2.74011E+00
 -1       590 3.03378E+00 9.24106E+04 2.26768E+05 3.23457E-01 1.44860E+05-5.19483E+00
 -1       591 3.03548E+00 9.24146E+04 2.26763E+05 1.69172E+00 1.44863E+05-2.74350E+00
 -1       592-1.37161E+00 9.54217E+04 2.47381E+05-9.81661E-02 1.53744E+05 2.35021E+00
 -1       593 2.24293E+00 4.79398E+04 1.11724E+05 3.91425E-01 7.35775E+04-3.54138E+00
 -1       594 3.54291E+00 8.39285E+04 1.88583E+05 5.35013E-01 1.25868E+05-6.08442E+00
 -1       595 3.61238E+00 8.39351E+04 1.88579E+05 2.76733E+00 1.25872E+05-2.84243E+00
 -1       596-1.66802E+00 8.81628E+04 2.07643E+05-2.71750E-01 1.35382E+05 2.79819E+00
 -1       597 2.76766E+00 4.38149E+04 9.27219E+04 4.20609E-01 6.40233E+04-4.34125E+00
 -1       598 3.35741E+00 7.33430E+04 1.53087E+05 2.17013E+00 1.05987E+05-6.16373E+00
 -1       599 3.27180E+00 7.33524E+04 1.53083E+05 4.39933E+00 1.05994E+05-2.25681E+00
 -1       600-1.89191E+00 7.86381E+04 1.70794E+05-3.37185E-01 1.15956E+05 3.21608E+00
 -1       601 3.16992E+00 3.86179E+04 7.50510E+04 1.46887E+00 5.40341E+04-4.80805E+00
 -1       602 2.47484E+00 6.09821E+04 1.19853E+05 1.92006E+00 8.54939E+04-5.91212E+00
 -1       603 3.11154E+00 6.10003E+04 1.19852E+05 7.90072E+00 8.55060E+04-1.22479E+00
 -1       604-1.43060E+00 6.71791E+04 1.36421E+05-1.99219E+00 9.57849E+04 2.75453E+00
 -1       605 2.29706E+00 3.25213E+04 5.84945E+04 6.64311E-01 4.37490E+04-4.73581E+00
 -1       606-3.32457E+00 4.72511E+04 8.84098E+04 1.52538E+01 6.45927E+04 2.60795E-01
 -1       607-5.03082E+00 4.72663E+04 8.84178E+04 1.09471E+01 6.46150E+04 3.64491E+00
 -1       608-1.16107E+00 5.41533E+04 1.04080E+05-6.67093E-02 7.51141E+04 3.08658E+00
 -1       609 1.73811E+00 2.57090E+04 4.28301E+04 1.06620E+01 3.32680E+04-2.39397E+00
 -1       610-4.92811E+00 3.22963E+04 5.83985E+04-1.01715E+01 4.34338E+04-1.17818E+00
 -1       611 2.25031E+00 3.23680E+04 5.84027E+04 2.59005E+01 4.34617E+04 3.23742E+00
 -1       612 5.05376E+00 3.98467E+04 7.33673E+04-1.58520E+01 5.41246E+04-4.39066E+00
 -1       613-9.43815E+00 1.83385E+04 2.78237E+04-1.18704E+01 2.26803E+04 9.02274E-01
 -1       614-5.10557E+01 1.72317E+04 2.89618E+04 1.28658E+02 2.21114E+04 4.87537E+01
 -1       615-7.51311E+01 1.71598E+04 2.90302E+04 1.28547E+01 2.21842E+04 3.76679E+01
 -1       616-1.86099E+00 2.48704E+04 4.36937E+04 2.66272E+01 3.29474E+04 7.40051E+00
 -1       617 9.92549E-01 1.06689E+04 1.32564E+04 9.91717E+01 1.19970E+04 1.58669E+01
 -1       618 1.83531E+02 8.13927E+02 8.60989E+02-5.88556E+02 2.14007E+03-1.02614E+02
 -1       619 2.72488E+02 7.39636E+02 6.74303E+02-2.10539E+02 1.61490E+03-1.30663E+02
 -1       620 6.02498E+01 8.62601E+03 1.51825E+04-1.60250E+02 1.16881E+04-6.61961E+01
 -1       621-2.72182E+01 2.44104E+03-1.14211E+03-4.28080E+02 1.98715E+03 2.35832E+01
 -3
    1PSTEP                         7           4           1          
  100CL  104 2.00000E-01         621                     0    4           1
 -4  DISP        4    1
 -5  D1          1    2    1    0
 -5  D2          1    2    2    0
 -5  D3          1    2    3    0
 -5  ALL         1    2    0    0    1ALL
 -1         1 0.00000E+00 0.00000E+00 0.00000E+00
 -1         2 0.00000E+00 0.00000E+00 0.00000E+00
 -1         3 1.07358E-10 2.06156E-02-5.98861E-04
 -1         4 1.75763E-10 2.03685E-02-6.61865E-03
 -1         5 0.00000E+00 0.00000E+00 0.00000E+00
 -1         6 0.00000E+00 0.00000E+00 0.00000E+00
 -1         7 1.04662E-14 2.06156E-02-5.98862E-04
 -1         8 6.19118E-15 2.03685E-02-6.61865E-03
 -1         9 0.00000E+00 0.00000E+00 0.00000E+00
 -1        10-1.03080E-11 5.21763E-03-9.05221E-05
 -1        11 1.41773E-10 2.04913E-02-3.60742E-03
 -1        12-4.62341E-11 5.14944E-03-3.14788E-03
 -1        13 0.00000E+00 0.00000E+00 0.00000E+00
 -1        14 0.00000E+00 0.00000E+00 0.00000E+00
 -1        15 5.37309E-11 2.06156E-02-5.98861E-04
 -1        16 8.78773E-11 2.03685E-02-6.61865E-03
 -1        17 0.00000E+00 0.00000E+00 0.00000E+00
 -1        18 2.61693E-15 5.21763E-03-9.05218E-05
 -1        19 8.32334E-15 2.04913E-02-3.60742E-03
 -1        20 6.46601E-16 5.14945E-03-3.14788E-03
 -1        21 3.54132E-10 8.05953E-02-4.36232E-03
 -1        22 3.29050E-10 7.96716E-02-1.59953E-02
 -1        23 4.17083E-14 8.05953E-02-4.36232E-03
 -1        24 3.28918E-14 7.96716E-02-1.59953E-02
 -1        25-9.65299E-11 4.58584E-02-1.90821E-03
 -1        26 3.41831E-10 8.01331E-02-1.01778E-02
 -1        27-1.30090E-10 4.53197E-02-1.07849E-02
 -1        28 1.77103E-10 8.05953E-02-4.36232E-03
 -1        29 1.64524E-10 7.96716E-02-1.59953E-02
 -1        30 2.35152E-14 4.58584E-02-1.90821E-03
 -1        31 3.73311E-14 8.01331E-02-1.01778E-02
 -1        32 1.70637E-14 4.53197E-02-1.07849E-02
 -1        33 7.65998E-10 1.77128E-01-1.39031E-02
 -1        34 4.47436E-10 1.75185E-01-3.07256E-02
 -1        35 9.35647E-14 1.77128E-01-1.39031E-02
 -1        36 8.03824E-14 1.75185E-01-3.07256E-02
 -1        37-2.57099E-10 1.24473E-01-8.27016E-03
 -1        38 6.07069E-10 1.76156E-01-2.23133E-02
 -1        39-1.99815E-10 1.23077E-01-2.25501E-02
 -1        40 3.83049E-10 1.77128E-01-1.39031E-02
 -1        41 2.23725E-10 1.75185E-01-3.07256E-02
 -1        42 6.50983E-14 1.24473E-01-8.27015E-03
 -1        43 8.69202E-14 1.76156E-01-2.23133E-02
 -1        44 5.42587E-14 1.23077E-01-2.25501E-02
 -1        45 1.37863E-09 3.07317E-01-3.12664E-02
 -1        46 5.12333E-10 3.04093E-01-5.28479E-02
 -1        47 1.65021E-13 3.07317E-01-3.12664E-02
 -1        48 1.47786E-13 3.04093E-01-5.28479E-02
 -1        49-5.08395E-10 2.38198E-01-2.15001E-02
 -1        50 9.45973E-10 3.05705E-01-4.20561E-02
 -1        51-2.48856E-10 2.35643E-01-4.07550E-02
 -1        52 6.89377E-10 3.07317E-01-3.12664E-02
 -1        53 2.56184E-10 3.04093E-01-5.28479E-02
 -1        54 1.26829E-13 2.38198E-01-2.15001E-02
 -1        55 1.56488E-13 3.05705E-01-4.20561E-02
 -1        56 1.11618E-13 2.35643E-01-4.07550E-02
 -1        57 2.22778E-09 4.68259E-01-5.79770E-02
 -1        58 4.88330E-10 4.63564E-01-8.38906E-02
 -1        59 2.56191E-13 4.68259E-01-5.79770E-02
 -1        60 2.34880E-13 4.63564E-01-8.38906E-02
 -1        61-8.69780E-10 3.84125E-01-4.33768E-02
 -1        62 1.35874E-09 4.65912E-01-7.09328E-02
 -1        63-2.65272E-10 3.80185E-01-6.71767E-02
 -1        64 1.11396E-09 4.68259E-01-5.79770E-02
 -1        65 2.44189E-10 4.63564E-01-8.38906E-02
 -1        66 2.08245E-13 3.84125E-01-4.33768E-02
 -1        67 2.45590E-13 4.65912E-01-7.09328E-02
 -1        68 1.89040E-13 3.80185E-01-6.71767E-02
 -1        69 3.33379E-09 6.57096E-01-9.50935E-02
 -1        70 3.07232E-10 6.50806E-01-1.24923E-01
 -1        71 3.66001E-13 6.57096E-01-9.50935E-02
 -1        72 3.40506E-13 6.50806E-01-1.24923E-01
 -1        73-1.35771E-09 5.59366E-01-7.51849E-02
 -1        74 1.82145E-09 6.53951E-01-1.10007E-01
 -1        75-2.25713E-10 5.53886E-01-1.03107E-01
 -1        76 1.66696E-09 6.57096E-01-9.50935E-02
 -1        77 1.53637E-10 6.50806E-01-1.24923E-01
 -1        78 3.09042E-13 5.59366E-01-7.51849E-02
 -1        79 3.53229E-13 6.53951E-01-1.10007E-01
 -1        80 2.85857E-13 5.53886E-01-1.03107E-01
 -1        81 4.67675E-09 8.71069E-01-1.43263E-01
 -1        82-1.57593E-10 8.63115E-01-1.76610E-01
 -1        83 4.92244E-13 8.71069E-01-1.43263E-01
 -1        84 4.63532E-13 8.63115E-01-1.76610E-01
 -1        85-1.97618E-09 7.61109E-01-1.17771E-01
 -1        86 2.26087E-09 8.67092E-01-1.59935E-01
 -1        87-8.55030E-11 7.53993E-01-1.49407E-01
 -1        88 2.33842E-09 8.71069E-01-1.43263E-01
 -1        89-7.87966E-11 8.63115E-01-1.76610E-01
 -1        90 4.27033E-13 7.61109E-01-1.17771E-01
 -1        91 4.78205E-13 8.67092E-01-1.59935E-01
 -1        92 3.99363E-13 7.53993E-01-1.49407E-01
 -1        93 6.15752E-09 1.10754E+00-2.02776E-01
 -1        94-1.13172E-09 1.09790E+00-2.39260E-01
 -1        95 6.35877E-13 1.10754E+00-2.02776E-01
 -1        96 6.03471E-13 1.09790E+00-2.39260E-01
 -1        97-2.70141E-09 9.86652E-01-1.71596E-01
 -1        98 2.51469E-09 1.10272E+00-2.21017E-01
 -1        99 2.37096E-10 9.77857E-01-2.06557E-01
 -1       100 3.07876E-09 1.10754E+00-2.02776E-01
 -1       101-5.65913E-10 1.09790E+00-2.39260E-01
 -1       102 5.62202E-13 9.86652E-01-1.71596E-01
 -1       103 6.19769E-13 1.10272E+00-2.21017E-01
 -1       104 5.30493E-13 9.77857E-01-2.06557E-01
 -1       105 7.53952E-09 1.36402E+00-2.73618E-01
 -1       106-3.00110E-09 1.35273E+00-3.12883E-01
 -1       107 7.95005E-13 1.36402E+00-2.73618E-01
 -1       108 7.58736E-13 1.35273E+00-3.12883E-01
 -1       109-3.45813E-09 1.23343E+00-2.36792E-01
 -1       110 2.27154E-09 1.35837E+00-2.93250E-01
 -1       111 8.85655E-10 1.22296E+00-2.74710E-01
 -1       112 3.76972E-09 1.36402E+00-2.73618E-01
 -1       113-1.50068E-09 1.35273E+00-3.12883E-01
 -1       114 7.13800E-13 1.23343E+00-2.36792E-01
 -1       115 7.76637E-13 1.35837E+00-2.93250E-01
 -1       116 6.78760E-13 1.22296E+00-2.74710E-01
 -1       117 8.36721E-09 1.63817E+00-3.55516E-01
 -1       118-6.40439E-09 1.62528E+00-3.97228E-01
 -1       119 9.68361E-13 1.63817E+00-3.55516E-01
 -1       120 9.28689E-13 1.62528E+00-3.97228E-01
 -1       121-4.08508E-09 1.49903E+00-3.13211E-01
 -1       122 9.84982E-10 1.63172E+00-3.76372E-01
 -1       123 2.10224E-09 1.48692E+00-3.53740E-01
 -1       124 4.18349E-09 1.63817E+00-3.55516E-01
 -1       125-3.20247E-09 1.62528E+00-3.97228E-01
 -1       126 8.81332E-13 1.49903E+00-3.13211E-01
 -1       127 9.48473E-13 1.63172E+00-3.76372E-01
 -1       128 8.43613E-13 1.48692E+00-3.53740E-01
 -1       129 7.85899E-09 1.92782E+00-4.47983E-01
 -1       130-1.23556E-08 1.91340E+00-4.91831E-01
 -1       131 1.15396E-12 1.92782E+00-4.47983E-01
 -1       132 1.11311E-12 1.91340E+00-4.91831E-01
 -1       133-4.28790E-09 1.78119E+00-4.00466E-01
 -1       134-2.24509E-09 1.92061E+00-4.69906E-01
 -1       135 4.28308E-09 1.76752E+00-4.43284E-01
 -1       136 3.92942E-09 1.92782E+00-4.47983E-01
 -1       137-6.17814E-09 1.91340E+00-4.91831E-01
 -1       138 1.05933E-12 1.78119E+00-4.00466E-01
 -1       139 1.13329E-12 1.92061E+00-4.69906E-01
 -1       140 1.02144E-12 1.76752E+00-4.43284E-01
 -1       141 4.78360E-09 2.23093E+00-5.50352E-01
 -1       142-2.24347E-08 2.21510E+00-5.96047E-01
 -1       143 1.34933E-12 2.23093E+00-5.50352E-01
 -1       144 1.30647E-12 2.21510E+00-5.96047E-01
 -1       145-3.57880E-09 2.07781E+00-4.97977E-01
 -1       146-8.81517E-09 2.22302E+00-5.73199E-01
 -1       147 8.04589E-09 2.06268E+00-5.42784E-01
 -1       148 2.39169E-09 2.23093E+00-5.50352E-01
 -1       149-1.12181E-08 2.21510E+00-5.96047E-01
 -1       150 1.24984E-12 2.07781E+00-4.97977E-01
 -1       151 1.32786E-12 2.22302E+00-5.73199E-01
 -1       152 1.20832E-12 2.06268E+00-5.42784E-01
 -1       153-2.66626E-09 2.54561E+00-6.61813E-01
 -1       154-3.89249E-08 2.52852E+00-7.09088E-01
 -1       155 1.56212E-12 2.54561E+00-6.61813E-01
 -1       156 1.51625E-12 2.52851E+00-7.09088E-01
 -1       157-1.21378E-09 2.38694E+00-6.05001E-01
 -1       158-2.08044E-08 2.53707E+00-6.85450E-01
 -1       159 1.43521E-08 2.37046E+00-6.51519E-01
 -1       160-1.33229E-09 2.54561E+00-6.61813E-01
 -1       161-1.94619E-08 2.52852E+00-7.09088E-01
 -1       162 1.45531E-12 2.38694E+00-6.05001E-01
 -1       163 1.53893E-12 2.53707E+00-6.85450E-01
 -1       164 1.41051E-12 2.37046E+00-6.51519E-01
 -1       165-1.69231E-08 2.87013E+00-7.81438E-01
 -1       166-6.53251E-08 2.85190E+00-8.30043E-01
 -1       167 1.78308E-12 2.87013E+00-7.81438E-01
 -1       168 1.73356E-12 2.85190E+00-8.30043E-01
 -1       169 3.87444E-09 2.70675E+00-7.20667E-01
 -1       170-4.10497E-08 2.86102E+00-8.05740E-01
 -1       171 2.45266E-08 2.68906E+00-7.68637E-01
 -1       172-8.46142E-09 2.87013E+00-7.81438E-01
 -1       173-3.26670E-08 2.85190E+00-8.30043E-01
 -1       174 1.67042E-12 2.70675E+00-7.20667E-01
 -1       175 1.75768E-12 2.86102E+00-8.05740E-01
 -1       176 1.62417E-12 2.68906E+00-7.68637E-01
 -1       177-4.10042E-08 3.20285E+00-9.08208E-01
 -1       178-1.05534E-07 3.18364E+00-9.57909E-01
 -1       179 2.01028E-12 3.20285E+00-9.08208E-01
 -1       180 1.96069E-12 3.18364E+00-9.57909E-01
 -1       181 1.30478E-08 3.03557E+00-8.43997E-01
 -1       182-7.34952E-08 3.19325E+00-9.33058E-01
 -1       183 4.07341E-08 3.01682E+00-8.93178E-01
 -1       184-2.04942E-08 3.20285E+00-9.08208E-01
 -1       185-5.27503E-08 3.18364E+00-9.57909E-01
 -1       186 1.89591E-12 3.03557E+00-8.43997E-01
 -1       187 1.98534E-12 3.19325E+00-9.33058E-01
 -1       188 1.84811E-12 3.01682E+00-8.93178E-01
 -1       189-7.79024E-08 3.54224E+00-1.04103E+00
 -1       190-1.67803E-07 3.52222E+00-1.09161E+00
 -1       191 2.25237E-12 3.54224E+00-1.04103E+00
 -1       192 2.20491E-12 3.52222E+00-1.09161E+00
 -1       193 2.79948E-08 3.37180E+00-9.73932E-01
 -1       194-1.21919E-07 3.53223E+00-1.06632E+00
 -1       195 6.47504E-08 3.35217E+00-1.02410E+00
 -1       196-3.89574E-08 3.54224E+00-1.04103E+00
 -1       197-8.39620E-08 3.52222E+00-1.09161E+00
 -1       198 2.13224E-12 3.37180E+00-9.73933E-01
 -1       199 2.22894E-12 3.53223E+00-1.06632E+00
 -1       200 2.08671E-12 3.35217E+00-1.02410E+00
 -1       201-1.29989E-07 3.88686E+00-1.17875E+00
 -1       202-2.50120E-07 3.86620E+00-1.23000E+00
 -1       203 2.50172E-12 3.88686E+00-1.17875E+00
 -1       204 2.45261E-12 3.86620E+00-1.23000E+00
 -1       205 4.99299E-08 3.71398E+00-1.10935E+00
 -1       206-1.93490E-07 3.87653E+00-1.20437E+00
 -1       207 1.02904E-07 3.69362E+00-1.16029E+00
 -1       208-6.49384E-08 3.88686E+00-1.17875E+00
 -1       209-1.24813E-07 3.86620E+00-1.23000E+00
 -1       210 2.37309E-12 3.71398E+00-1.10935E+00
 -1       211 2.47705E-12 3.87653E+00-1.20437E+00
 -1       212 2.32715E-12 3.69362E+00-1.16029E+00
 -1       213-1.95247E-07 4.23534E+00-1.32018E+00
 -1       214-3.93574E-07 4.21422E+00-1.37190E+00
 -1       215 2.75051E-12 4.23534E+00-1.32018E+00
 -1       216 2.70625E-12 4.21422E+00-1.37190E+00
 -1       217 8.04032E-08 4.06070E+00-1.24908E+00
 -1       218-2.81208E-07 4.22478E+00-1.34604E+00
 -1       219 1.47426E-07 4.03979E+00-1.30059E+00
 -1       220-9.77197E-08 4.23534E+00-1.32018E+00
 -1       221-1.97698E-07 4.21422E+00-1.37190E+00
 -1       222 2.62364E-12 4.06070E+00-1.24908E+00
 -1       223 2.72885E-12 4.22478E+00-1.34604E+00
 -1       224 2.57378E-12 4.03979E+00-1.30059E+00
 -1       225-2.66953E-07 4.58636E+00-1.46410E+00
 -1       226-4.77287E-07 4.56497E+00-1.51610E+00
 -1       227 2.99978E-12 4.58636E+00-1.46410E+00
 -1       228 2.96190E-12 4.56497E+00-1.51610E+00
 -1       229 1.14460E-07 4.41061E+00-1.39190E+00
 -1       230-4.22047E-07 4.57567E+00-1.49010E+00
 -1       231 2.45055E-07 4.38934E+00-1.44379E+00
 -1       232-1.33113E-07 4.58636E+00-1.46410E+00
 -1       233-2.35090E-07 4.56497E+00-1.51610E+00
 -1       234 2.87711E-12 4.41061E+00-1.39190E+00
 -1       235 2.98044E-12 4.57567E+00-1.49010E+00
 -1       236 2.82948E-12 4.38934E+00-1.44379E+00
 -1       237-3.17394E-07 4.93865E+00-1.60927E+00
 -1       238-9.80070E-07 4.91717E+00-1.66136E+00
 -1       239 3.27031E-12 4.93865E+00-1.60927E+00
 -1       240 3.23664E-12 4.91717E+00-1.66136E+00
 -1       241 1.55638E-07 4.76243E+00-1.53660E+00
 -1       242-4.58591E-07 4.92791E+00-1.63531E+00
 -1       243 2.36103E-07 4.74097E+00-1.58868E+00
 -1       244-1.59326E-07 4.93865E+00-1.60927E+00
 -1       245-5.03500E-07 4.91717E+00-1.66136E+00
 -1       246 3.13385E-12 4.76243E+00-1.53660E+00
 -1       247 3.25376E-12 4.92791E+00-1.63531E+00
 -1       248 3.09338E-12 4.74097E+00-1.58868E+00
 -1       249 0.00000E+00 0.00000E+00 0.00000E+00
 -1       250 0.00000E+00 0.00000E+00 0.00000E+00
 -1       251-1.07337E-10 2.06156E-02-5.98861E-04
 -1       252-1.75751E-10 2.03685E-02-6.61865E-03
 -1       253 0.00000E+00 0.00000E+00 0.00000E+00
 -1       254 0.00000E+00 0.00000E+00 0.00000E+00
 -1       255-5.37100E-11 2.06156E-02-5.98861E-04
 -1       256-8.78649E-11 2.03685E-02-6.61865E-03
 -1       257 0.00000E+00 0.00000E+00 0.00000E+00
 -1       258 1.03132E-11 5.21763E-03-9.05221E-05
 -1       259-1.41756E-10 2.04913E-02-3.60742E-03
 -1       260 4.62354E-11 5.14944E-03-3.14788E-03
 -1       261-3.54049E-10 8.05953E-02-4.36232E-03
 -1       262-3.28984E-10 7.96716E-02-1.59953E-02
 -1       263-1.77020E-10 8.05953E-02-4.36232E-03
 -1       264-1.64458E-10 7.96716E-02-1.59953E-02
 -1       265 9.65769E-11 4.58584E-02-1.90821E-03
 -1       266-3.41756E-10 8.01331E-02-1.01778E-02
 -1       267 1.30124E-10 4.53197E-02-1.07849E-02
 -1       268-7.65811E-10 1.77128E-01-1.39031E-02
 -1       269-4.47275E-10 1.75185E-01-3.07256E-02
 -1       270-3.82862E-10 1.77128E-01-1.39031E-02
 -1       271-2.23564E-10 1.75185E-01-3.07256E-02
 -1       272 2.57229E-10 1.24473E-01-8.27016E-03
 -1       273-6.06895E-10 1.76156E-01-2.23133E-02
 -1       274 1.99923E-10 1.23077E-01-2.25501E-02
 -1       275-1.37830E-09 3.07317E-01-3.12664E-02
 -1       276-5.12037E-10 3.04093E-01-5.28479E-02
 -1       277-6.89047E-10 3.07317E-01-3.12664E-02
 -1       278-2.55888E-10 3.04093E-01-5.28479E-02
 -1       279 5.08649E-10 2.38198E-01-2.15001E-02
 -1       280-9.45659E-10 3.05705E-01-4.20561E-02
 -1       281 2.49079E-10 2.35643E-01-4.07550E-02
 -1       282-2.22727E-09 4.68259E-01-5.79770E-02
 -1       283-4.87860E-10 4.63564E-01-8.38906E-02
 -1       284-1.11344E-09 4.68259E-01-5.79770E-02
 -1       285-2.43719E-10 4.63564E-01-8.38906E-02
 -1       286 8.70196E-10 3.84125E-01-4.33768E-02
 -1       287-1.35824E-09 4.65912E-01-7.09328E-02
 -1       288 2.65650E-10 3.80185E-01-6.71767E-02
 -1       289-3.33305E-09 6.57096E-01-9.50935E-02
 -1       290-3.06551E-10 6.50806E-01-1.24923E-01
 -1       291-1.66623E-09 6.57096E-01-9.50935E-02
 -1       292-1.52956E-10 6.50806E-01-1.24923E-01
 -1       293 1.35833E-09 5.59366E-01-7.51849E-02
 -1       294-1.82075E-09 6.53951E-01-1.10007E-01
 -1       295 2.26285E-10 5.53886E-01-1.03107E-01
 -1       296-4.67576E-09 8.71069E-01-1.43263E-01
 -1       297 1.58520E-10 8.63115E-01-1.76610E-01
 -1       298-2.33743E-09 8.71069E-01-1.43263E-01
 -1       299 7.97241E-11 8.63115E-01-1.76610E-01
 -1       300 1.97704E-09 7.61109E-01-1.17771E-01
 -1       301-2.25991E-09 8.67092E-01-1.59935E-01
 -1       302 8.63017E-11 7.53993E-01-1.49407E-01
 -1       303-6.15624E-09 1.10754E+00-2.02776E-01
 -1       304 1.13293E-09 1.09790E+00-2.39260E-01
 -1       305-3.07749E-09 1.10754E+00-2.02776E-01
 -1       306 5.67120E-10 1.09790E+00-2.39260E-01
 -1       307 2.70253E-09 9.86652E-01-1.71596E-01
 -1       308-2.51345E-09 1.10272E+00-2.21017E-01
 -1       309-2.36036E-10 9.77857E-01-2.06557E-01
 -1       310-7.53793E-09 1.36402E+00-2.73618E-01
 -1       311 3.00262E-09 1.35273E+00-3.12883E-01
 -1       312-3.76813E-09 1.36402E+00-2.73618E-01
 -1       313 1.50220E-09 1.35273E+00-3.12883E-01
 -1       314 3.45956E-09 1.23343E+00-2.36792E-01
 -1       315-2.26998E-09 1.35837E+00-2.93250E-01
 -1       316-8.84298E-10 1.22296E+00-2.74710E-01
 -1       317-8.36527E-09 1.63817E+00-3.55516E-01
 -1       318 6.40625E-09 1.62528E+00-3.97228E-01
 -1       319-4.18156E-09 1.63817E+00-3.55516E-01
 -1       320 3.20432E-09 1.62528E+00-3.97228E-01
 -1       321 4.08684E-09 1.49903E+00-3.13211E-01
 -1       322-9.83084E-10 1.63172E+00-3.76372E-01
 -1       323-2.10055E-09 1.48692E+00-3.53740E-01
 -1       324-7.85668E-09 1.92782E+00-4.47983E-01
 -1       325 1.23579E-08 1.91340E+00-4.91831E-01
 -1       326-3.92711E-09 1.92782E+00-4.47983E-01
 -1       327 6.18037E-09 1.91340E+00-4.91831E-01
 -1       328 4.29001E-09 1.78119E+00-4.00466E-01
 -1       329 2.24736E-09 1.92061E+00-4.69906E-01
 -1       330-4.28104E-09 1.76752E+00-4.43284E-01
 -1       331-4.78090E-09 2.23093E+00-5.50352E-01
 -1       332 2.24373E-08 2.21510E+00-5.96047E-01
 -1       333-2.38899E-09 2.23093E+00-5.50352E-01
 -1       334 1.12207E-08 2.21510E+00-5.96047E-01
 -1       335 3.58130E-09 2.07781E+00-4.97977E-01
 -1       336 8.81783E-09 2.22302E+00-5.73199E-01
 -1       337-8.04348E-09 2.06268E+00-5.42784E-01
 -1       338 2.66939E-09 2.54561E+00-6.61813E-01
 -1       339 3.89279E-08 2.52852E+00-7.09088E-01
 -1       340 1.33542E-09 2.54561E+00-6.61813E-01
 -1       341 1.94649E-08 2.52852E+00-7.09088E-01
 -1       342 1.21669E-09 2.38694E+00-6.05001E-01
 -1       343 2.08074E-08 2.53707E+00-6.85450E-01
 -1       344-1.43492E-08 2.37046E+00-6.51519E-01
 -1       345 1.69267E-08 2.87013E+00-7.81438E-01
 -1       346 6.53285E-08 2.85190E+00-8.30043E-01
 -1       347 8.46499E-09 2.87013E+00-7.81438E-01
 -1       348 3.26705E-08 2.85190E+00-8.30043E-01
 -1       349-3.87110E-09 2.70675E+00-7.20667E-01
 -1       350 4.10532E-08 2.86102E+00-8.05740E-01
 -1       351-2.45233E-08 2.68906E+00-7.68637E-01
 -1       352 4.10083E-08 3.20285E+00-9.08208E-01
 -1       353 1.05538E-07 3.18364E+00-9.57909E-01
 -1       354 2.04983E-08 3.20285E+00-9.08208E-01
 -1       355 5.27542E-08 3.18364E+00-9.57909E-01
 -1       356-1.30440E-08 3.03557E+00-8.43997E-01
 -1       357 7.34992E-08 3.19325E+00-9.33058E-01
 -1       358-4.07304E-08 3.01682E+00-8.93178E-01
 -1       359 7.79069E-08 3.54224E+00-1.04103E+00
 -1       360 1.67808E-07 3.52222E+00-1.09161E+00
 -1       361 3.89619E-08 3.54224E+00-1.04103E+00
 -1       362 8.39664E-08 3.52222E+00-1.09161E+00
 -1       363-2.79906E-08 3.37180E+00-9.73932E-01
 -1       364 1.21923E-07 3.53223E+00-1.06632E+00
 -1       365-6.47462E-08 3.35217E+00-1.02410E+00
 -1       366 1.29994E-07 3.88686E+00-1.17875E+00
 -1       367 2.50125E-07 3.86620E+00-1.23000E+00
 -1       368 6.49434E-08 3.88686E+00-1.17875E+00
 -1       369 1.24818E-07 3.86620E+00-1.23000E+00
 -1       370-4.99251E-08 3.71398E+00-1.10935E+00
 -1       371 1.93495E-07 3.87653E+00-1.20437E+00
 -1       372-1.02900E-07 3.69362E+00-1.16029E+00
 -1       373 1.95253E-07 4.23534E+00-1.32018E+00
 -1       374 3.93580E-07 4.21422E+00-1.37190E+00
 -1       375 9.77252E-08 4.23534E+00-1.32018E+00
 -1       376 1.97703E-07 4.21422E+00-1.37190E+00
 -1       377-8.03979E-08 4.06070E+00-1.24908E+00
 -1       378 2.81214E-07 4.22478E+00-1.34604E+00
 -1       379-1.47421E-07 4.03979E+00-1.30059E+00
 -1       380 2.66959E-07 4.58636E+00-1.46410E+00
 -1       381 4.77293E-07 4.56497E+00-1.51610E+00
 -1       382 1.33119E-07 4.58636E+00-1.46410E+00
 -1       383 2.35096E-07 4.56497E+00-1.51610E+00
 -1       384-1.14454E-07 4.41061E+00-1.39190E+00
 -1       385 4.22053E-07 4.57567E+00-1.49010E+00
 -1       386-2.45050E-07 4.38934E+00-1.44379E+00
 -1       387 3.17401E-07 4.93865E+00-1.60927E+00
 -1       388 9.80077E-07 4.91717E+00-1.66136E+00
 -1       389 1.59332E-07 4.93865E+00-1.60927E+00
 -1       390 5.03507E-07 4.91717E+00-1.66136E+00
 -1       391-1.55632E-07 4.76243E+00-1.53660E+00
 -1       392 4.58598E-07 4.92791E+00-1.63531E+00
 -1       393-2.36097E-07 4.74097E+00-1.58868E+00
 -1       394 0.00000E+00 0.00000E+00 0.00000E+00
 -1       395 6.28111E-10 2.08628E-02 5.41899E-03
 -1       396 0.00000E+00 0.00000E+00 0.00000E+00
 -1       397 1.47071E-14 2.08628E-02 5.41899E-03
 -1       398 0.00000E+00 0.00000E+00 0.00000E+00
 -1       399-1.89007E-10 5.28567E-03 2.96778E-03
 -1       400 3.67548E-10 2.07399E-02 2.40876E-03
 -1       401 0.00000E+00 0.00000E+00 0.00000E+00
 -1       402 3.13916E-10 2.08628E-02 5.41899E-03
 -1       403 0.00000E+00 0.00000E+00 0.00000E+00
 -1       404 4.59411E-15 5.28568E-03 2.96778E-03
 -1       405 1.25807E-14 2.07399E-02 2.40876E-03
 -1       406 1.03321E-09 8.15189E-02 7.26866E-03
 -1       407 5.04945E-14 8.15189E-02 7.26867E-03
 -1       408-4.40153E-10 4.63972E-02 6.96927E-03
 -1       409 6.93421E-10 8.10574E-02 1.45218E-03
 -1       410 5.16517E-10 8.15189E-02 7.26867E-03
 -1       411 2.99810E-14 4.63972E-02 6.96927E-03
 -1       412 4.61403E-14 8.10574E-02 1.45218E-03
 -1       413 1.23757E-09 1.79070E-01 2.91793E-03
 -1       414 1.06605E-13 1.79070E-01 2.91794E-03
 -1       415-5.93796E-10 1.25868E-01 6.01044E-03
 -1       416 1.00140E-09 1.78099E-01-5.49367E-03
 -1       417 6.18690E-10 1.79070E-01 2.91794E-03
 -1       418 7.60264E-14 1.25868E-01 6.01044E-03
 -1       419 1.00010E-13 1.78099E-01-5.49367E-03
 -1       420 1.19312E-09 3.10541E-01-9.68579E-03
 -1       421 1.82274E-13 3.10541E-01-9.68578E-03
 -1       422-6.44311E-10 2.40753E-01-2.24484E-03
 -1       423 1.28533E-09 3.08930E-01-2.04771E-02
 -1       424 5.96466E-10 3.10541E-01-9.68579E-03
 -1       425 1.42143E-13 2.40753E-01-2.24485E-03
 -1       426 1.73725E-13 3.08930E-01-2.04771E-02
 -1       427 7.68122E-10 4.72954E-01-3.20640E-02
 -1       428 2.77687E-13 4.72954E-01-3.20640E-02
 -1       429-5.49244E-10 3.88064E-01-1.95767E-02
 -1       430 1.49718E-09 4.70606E-01-4.50215E-02
 -1       431 3.83957E-10 4.72954E-01-3.20640E-02
 -1       432 2.27616E-13 3.88064E-01-1.95767E-02
 -1       433 2.67000E-13 4.70606E-01-4.50215E-02
 -1       434-2.79765E-10 6.63386E-01-6.52641E-02
 -1       435 3.91694E-13 6.63386E-01-6.52641E-02
 -1       436-2.19319E-10 5.64846E-01-4.72624E-02
 -1       437 1.52595E-09 6.60241E-01-8.01798E-02
 -1       438-1.40005E-10 6.63386E-01-6.52641E-02
 -1       439 3.32264E-13 5.64846E-01-4.72624E-02
 -1       440 3.78923E-13 6.60241E-01-8.01798E-02
 -1       441-2.34593E-09 8.79022E-01-1.09917E-01
 -1       442 5.21433E-13 8.79022E-01-1.09917E-01
 -1       443 4.98542E-10 7.68225E-01-8.61338E-02
 -1       444 1.16397E-09 8.75045E-01-1.26591E-01
 -1       445-1.17311E-09 8.79022E-01-1.09917E-01
 -1       446 4.54531E-13 7.68225E-01-8.61338E-02
 -1       447 5.07062E-13 8.75045E-01-1.26591E-01
 -1       448-6.03876E-09 1.11718E+00-1.66292E-01
 -1       449 6.68564E-13 1.11718E+00-1.66292E-01
 -1       450 1.84671E-09 9.95446E-01-1.36634E-01
 -1       451 5.73878E-11 1.11236E+00-1.84535E-01
 -1       452-3.01953E-09 1.11718E+00-1.66292E-01
 -1       453 5.93680E-13 9.95446E-01-1.36634E-01
 -1       454 6.52355E-13 1.11236E+00-1.84535E-01
 -1       455-1.22583E-08 1.37532E+00-2.34353E-01
 -1       456 8.31068E-13 1.37532E+00-2.34353E-01
 -1       457 4.19137E-09 1.24390E+00-1.98875E-01
 -1       458-2.36191E-09 1.36967E+00-2.53987E-01
 -1       459-6.12929E-09 1.37532E+00-2.34353E-01
 -1       460 7.48361E-13 1.24390E+00-1.98875E-01
 -1       461 8.12957E-13 1.36967E+00-2.53987E-01
 -1       462-2.22871E-08 1.65107E+00-3.13805E-01
 -1       463 1.00801E-12 1.65107E+00-3.13804E-01
 -1       464 8.06680E-09 1.51113E+00-2.72682E-01
 -1       465-6.96384E-09 1.64462E+00-3.34661E-01
 -1       466-1.11435E-08 1.65107E+00-3.13805E-01
 -1       467 9.19339E-13 1.51113E+00-2.72682E-01
 -1       468 9.87622E-13 1.64462E+00-3.34661E-01
 -1       469-3.78890E-08 1.94223E+00-4.04135E-01
 -1       470 1.19330E-12 1.94223E+00-4.04135E-01
 -1       471 1.42221E-08 1.79486E+00-3.57649E-01
 -1       472-1.50182E-08 1.93503E+00-4.26059E-01
 -1       473-1.89443E-08 1.94223E+00-4.04135E-01
 -1       474 1.09989E-12 1.79486E+00-3.57649E-01
 -1       475 1.17341E-12 1.93503E+00-4.26059E-01
 -1       476-6.13483E-08 2.24675E+00-5.04656E-01
 -1       477 1.39144E-12 2.24675E+00-5.04656E-01
 -1       478 2.36737E-08 2.09294E+00-4.53170E-01
 -1       479-2.82938E-08 2.23884E+00-5.27505E-01
 -1       480-3.06725E-08 2.24675E+00-5.04656E-01
 -1       481 1.29093E-12 2.09294E+00-4.53170E-01
 -1       482 1.37031E-12 2.23884E+00-5.27505E-01
 -1       483-9.55112E-08 2.56272E+00-6.14538E-01
 -1       484 1.60634E-12 2.56272E+00-6.14538E-01
 -1       485 3.76918E-08 2.40341E+00-5.58483E-01
 -1       486-4.90771E-08 2.55416E+00-6.38176E-01
 -1       487-4.77545E-08 2.56272E+00-6.14538E-01
 -1       488 1.49849E-12 2.40341E+00-5.58484E-01
 -1       489 1.58401E-12 2.55416E+00-6.38176E-01
 -1       490-1.43229E-07 2.88837E+00-7.32834E-01
 -1       491 1.83092E-12 2.88837E+00-7.32834E-01
 -1       492 5.78603E-08 2.72444E+00-6.72697E-01
 -1       493-8.01602E-08 2.87925E+00-7.57137E-01
 -1       494-7.16024E-08 2.88837E+00-7.32834E-01
 -1       495 1.71804E-12 2.72444E+00-6.72697E-01
 -1       496 1.80683E-12 2.87925E+00-7.57137E-01
 -1       497-2.07729E-07 3.22206E+00-8.58508E-01
 -1       498 2.06140E-12 3.22206E+00-8.58507E-01
 -1       499 8.54444E-08 3.05431E+00-7.94816E-01
 -1       500-1.24110E-07 3.21246E+00-8.83358E-01
 -1       501-1.03876E-07 3.22206E+00-8.58507E-01
 -1       502 1.94598E-12 3.05431E+00-7.94816E-01
 -1       503 2.03611E-12 3.21246E+00-8.83358E-01
 -1       504-2.87036E-07 3.56226E+00-9.90450E-01
 -1       505 2.30027E-12 3.56226E+00-9.90450E-01
 -1       506 1.22462E-07 3.39144E+00-9.23766E-01
 -1       507-1.83499E-07 3.55225E+00-1.01574E+00
 -1       508-1.43418E-07 3.56226E+00-9.90450E-01
 -1       509 2.17885E-12 3.39144E+00-9.23766E-01
 -1       510 2.27645E-12 3.55225E+00-1.01574E+00
 -1       511-3.85942E-07 3.90752E+00-1.12750E+00
 -1       512 2.54980E-12 3.90752E+00-1.12750E+00
 -1       513 1.64791E-07 3.73434E+00-1.05841E+00
 -1       514-2.54256E-07 3.89719E+00-1.15313E+00
 -1       515-1.93222E-07 3.90752E+00-1.12750E+00
 -1       516 2.42149E-12 3.73434E+00-1.05841E+00
 -1       517 2.52580E-12 3.89719E+00-1.15312E+00
 -1       518-4.54779E-07 4.25646E+00-1.26846E+00
 -1       519 2.79644E-12 4.25645E+00-1.26846E+00
 -1       520 2.21961E-07 4.08161E+00-1.19757E+00
 -1       521-3.38954E-07 4.24590E+00-1.29432E+00
 -1       522-2.26308E-07 4.25646E+00-1.26846E+00
 -1       523 2.67394E-12 4.08161E+00-1.19757E+00
 -1       524 2.77324E-12 4.24590E+00-1.29432E+00
 -1       525-5.87646E-07 4.60776E+00-1.41210E+00
 -1       526 3.04392E-12 4.60776E+00-1.41210E+00
 -1       527 2.32638E-07 4.43189E+00-1.34002E+00
 -1       528-3.75725E-07 4.59706E+00-1.43810E+00
 -1       529-2.97370E-07 4.60776E+00-1.41210E+00
 -1       530 2.92425E-12 4.43189E+00-1.34002E+00
 -1       531 3.02226E-12 4.59706E+00-1.43810E+00
 -1       532-2.31676E-07 4.96014E+00-1.55717E+00
 -1       533 3.30794E-12 4.96014E+00-1.55717E+00
 -1       534 3.60604E-07 4.78389E+00-1.48453E+00
 -1       535-4.66904E-07 4.94939E+00-1.58322E+00
 -1       536-1.02776E-07 4.96014E+00-1.55717E+00
 -1       537 3.17207E-12 4.78389E+00-1.48453E+00
 -1       538 3.28958E-12 4.94939E+00-1.58322E+00
 -1       539 0.00000E+00 0.00000E+00 0.00000E+00
 -1       540-6.28082E-10 2.08628E-02 5.41899E-03
 -1       541 0.00000E+00 0.00000E+00 0.00000E+00
 -1       542-3.13886E-10 2.08628E-02 5.41899E-03
 -1       543 0.00000E+00 0.00000E+00 0.00000E+00
 -1       544 1.89016E-10 5.28567E-03 2.96778E-03
 -1       545-3.67523E-10 2.07399E-02 2.40876E-03
 -1       546-1.03311E-09 8.15189E-02 7.26866E-03
 -1       547-5.16416E-10 8.15189E-02 7.26867E-03
 -1       548 4.40213E-10 4.63972E-02 6.96927E-03
 -1       549-6.93329E-10 8.10574E-02 1.45218E-03
 -1       550-1.23736E-09 1.79070E-01 2.91793E-03
 -1       551-6.18477E-10 1.79070E-01 2.91794E-03
 -1       552 5.93948E-10 1.25868E-01 6.01044E-03
 -1       553-1.00120E-09 1.78099E-01-5.49367E-03
 -1       554-1.19275E-09 3.10541E-01-9.68579E-03
 -1       555-5.96102E-10 3.10541E-01-9.68579E-03
 -1       556 6.44595E-10 2.40753E-01-2.24484E-03
 -1       557-1.28498E-09 3.08930E-01-2.04771E-02
 -1       558-7.67567E-10 4.72954E-01-3.20640E-02
 -1       559-3.83401E-10 4.72954E-01-3.20640E-02
 -1       560 5.49699E-10 3.88064E-01-1.95767E-02
 -1       561-1.49665E-09 4.70606E-01-4.50215E-02
 -1       562 2.80548E-10 6.63386E-01-6.52641E-02
 -1       563 1.40788E-10 6.63386E-01-6.52641E-02
 -1       564 2.19984E-10 5.64846E-01-4.72624E-02
 -1       565-1.52519E-09 6.60241E-01-8.01798E-02
 -1       566 2.34697E-09 8.79022E-01-1.09917E-01
 -1       567 1.17415E-09 8.79022E-01-1.09917E-01
 -1       568-4.97633E-10 7.68225E-01-8.61338E-02
 -1       569-1.16295E-09 8.75045E-01-1.26591E-01
 -1       570 6.04009E-09 1.11718E+00-1.66292E-01
 -1       571 3.02087E-09 1.11718E+00-1.66292E-01
 -1       572-1.84552E-09 9.95446E-01-1.36634E-01
 -1       573-5.60835E-11 1.11236E+00-1.84535E-01
 -1       574 1.22600E-08 1.37532E+00-2.34353E-01
 -1       575 6.13095E-09 1.37532E+00-2.34353E-01
 -1       576-4.18987E-09 1.24390E+00-1.98875E-01
 -1       577 2.36354E-09 1.36967E+00-2.53987E-01
 -1       578 2.22891E-08 1.65107E+00-3.13805E-01
 -1       579 1.11455E-08 1.65107E+00-3.13805E-01
 -1       580-8.06496E-09 1.51113E+00-2.72682E-01
 -1       581 6.96582E-09 1.64462E+00-3.34661E-01
 -1       582 3.78914E-08 1.94223E+00-4.04135E-01
 -1       583 1.89466E-08 1.94223E+00-4.04135E-01
 -1       584-1.42199E-08 1.79486E+00-3.57649E-01
 -1       585 1.50205E-08 1.93503E+00-4.26059E-01
 -1       586 6.13511E-08 2.24675E+00-5.04656E-01
 -1       587 3.06753E-08 2.24675E+00-5.04656E-01
 -1       588-2.36711E-08 2.09294E+00-4.53170E-01
 -1       589 2.82966E-08 2.23884E+00-5.27505E-01
 -1       590 9.55145E-08 2.56272E+00-6.14538E-01
 -1       591 4.77578E-08 2.56272E+00-6.14538E-01
 -1       592-3.76888E-08 2.40341E+00-5.58483E-01
 -1       593 4.90802E-08 2.55416E+00-6.38176E-01
 -1       594 1.43232E-07 2.88837E+00-7.32834E-01
 -1       595 7.16061E-08 2.88837E+00-7.32834E-01
 -1       596-5.78568E-08 2.72444E+00-6.72697E-01
 -1       597 8.01638E-08 2.87925E+00-7.57137E-01
 -1       598 2.07733E-07 3.22206E+00-8.58508E-01
 -1       599 1.03880E-07 3.22206E+00-8.58507E-01
 -1       600-8.54405E-08 3.05431E+00-7.94816E-01
 -1       601 1.24114E-07 3.21246E+00-8.83358E-01
 -1       602 2.87041E-07 3.56226E+00-9.90450E-01
 -1       603 1.43423E-07 3.56226E+00-9.90450E-01
 -1       604-1.22458E-07 3.39144E+00-9.23766E-01
 -1       605 1.83503E-07 3.55225E+00-1.01574E+00
 -1       606 3.85947E-07 3.90752E+00-1.12750E+00
 -1       607 1.93227E-07 3.90752E+00-1.12750E+00
 -1       608-1.64786E-07 3.73434E+00-1.05841E+00
 -1       609 2.54262E-07 3.89719E+00-1.15313E+00
 -1       610 4.54784E-07 4.25646E+00-1.26846E+00
 -1       611 2.26314E-07 4.25646E+00-1.26846E+00
 -1       612-2.21956E-07 4.08161E+00-1.19757E+00
 -1       613 3.38960E-07 4.24590E+00-1.29432E+00
 -1       614 5.87652E-07 4.60776E+00-1.41210E+00
 -1       615 2.97376E-07 4.60776E+00-1.41210E+00
 -1       616-2.32632E-07 4.43189E+00-1.34002E+00
 -1       617 3.75731E-07 4.59706E+00-1.43810E+00
 -1       618 2.31683E-07 4.96014E+00-1.55717E+00
 -1       619 1.02782E-07 4.96014E+00-1.55717E+00
 -1       620-3.60597E-07 4.78389E+00-1.48453E+00
 -1       621 4.66911E-07 4.94939E+00-1.58322E+00
 -3
    1PSTEP                         8           4           1          
  100CL  104 2.00000E-01         621                     0    4           1
 -4  STRESS      6    1
 -5  SXX         1    4    1    1
 -5  SYY         1    4    2    2
 -5  SZZ         1    4    3    3
 -5  SXY         1    4    1    2
 -5  SYZ         1    4    2    3
 -5  SZX         1    4    3    1
 -1         1-1.80843E-01-4.24696E+03-1.23105E+06-9.45251E-01 6.69475E+02 2.72555E-01
 -1         2-8.58159E-02-5.30181E+03-1.17536E+04 3.72613E-01 3.60950E+03-5.36406E-01
 -1         3-4.64320E-02-8.09763E+03-1.10711E+04-1.93852E-02 6.86892E+03-3.59275E-02
 -1         4 7.47765E-03-6.90633E+03-1.15042E+06 7.91777E-03-9.51105E+04 4.61063E-03
 -1         5-1.80843E-01-4.24530E+03-1.23105E+06 2.78354E-08 6.69249E+02-2.58339E-07
 -1         6-8.58159E-02-5.30169E+03-1.17532E+04 4.24100E-08 3.60960E+03-1.01257E-08
 -1         7-4.56891E-02-8.09768E+03-1.10707E+04-4.90569E-09 6.86886E+03-4.28871E-09
 -1         8 7.36013E-03-6.90621E+03-1.15042E+06-7.83806E-08-9.51103E+04-5.15230E-07
 -1         9-1.32986E-01-4.80427E+03-6.21302E+05-3.42546E-01 2.33102E+03-1.29603E-01
 -1        10 2.18177E-02-6.42099E+03-1.11262E+04 8.94902E-03 5.22094E+03 8.83157E-03
 -1        11-1.94325E-02-7.51474E+03-5.80702E+05 8.95056E-03-4.41755E+04-1.60968E-02
 -1        12-2.89734E-03-5.18113E+03-1.19125E+06-9.51008E-03-4.67940E+04 5.62020E-04
 -1        13-1.80843E-01-4.24613E+03-1.23105E+06-9.28522E-01 6.69362E+02 2.89851E-01
 -1        14-8.58159E-02-5.30175E+03-1.17534E+04 3.31380E-01 3.60955E+03-5.28042E-01
 -1        15-4.60605E-02-8.09765E+03-1.10709E+04-1.11429E-02 6.86889E+03-1.82599E-02
 -1        16 7.41889E-03-6.90627E+03-1.15042E+06 1.22917E-03-9.51104E+04 2.14110E-02
 -1        17-1.32986E-01-4.80263E+03-6.21302E+05 4.00756E-08 2.33056E+03-1.35934E-07
 -1        18 2.21892E-02-6.42097E+03-1.11264E+04 1.82026E-08 5.22099E+03-7.06963E-09
 -1        19-1.91178E-02-7.51471E+03-5.80702E+05-4.32242E-08-4.41754E+04-2.23389E-07
 -1        20-2.95609E-03-5.18115E+03-1.19125E+06-2.33365E-08-4.67942E+04-3.84096E-07
 -1        21-5.48625E-02-4.86222E+03-1.02668E+04-2.83464E-02 5.60430E+03-6.95897E-02
 -1        22 1.15092E-02-2.73762E+04-1.05866E+06-1.20315E-02-1.68856E+05 1.99415E-02
 -1        23-5.46053E-02-4.86230E+03-1.02665E+04 1.95113E-08 5.60429E+03-2.14869E-09
 -1        24 1.12254E-02-2.73759E+04-1.05866E+06-9.57712E-08-1.68856E+05-4.55767E-07
 -1        25 2.48012E-02-6.29038E+03-1.06895E+04 1.12161E-02 6.21301E+03 2.64619E-02
 -1        26-2.15968E-02-1.61181E+04-5.34449E+05-4.57948E-03-8.16485E+04-2.76189E-02
 -1        27-4.83635E-03-1.69569E+04-1.10446E+06 1.23073E-03-1.32342E+05-5.84131E-03
 -1        28-5.47339E-02-4.86226E+03-1.02667E+04-1.57148E-02 5.60429E+03-3.82338E-02
 -1        29 1.13673E-02-2.73761E+04-1.05866E+06-1.88136E-02-1.68856E+05 3.54087E-02
 -1        30 2.53014E-02-6.29035E+03-1.06897E+04 6.97630E-09 6.21303E+03-5.17353E-09
 -1        31-2.16089E-02-1.61180E+04-5.34449E+05-4.18906E-09-8.16484E+04-2.07784E-07
 -1        32-5.03702E-03-1.69570E+04-1.10446E+06-7.01707E-08-1.32342E+05-4.94789E-07
 -1        33-6.67686E-02-3.45213E+03-9.68171E+03-4.65553E-02 5.45592E+03-9.97514E-02
 -1        34 1.76584E-02-5.26909E+04-9.61100E+05-3.00914E-02-2.25011E+05 4.18820E-02
 -1        35-6.67152E-02-3.45223E+03-9.68134E+03-1.01418E-07 5.45595E+03-2.63821E-08
 -1        36 1.71279E-02-5.26905E+04-9.61101E+05 9.72703E-08-2.25010E+05-5.08886E-07
 -1        37 3.03295E-02-4.08613E+03-1.00165E+04 1.80834E-02 5.47630E+03 4.24553E-02
 -1        38-2.44016E-02-2.80744E+04-4.85376E+05-1.93906E-02-1.09781E+05-3.47560E-02
 -1        39-7.13533E-03-4.00261E+04-1.00976E+06 1.05575E-02-1.97149E+05-1.50281E-02
 -1        40-6.67419E-02-3.45218E+03-9.68152E+03-2.41916E-02 5.45593E+03-5.27683E-02
 -1        41 1.73931E-02-5.26907E+04-9.61101E+05-3.89428E-02-2.25010E+05 5.50301E-02
 -1        42 3.04848E-02-4.08609E+03-1.00167E+04-1.82355E-08 5.47630E+03-7.08647E-09
 -1        43-2.46388E-02-2.80742E+04-4.85376E+05-8.53716E-08-1.09781E+05-2.27940E-07
 -1        44-7.54246E-03-4.00262E+04-1.00975E+06-2.04892E-08-1.97149E+05-4.68745E-07
 -1        45-7.86426E-02-1.84358E+03-9.04258E+03-7.41486E-02 4.94878E+03-1.24123E-01
 -1        46 2.93911E-02-8.06691E+04-8.62452E+05-4.76386E-02-2.63548E+05 7.38016E-02
 -1        47-7.90084E-02-1.84370E+03-9.04224E+03-8.67906E-08 4.94886E+03-2.16813E-08
 -1        48 2.84780E-02-8.06686E+04-8.62452E+05-3.54822E-07-2.63548E+05-3.94500E-07
 -1        49 3.67809E-02-2.64962E+03-9.42022E+03 2.96291E-02 5.15762E+03 5.63279E-02
 -1        50-2.43888E-02-4.12571E+04-4.35737E+05-3.63048E-02-1.29299E+05-3.53661E-02
 -1        51-1.12424E-02-6.67328E+04-9.11613E+05 1.93368E-02-2.44393E+05-2.81514E-02
 -1        52-7.88255E-02-1.84364E+03-9.04241E+03-3.64027E-02 4.94882E+03-6.00136E-02
 -1        53 2.89345E-02-8.06688E+04-8.62452E+05-6.10287E-02-2.63548E+05 8.30300E-02
 -1        54 3.66246E-02-2.64956E+03-9.42040E+03-5.83898E-08 5.15759E+03-2.49816E-08
 -1        55-2.50271E-02-4.12568E+04-4.35737E+05-9.56839E-08-1.29299E+05-2.27249E-07
 -1        56-1.19642E-02-6.67331E+04-9.11613E+05-1.50557E-07-2.44394E+05-4.56811E-07
 -1        57-8.54081E-02-5.51154E+02-8.43962E+03-1.10551E-01 4.51829E+03-1.37293E-01
 -1        58 5.20587E-02-1.07619E+05-7.66029E+05-6.53386E-02-2.86979E+05 1.21561E-01
 -1        59-8.63818E-02-5.51300E+02-8.43937E+03-1.36461E-07 4.51841E+03-1.89947E-08
 -1        60 5.05546E-02-1.07619E+05-7.66030E+05-2.60857E-07-2.86979E+05-3.87984E-07
 -1        61 4.22578E-02-1.23937E+03-8.77532E+03 4.58874E-02 4.70236E+03 6.62303E-02
 -1        62-1.63234E-02-5.40859E+04-3.87226E+05-5.52726E-02-1.41229E+05-2.44282E-02
 -1        63-1.92385E-02-9.42224E+04-8.14115E+05 2.80950E-02-2.75308E+05-4.74600E-02
 -1        64-8.58950E-02-5.51227E+02-8.43949E+03-5.16717E-02 4.51835E+03-5.61225E-02
 -1        65 5.13067E-02-1.07619E+05-7.66029E+05-8.70336E-02-2.86979E+05 1.23488E-01
 -1        66 4.15880E-02-1.23931E+03-8.77547E+03 2.47749E-08 4.70231E+03-4.49601E-08
 -1        67-1.75610E-02-5.40855E+04-3.87226E+05-3.13784E-07-1.41229E+05-2.26159E-07
 -1        68-2.04471E-02-9.42228E+04-8.14115E+05-1.45810E-07-2.75308E+05-4.47204E-07
 -1        69-7.87734E-02 5.84394E+02-7.83297E+03-1.53324E-01 4.07446E+03-1.29876E-01
 -1        70 9.42152E-02-1.31438E+05-6.74272E+05-8.27690E-02-2.97553E+05 1.94434E-01
 -1        71-8.06696E-02 5.84219E+02-7.83287E+03-1.07305E-07 4.07458E+03 2.48160E-08
 -1        72 9.18062E-02-1.31436E+05-6.74273E+05 5.78038E-07-2.97553E+05-3.68977E-07
 -1        73 4.35454E-02-4.16821E+01-8.15361E+03 6.62345E-02 4.28060E+03 6.85442E-02
 -1        74 8.23059E-03-6.54273E+04-3.41045E+05-7.46615E-02-1.46738E+05 6.73582E-03
 -1        75-3.44660E-02-1.19608E+05-7.20063E+05 3.69689E-02-2.92270E+05-7.66146E-02
 -1        76-7.97215E-02 5.84306E+02-7.83292E+03-6.85755E-02 4.07452E+03-3.49589E-02
 -1        77 9.30107E-02-1.31437E+05-6.74273E+05-1.19160E-01-2.97553E+05 1.82309E-01
 -1        78 4.21105E-02-4.16059E+01-8.15370E+03-3.17847E-07 4.28053E+03-2.57675E-08
 -1        79 6.07924E-03-6.54268E+04-3.41046E+05 1.15321E-07-1.46738E+05-1.07489E-07
 -1        80-3.64225E-02-1.19608E+05-7.20062E+05 1.34124E-07-2.92270E+05-3.71446E-07
 -1        81-4.57829E-02 1.54765E+03-7.24372E+03-1.96939E-01 3.66018E+03-8.75609E-02
 -1        82 1.69343E-01-1.50648E+05-5.88704E+05-9.78750E-02-2.97670E+05 3.06357E-01
 -1        83-4.89892E-02 1.54743E+03-7.24385E+03 3.92101E-07 3.66026E+03-3.87659E-08
 -1        84 1.65602E-01-1.50647E+05-5.88706E+05-4.16822E-07-2.97670E+05-2.89417E-07
 -1        85 3.55104E-02 1.00430E+03-7.54443E+03 8.88472E-02 3.86401E+03 5.74446E-02
 -1        86 6.25007E-02-7.45514E+04-2.97967E+05-9.04095E-02-1.47004E+05 7.15714E-02
 -1        87-6.22439E-02-1.41114E+05-6.31433E+05 4.54155E-02-2.97595E+05-1.21266E-01
 -1        88-4.73861E-02 1.54754E+03-7.24378E+03-8.47355E-02 3.66022E+03 1.21513E-02
 -1        89 1.67473E-01-1.50648E+05-5.88705E+05-1.60248E-01-2.97670E+05 2.67667E-01
 -1        90 3.29592E-02 1.00440E+03-7.54443E+03 2.67149E-07 3.86396E+03 6.26722E-08
 -1        91 5.90284E-02-7.45506E+04-2.97968E+05 1.82532E-07-1.47004E+05-2.58976E-07
 -1        92-6.53188E-02-1.41115E+05-6.31432E+05 7.47460E-08-2.97595E+05-3.92630E-07
 -1        93 3.29164E-02 2.36813E+03-6.67652E+03-2.31224E-01 3.27562E+03 9.84196E-03
 -1        94 2.97968E-01-1.64471E+05-5.10160E+05-1.06020E-01-2.89542E+05 4.77397E-01
 -1        95 2.79336E-02 2.36784E+03-6.67700E+03-3.24531E-07 3.27561E+03-6.35773E-08
 -1        96 2.92296E-01-1.64469E+05-5.10162E+05 2.53001E-07-2.89542E+05-2.11724E-07
 -1        97 1.02410E-02 1.89906E+03-6.96115E+03 1.10069E-01 3.47337E+03 2.44019E-02
 -1        98 1.66482E-01-8.10528E+04-2.58412E+05-9.48392E-02-1.43132E+05 1.89531E-01
 -1        99-1.10889E-01-1.57619E+05-5.49401E+05 5.19605E-02-2.93580E+05-1.89722E-01
 -1       100 3.04251E-02 2.36798E+03-6.67676E+03-9.69007E-02 3.27561E+03 9.64307E-02
 -1       101 2.95132E-01-1.64470E+05-5.10161E+05-2.14567E-01-2.89542E+05 3.90397E-01
 -1       102 6.14644E-03 1.89918E+03-6.96100E+03-7.60162E-08 3.47335E+03-1.68372E-07
 -1       103 1.61156E-01-8.10517E+04-2.58413E+05 8.74335E-09-1.43133E+05-2.32579E-07
 -1       104-1.15596E-01-1.57620E+05-5.49400E+05 6.15674E-07-2.93580E+05-1.66995E-07
 -1       105 1.84445E-01 3.06163E+03-6.14063E+03-2.40747E-01 2.92728E+03 1.88927E-01
 -1       106 5.10536E-01-1.72611E+05-4.38930E+05-1.00298E-01-2.75140E+05 7.35206E-01
 -1       107 1.77372E-01 3.06124E+03-6.14159E+03 3.39860E-07 2.92709E+03 1.62006E-07
 -1       108 5.02382E-01-1.72608E+05-4.38933E+05-5.59464E-07-2.75140E+05-8.31223E-07
 -1       109-4.38416E-02 2.66122E+03-6.40807E+03 1.23516E-01 3.11249E+03-4.22286E-02
 -1       110 3.48858E-01-8.47761E+04-2.22530E+05-7.65745E-02-1.36106E+05 3.87140E-01
 -1       111-1.92843E-01-1.68589E+05-4.74531E+05 5.35777E-02-2.82311E+05-2.93703E-01
 -1       112 1.80909E-01 3.06143E+03-6.14111E+03-1.01939E-01 2.92718E+03 2.31263E-01
 -1       113 5.06459E-01-1.72609E+05-4.38931E+05-2.89238E-01-2.75140E+05 5.63969E-01
 -1       114-4.98696E-02 2.66139E+03-6.40771E+03-2.50860E-07 3.11254E+03 3.93928E-08
 -1       115 3.41245E-01-8.47746E+04-2.22531E+05-9.04532E-08-1.36106E+05-2.02278E-07
 -1       116-1.99756E-01-1.68590E+05-4.74530E+05-4.38841E-07-2.82311E+05-7.08497E-07
 -1       117 4.44433E-01 3.64537E+03-5.64208E+03-2.02357E-01 2.61638E+03 4.82069E-01
 -1       118 8.48932E-01-1.75137E+05-3.74906E+05-6.84551E-02-2.56142E+05 1.11657E+00
 -1       119 4.34900E-01 3.64487E+03-5.64368E+03-5.82491E-08 2.61594E+03-4.53903E-07
 -1       120 8.37129E-01-1.75133E+05-3.74910E+05-5.82586E-07-2.56142E+05-1.31132E-07
 -1       121-1.42449E-01 3.30531E+03-5.89105E+03 1.20453E-01 2.78614E+03-1.57280E-01
 -1       122 6.48900E-01-8.57473E+04-1.90270E+05-1.79945E-02-1.26762E+05 6.98715E-01
 -1       123-3.26396E-01-1.73911E+05-4.06917E+05 4.66426E-02-2.65611E+05-4.49050E-01
 -1       124 4.39667E-01 3.64512E+03-5.64288E+03-9.84383E-02 2.61616E+03 4.30318E-01
 -1       125 8.43030E-01-1.75135E+05-3.74908E+05-3.97848E-01-2.56142E+05 8.04246E-01
 -1       126-1.50752E-01 3.30552E+03-5.89041E+03 4.32387E-07 2.78629E+03-6.24206E-08
 -1       127 6.38232E-01-8.57451E+04-1.90272E+05-3.37952E-07-1.26762E+05-1.86090E-07
 -1       128-3.36374E-01-1.73912E+05-4.06915E+05-2.31531E-06-2.65611E+05-5.30376E-07
 -1       129 8.53911E-01 4.13396E+03-5.18577E+03-9.53184E-02 2.34307E+03 9.25012E-01
 -1       130 1.37219E+00-1.72363E+05-3.17705E+05-7.11034E-03-2.33924E+05 1.66594E+00
 -1       131 8.43437E-01 4.13340E+03-5.18813E+03 2.67735E-07 2.34233E+03 1.66229E-07
 -1       132 1.35814E+00-1.72357E+05-3.17709E+05-2.95879E-06-2.33924E+05-3.53495E-07
 -1       133-3.05807E-01 3.84624E+03-5.41424E+03 8.71092E-02 2.49589E+03-3.37959E-01
 -1       134 1.11492E+00-8.41161E+04-1.61441E+05 9.25713E-02-1.15789E+05 1.16441E+00
 -1       135-5.35699E-01-1.73776E+05-3.46313E+05 2.31766E-02-2.45005E+05-6.76283E-01
 -1       136 8.48674E-01 4.13368E+03-5.18695E+03-9.36607E-02 2.34270E+03 7.05902E-01
 -1       137 1.36517E+00-1.72360E+05-3.17707E+05-5.63894E-01-2.33924E+05 1.12621E+00
 -1       138-3.15811E-01 3.84650E+03-5.41325E+03 5.75689E-07 2.49618E+03 9.38411E-09
 -1       139 1.10265E+00-8.41129E+04-1.61444E+05-1.37548E-06-1.15790E+05-1.99776E-08
 -1       140-5.48629E-01-1.73779E+05-3.46311E+05-3.53203E-07-2.45005E+05-4.66398E-07
 -1       141 1.45528E+00 4.54050E+03-4.77506E+03 1.21613E-01 2.10612E+03 1.54751E+00
 -1       142 2.14194E+00-1.64757E+05-2.66760E+05 1.18613E-01-2.09573E+05 2.44042E+00
 -1       143 1.44280E+00 4.54006E+03-4.77825E+03-3.32956E-07 2.10511E+03 1.82954E-07
 -1       144 2.11858E+00-1.64749E+05-2.66765E+05-1.79430E-06-2.09573E+05-2.33996E-07
 -1       145-5.54747E-01 4.29738E+03-4.98099E+03 1.77051E-02 2.24195E+03-6.02223E-01
 -1       146 1.80564E+00-8.01105E+04-1.35764E+05 2.91458E-01-1.03732E+05 1.82984E+00
 -1       147-8.55746E-01-1.68577E+05-2.92247E+05-1.15524E-02-2.21723E+05-9.99193E-01
 -1       148 1.44904E+00 4.54028E+03-4.77665E+03-1.04247E-01 2.10561E+03 1.05679E+00
 -1       149 2.13026E+00-1.64753E+05-2.66762E+05-8.38782E-01-2.09573E+05 1.54543E+00
 -1       150-5.66224E-01 4.29763E+03-4.97960E+03 2.10306E-07 2.24240E+03-1.35464E-07
 -1       151 1.78771E+00-8.01055E+04-1.35768E+05-7.92812E-08-1.03732E+05 8.17296E-08
 -1       152-8.74454E-01-1.68580E+05-2.92245E+05-1.61931E-06-2.21723E+05-1.39603E-07
 -1       153 2.26372E+00 4.87622E+03-4.41201E+03 3.85239E-01 1.90357E+03 2.36926E+00
 -1       154 3.26726E+00-1.52875E+05-2.21400E+05 1.87798E-01-1.83918E+05 3.47256E+00
 -1       155 2.26469E+00 4.87642E+03-4.41600E+03 5.69115E-07 1.90252E+03 2.87257E-09
 -1       156 3.26413E+00-1.52862E+05-2.21406E+05 9.06488E-07-1.83917E+05-6.76290E-07
 -1       157-9.12049E-01 4.67054E+03-4.59360E+03-1.21197E-01 2.02338E+03-9.60516E-01
 -1       158 2.75847E+00-7.40018E+04-1.12904E+05 4.84261E-01-9.10051E+04 2.72115E+00
 -1       159-1.31581E+00-1.58824E+05-2.44101E+05-9.44238E-02-1.96723E+05-1.44838E+00
 -1       160 2.26421E+00 4.87632E+03-4.41400E+03-2.01715E-01 1.90305E+03 1.48176E+00
 -1       161 3.26569E+00-1.52868E+05-2.21403E+05-1.28872E+00-1.83917E+05 2.04913E+00
 -1       162-9.17805E-01 4.67064E+03-4.59179E+03 2.23349E-07 2.02392E+03 3.36472E-07
 -1       163 2.75739E+00-7.39940E+04-1.12909E+05-3.59844E-07-9.10054E+04 3.24073E-08
 -1       164-1.32905E+00-1.58829E+05-2.44098E+05-1.48843E-06-1.96724E+05 1.31620E-07
 -1       165 3.26980E+00 5.15141E+03-4.09808E+03 9.01586E-01 1.73325E+03 3.32711E+00
 -1       166 4.70741E+00-1.37305E+05-1.80902E+05 5.54803E-01-1.57562E+05 4.88306E+00
 -1       167 3.25797E+00 5.15314E+03-4.10254E+03 1.99718E-06 1.73275E+03 2.83194E-07
 -1       168 4.62111E+00-1.37286E+05-1.80909E+05-1.72624E-06-1.57558E+05-6.81758E-07
 -1       169-1.36668E+00 4.97602E+03-4.25372E+03-2.29371E-01 1.83857E+03-1.42109E+00
 -1       170 4.04141E+00-6.60808E+04-9.24992E+04 9.45049E-01-7.79114E+04 3.88633E+00
 -1       171-1.98919E+00-1.45088E+05-2.01176E+05-7.04000E-02-1.70720E+05-2.02984E+00
 -1       172 3.26388E+00 5.15227E+03-4.10031E+03-4.28503E-01 1.73300E+03 1.87093E+00
 -1       173 4.66426E+00-1.37295E+05-1.80906E+05-2.13405E+00-1.57560E+05 2.66539E+00
 -1       174-1.37211E+00 4.97556E+03-4.25153E+03 6.16605E-07 1.83902E+03 1.98981E-07
 -1       175 3.99233E+00-6.60681E+04-9.25051E+04 1.67014E-06-7.79105E+04-2.02924E-07
 -1       176-2.03392E+00-1.45096E+05-2.01173E+05 2.21224E-07-1.70721E+05-1.32039E-06
 -1       177 4.25875E+00 5.37327E+03-3.83207E+03 6.02186E-01 1.59310E+03 4.42245E+00
 -1       178 6.89645E+00-1.18645E+05-1.44525E+05-4.64589E-01-1.30918E+05 6.33192E+00
 -1       179 4.36869E+00 5.37895E+03-3.83665E+03 2.82028E-06 1.59429E+03 5.43034E-07
 -1       180 7.15061E+00-1.18613E+05-1.44532E+05 1.13093E-07-1.30910E+05-5.63461E-07
 -1       181-1.93317E+00 5.22163E+03-3.96180E+03-6.08751E-01 1.68548E+03-1.90682E+00
 -1       182 5.41671E+00-5.66408E+04-7.41783E+04 2.81442E-01-6.46584E+04 5.11999E+00
 -1       183-2.79177E+00-1.27961E+05-1.62741E+05-4.21893E-01-1.44220E+05-2.83419E+00
 -1       184 4.31372E+00 5.37611E+03-3.83436E+03-1.23991E+00 1.59370E+03 2.33472E+00
 -1       185 7.02353E+00-1.18629E+05-1.44528E+05-3.37444E+00-1.30914E+05 3.12693E+00
 -1       186-1.88412E+00 5.22005E+03-3.95955E+03 8.92853E-07 1.68539E+03 2.40358E-07
 -1       187 5.59878E+00-5.66199E+04-7.41844E+04 1.89071E-06-6.46551E+04-3.94651E-07
 -1       188-2.70780E+00-1.27973E+05-1.62738E+05-1.23964E-07-1.44223E+05-1.16795E-06
 -1       189 5.06790E+00 5.55520E+03-3.61846E+03 2.56448E+00 1.48263E+03 4.85073E+00
 -1       190 8.31976E+00-9.74677E+04-1.11531E+05 2.60114E+00-1.04249E+05 9.07724E+00
 -1       191 4.95081E+00 5.56657E+03-3.62084E+03-2.81550E-06 1.48788E+03-1.00460E-06
 -1       192 7.33568E+00-9.74215E+04-1.11539E+05-1.57464E-06-1.04232E+05 2.96165E-07
 -1       193-2.33210E+00 5.41612E+03-3.72028E+03 1.24086E-01 1.56167E+03-2.50379E+00
 -1       194 7.34860E+00-4.59687E+04-5.75723E+04 2.79649E+00-5.13777E+04 6.85075E+00
 -1       195-4.13208E+00-1.08023E+05-1.28056E+05 9.38652E-01-1.17559E+05-3.50360E+00
 -1       196 5.00936E+00 5.56089E+03-3.61965E+03-2.08442E+00 1.48525E+03 1.81632E+00
 -1       197 7.82772E+00-9.74446E+04-1.11535E+05-6.42141E+00-1.04241E+05 4.04565E+00
 -1       198-2.33564E+00 5.41151E+03-3.71799E+03 2.44726E-07 1.56028E+03 7.44366E-09
 -1       199 6.79793E+00-4.59352E+04-5.75793E+04-2.12950E-06-5.13679E+04-9.64377E-07
 -1       200-4.49719E+00-1.08043E+05-1.28053E+05-1.61557E-06-1.17564E+05 9.06389E-07
 -1       201 4.35439E+00 5.68478E+03-3.43507E+03-6.51065E+00 1.40270E+03 6.07356E+00
 -1       202 1.39722E+01-7.43558E+04-8.12123E+04-1.25008E+01-7.76840E+04 7.47831E+00
 -1       203 5.23201E+00 5.71417E+03-3.43829E+03-1.14297E-06 1.41511E+03 1.14190E-07
 -1       204 1.79014E+01-7.42719E+04-8.12117E+04-1.56145E-06-7.76619E+04-4.66441E-07
 -1       205-2.85966E+00 5.55621E+03-3.52284E+03-2.50289E+00 1.46417E+03-2.27495E+00
 -1       206 6.78217E+00-3.43437E+04-4.23247E+04-9.58370E+00-3.81347E+04 6.34626E+00
 -1       207-4.51085E+00-8.58417E+04-9.63938E+04-3.20593E+00-9.09279E+04-5.36606E+00
 -1       208 4.79320E+00 5.69947E+03-3.43668E+03-6.95075E+00 1.40891E+03 3.19837E+00
 -1       209 1.59368E+01-7.43139E+04-8.12120E+04-8.30308E+00-7.76730E+04 2.27396E+00
 -1       210-2.47952E+00 5.54855E+03-3.52287E+03 1.39557E-06 1.45986E+03-4.72580E-07
 -1       211 9.18570E+00-3.42860E+04-4.23241E+04-2.74322E-06-3.81193E+04-3.89887E-08
 -1       212-3.03770E+00-8.58682E+04-9.63902E+04-2.39920E-06-9.09406E+04-9.28216E-07
 -1       213 2.17758E+00 5.84503E+03-3.35658E+03 1.90602E+01 1.36322E+03-9.64587E-01
 -1       214 4.23555E+00-4.97700E+04-5.28457E+04 3.42131E+01-5.13219E+04 2.22271E+01
 -1       215 6.20269E-01 5.87716E+03-3.33778E+03 2.64618E-06 1.39012E+03-7.24044E-07
 -1       216-1.03651E+01-4.96805E+04-5.28637E+04-1.05923E-07-5.12475E+04 1.57588E-06
 -1       217-1.19547E+00 5.67444E+03-3.39667E+03 9.39979E+00 1.38758E+03-3.77163E+00
 -1       218 1.22551E+01-2.20293E+04-2.80692E+04 2.72520E+01-2.49637E+04 1.19993E+01
 -1       219-8.82178E+00-6.19142E+04-6.70405E+04 1.53529E+01-6.44352E+04-2.47862E+00
 -1       220 1.39892E+00 5.86109E+03-3.34718E+03-4.22217E+00 1.37667E+03-6.30045E+00
 -1       221-3.06478E+00-4.97253E+04-5.28547E+04-2.40117E+01-5.12847E+04 8.30610E+00
 -1       222-1.53490E+00 5.65154E+03-3.39342E+03-2.39350E-07 1.37865E+03-5.68635E-07
 -1       223 4.17588E+00-2.19460E+04-2.80854E+04 4.86128E-07-2.49149E+04 8.62342E-07
 -1       224-1.41596E+01-6.19752E+04-6.70439E+04 1.14536E-06-6.44450E+04 1.15501E-06
 -1       225-6.80062E+00 5.76283E+03-3.08435E+03-9.68392E+01 1.36933E+03 1.30449E+01
 -1       226 4.72603E+01-2.45457E+04-2.58723E+04-1.61750E+02-2.49551E+04-3.09205E+01
 -1       227-1.01337E+00 5.90461E+03-3.12299E+03-2.16301E-06 1.41562E+03 1.49712E-06
 -1       228 1.04113E+02-2.42512E+04-2.57791E+04-1.25395E-06-2.49629E+04-1.61152E-06
 -1       229-2.21740E+00 5.66144E+03-3.24241E+03-2.81689E+01 1.32785E+03 5.20123E+00
 -1       230-1.36018E+01-9.31654E+03-1.45262E+04-1.33261E+02-1.17987E+04-1.29054E+01
 -1       231 1.41408E+00-3.68512E+04-3.93347E+04-4.66714E+01-3.80102E+04-1.76503E+01
 -1       232-3.90700E+00 5.83372E+03-3.10367E+03-4.22379E+01 1.39248E+03 1.88301E+01
 -1       233 7.56866E+01-2.43985E+04-2.58257E+04-2.65218E+00-2.49590E+04-1.99110E+01
 -1       234-1.04081E-01 5.64942E+03-3.26482E+03-3.16721E-06 1.30918E+03 8.09528E-07
 -1       235 1.77183E+01-9.14530E+03-1.44513E+04-7.43674E-07-1.17835E+04-6.74911E-07
 -1       236 2.25480E+01-3.68751E+04-3.93203E+04 1.79570E-06-3.80784E+04-8.60420E-07
 -1       237-3.41426E+01 5.43636E+03-3.60721E+03 3.72853E+02 1.04254E+03-1.25614E+02
 -1       238-3.12533E+02 4.54986E+03 9.43679E+02 6.08099E+02 1.48026E+03-5.21777E+01
 -1       239-4.42276E+01 4.64203E+03-3.40835E+03-2.14590E-06 7.40551E+02 1.97720E-06
 -1       240-5.28021E+02 2.39553E+03 7.89449E+02 3.13893E-06 1.19873E+03-2.57235E-07
 -1       241 1.36097E+01 5.92921E+03-3.44298E+03 1.26879E+02 1.25974E+03-1.90559E+01
 -1       242-4.58384E+01 4.94932E+03-1.15223E+03 5.17208E+02 1.21095E+03-5.67307E+01
 -1       243-3.78336E+01-1.06834E+04-1.24966E+04 1.99804E+02-1.19047E+04 4.20080E+01
 -1       244-3.91851E+01 5.03920E+03-3.50778E+03 2.22821E+02 8.91544E+02-1.05450E+02
 -1       245-4.20277E+02 3.47269E+03 8.66564E+02 1.26851E+02 1.33950E+03-3.68184E+00
 -1       246 1.14622E+01 5.79902E+03-3.38058E+03-5.45638E-08 1.22888E+03 1.41985E-06
 -1       247-1.58625E+02 3.56770E+03-1.30327E+03 1.99236E-06 9.51865E+02 9.37273E-07
 -1       248-1.17158E+02-1.09848E+04-1.25841E+04-3.01537E-06-1.18235E+04 4.40114E-08
 -1       249-1.80843E-01-4.24696E+03-1.23105E+06 9.45251E-01 6.69475E+02-2.72556E-01
 -1       250-8.58159E-02-5.30181E+03-1.17536E+04-3.72613E-01 3.60950E+03 5.36406E-01
 -1       251-4.64320E-02-8.09763E+03-1.10711E+04 1.93852E-02 6.86892E+03 3.59275E-02
 -1       252 7.47765E-03-6.90633E+03-1.15042E+06-7.91775E-03-9.51105E+04-4.61082E-03
 -1       253-1.80843E-01-4.24613E+03-1.23105E+06 9.28522E-01 6.69362E+02-2.89851E-01
 -1       254-8.58159E-02-5.30175E+03-1.17534E+04-3.31380E-01 3.60955E+03 5.28042E-01
 -1       255-4.60605E-02-8.09765E+03-1.10709E+04 1.11429E-02 6.86889E+03 1.82599E-02
 -1       256 7.41889E-03-6.90627E+03-1.15042E+06-1.22924E-03-9.51104E+04-2.14116E-02
 -1       257-1.32986E-01-4.80427E+03-6.21302E+05 3.42546E-01 2.33102E+03 1.29603E-01
 -1       258 2.18177E-02-6.42099E+03-1.11262E+04-8.94905E-03 5.22094E+03-8.83158E-03
 -1       259-1.94325E-02-7.51474E+03-5.80702E+05-8.95054E-03-4.41755E+04 1.60968E-02
 -1       260-2.89735E-03-5.18113E+03-1.19125E+06 9.51008E-03-4.67940E+04-5.62355E-04
 -1       261-5.48625E-02-4.86222E+03-1.02668E+04 2.83463E-02 5.60430E+03 6.95896E-02
 -1       262 1.15092E-02-2.73762E+04-1.05866E+06 1.20316E-02-1.68856E+05-1.99419E-02
 -1       263-5.47339E-02-4.86226E+03-1.02667E+04 1.57147E-02 5.60429E+03 3.82338E-02
 -1       264 1.13673E-02-2.73761E+04-1.05866E+06 1.88135E-02-1.68856E+05-3.54094E-02
 -1       265 2.48013E-02-6.29038E+03-1.06895E+04-1.12161E-02 6.21301E+03-2.64619E-02
 -1       266-2.15968E-02-1.61181E+04-5.34449E+05 4.57942E-03-8.16485E+04 2.76188E-02
 -1       267-4.83635E-03-1.69569E+04-1.10446E+06-1.23069E-03-1.32342E+05 5.84105E-03
 -1       268-6.67686E-02-3.45213E+03-9.68171E+03 4.65555E-02 5.45592E+03 9.97514E-02
 -1       269 1.76584E-02-5.26909E+04-9.61100E+05 3.00910E-02-2.25011E+05-4.18824E-02
 -1       270-6.67419E-02-3.45218E+03-9.68152E+03 2.41916E-02 5.45593E+03 5.27682E-02
 -1       271 1.73932E-02-5.26907E+04-9.61101E+05 3.89427E-02-2.25010E+05-5.50308E-02
 -1       272 3.03295E-02-4.08613E+03-1.00165E+04-1.80833E-02 5.47630E+03-4.24553E-02
 -1       273-2.44016E-02-2.80744E+04-4.85376E+05 1.93905E-02-1.09781E+05 3.47559E-02
 -1       274-7.13534E-03-4.00261E+04-1.00976E+06-1.05577E-02-1.97149E+05 1.50277E-02
 -1       275-7.86426E-02-1.84358E+03-9.04258E+03 7.41486E-02 4.94878E+03 1.24123E-01
 -1       276 2.93911E-02-8.06691E+04-8.62452E+05 4.76385E-02-2.63548E+05-7.38020E-02
 -1       277-7.88255E-02-1.84364E+03-9.04241E+03 3.64027E-02 4.94882E+03 6.00136E-02
 -1       278 2.89345E-02-8.06688E+04-8.62452E+05 6.10283E-02-2.63548E+05-8.30306E-02
 -1       279 3.67809E-02-2.64962E+03-9.42022E+03-2.96291E-02 5.15762E+03-5.63279E-02
 -1       280-2.43888E-02-4.12571E+04-4.35737E+05 3.63046E-02-1.29299E+05 3.53660E-02
 -1       281-1.12424E-02-6.67328E+04-9.11613E+05-1.93368E-02-2.44393E+05 2.81511E-02
 -1       282-8.54081E-02-5.51154E+02-8.43962E+03 1.10552E-01 4.51829E+03 1.37293E-01
 -1       283 5.20588E-02-1.07619E+05-7.66029E+05 6.53385E-02-2.86979E+05-1.21561E-01
 -1       284-8.58949E-02-5.51227E+02-8.43949E+03 5.16719E-02 4.51835E+03 5.61225E-02
 -1       285 5.13067E-02-1.07619E+05-7.66029E+05 8.70333E-02-2.86979E+05-1.23489E-01
 -1       286 4.22578E-02-1.23937E+03-8.77532E+03-4.58870E-02 4.70236E+03-6.62303E-02
 -1       287-1.63234E-02-5.40859E+04-3.87226E+05 5.52732E-02-1.41229E+05 2.44279E-02
 -1       288-1.92385E-02-9.42224E+04-8.14115E+05-2.80951E-02-2.75308E+05 4.74594E-02
 -1       289-7.87734E-02 5.84394E+02-7.83297E+03 1.53323E-01 4.07446E+03 1.29876E-01
 -1       290 9.42152E-02-1.31438E+05-6.74272E+05 8.27692E-02-2.97553E+05-1.94434E-01
 -1       291-7.97215E-02 5.84306E+02-7.83292E+03 6.85751E-02 4.07452E+03 3.49590E-02
 -1       292 9.30107E-02-1.31437E+05-6.74273E+05 1.19161E-01-2.97553E+05-1.82310E-01
 -1       293 4.35454E-02-4.16821E+01-8.15361E+03-6.62342E-02 4.28060E+03-6.85441E-02
 -1       294 8.23060E-03-6.54273E+04-3.41045E+05 7.46611E-02-1.46738E+05-6.73615E-03
 -1       295-3.44659E-02-1.19608E+05-7.20063E+05-3.69691E-02-2.92270E+05 7.66140E-02
 -1       296-4.57828E-02 1.54765E+03-7.24372E+03 1.96939E-01 3.66018E+03 8.75611E-02
 -1       297 1.69343E-01-1.50648E+05-5.88704E+05 9.78740E-02-2.97670E+05-3.06357E-01
 -1       298-4.73860E-02 1.54754E+03-7.24378E+03 8.47356E-02 3.66022E+03-1.21513E-02
 -1       299 1.67472E-01-1.50648E+05-5.88705E+05 1.60247E-01-2.97670E+05-2.67667E-01
 -1       300 3.55106E-02 1.00430E+03-7.54443E+03-8.88477E-02 3.86401E+03-5.74446E-02
 -1       301 6.25007E-02-7.45514E+04-2.97967E+05 9.04087E-02-1.47004E+05-7.15716E-02
 -1       302-6.22441E-02-1.41114E+05-6.31433E+05-4.54168E-02-2.97595E+05 1.21265E-01
 -1       303 3.29161E-02 2.36813E+03-6.67652E+03 2.31226E-01 3.27562E+03-9.84178E-03
 -1       304 2.97969E-01-1.64471E+05-5.10160E+05 1.06020E-01-2.89542E+05-4.77397E-01
 -1       305 3.04248E-02 2.36798E+03-6.67676E+03 9.69009E-02 3.27561E+03-9.64306E-02
 -1       306 2.95133E-01-1.64470E+05-5.10161E+05 2.14567E-01-2.89542E+05-3.90398E-01
 -1       307 1.02410E-02 1.89906E+03-6.96115E+03-1.10068E-01 3.47337E+03-2.44018E-02
 -1       308 1.66482E-01-8.10528E+04-2.58412E+05 9.48394E-02-1.43132E+05-1.89531E-01
 -1       309-1.10889E-01-1.57619E+05-5.49401E+05-5.19602E-02-2.93580E+05 1.89721E-01
 -1       310 1.84446E-01 3.06163E+03-6.14063E+03 2.40746E-01 2.92728E+03-1.88927E-01
 -1       311 5.10536E-01-1.72611E+05-4.38930E+05 1.00299E-01-2.75140E+05-7.35206E-01
 -1       312 1.80909E-01 3.06143E+03-6.14111E+03 1.01939E-01 2.92718E+03-2.31263E-01
 -1       313 5.06459E-01-1.72609E+05-4.38931E+05 2.89238E-01-2.75140E+05-5.63970E-01
 -1       314-4.38415E-02 2.66122E+03-6.40807E+03-1.23516E-01 3.11249E+03 4.22285E-02
 -1       315 3.48858E-01-8.47761E+04-2.22530E+05 7.65736E-02-1.36106E+05-3.87140E-01
 -1       316-1.92843E-01-1.68589E+05-4.74531E+05-5.35780E-02-2.82311E+05 2.93703E-01
 -1       317 4.44433E-01 3.64537E+03-5.64208E+03 2.02358E-01 2.61638E+03-4.82069E-01
 -1       318 8.48932E-01-1.75137E+05-3.74906E+05 6.84545E-02-2.56142E+05-1.11657E+00
 -1       319 4.39667E-01 3.64512E+03-5.64288E+03 9.84383E-02 2.61616E+03-4.30318E-01
 -1       320 8.43030E-01-1.75135E+05-3.74908E+05 3.97847E-01-2.56142E+05-8.04246E-01
 -1       321-1.42450E-01 3.30531E+03-5.89105E+03-1.20453E-01 2.78614E+03 1.57279E-01
 -1       322 6.48900E-01-8.57473E+04-1.90270E+05 1.79949E-02-1.26762E+05-6.98715E-01
 -1       323-3.26396E-01-1.73911E+05-4.06917E+05-4.66429E-02-2.65611E+05 4.49051E-01
 -1       324 8.53911E-01 4.13396E+03-5.18577E+03 9.53206E-02 2.34307E+03-9.25012E-01
 -1       325 1.37219E+00-1.72363E+05-3.17705E+05 7.11051E-03-2.33924E+05-1.66594E+00
 -1       326 8.48674E-01 4.13368E+03-5.18695E+03 9.36620E-02 2.34270E+03-7.05902E-01
 -1       327 1.36517E+00-1.72360E+05-3.17707E+05 5.63891E-01-2.33924E+05-1.12621E+00
 -1       328-3.05807E-01 3.84624E+03-5.41424E+03-8.71093E-02 2.49589E+03 3.37959E-01
 -1       329 1.11492E+00-8.41161E+04-1.61441E+05-9.25685E-02-1.15789E+05-1.16441E+00
 -1       330-5.35699E-01-1.73776E+05-3.46313E+05-2.31755E-02-2.45005E+05 6.76283E-01
 -1       331 1.45528E+00 4.54050E+03-4.77506E+03-1.21614E-01 2.10612E+03-1.54751E+00
 -1       332 2.14194E+00-1.64757E+05-2.66760E+05-1.18610E-01-2.09573E+05-2.44042E+00
 -1       333 1.44904E+00 4.54028E+03-4.77665E+03 1.04246E-01 2.10561E+03-1.05679E+00
 -1       334 2.13026E+00-1.64753E+05-2.66762E+05 8.38781E-01-2.09573E+05-1.54543E+00
 -1       335-5.54747E-01 4.29738E+03-4.98099E+03-1.77059E-02 2.24195E+03 6.02223E-01
 -1       336 1.80564E+00-8.01105E+04-1.35764E+05-2.91459E-01-1.03732E+05-1.82984E+00
 -1       337-8.55746E-01-1.68577E+05-2.92247E+05 1.15549E-02-2.21723E+05 9.99193E-01
 -1       338 2.26372E+00 4.87622E+03-4.41201E+03-3.85238E-01 1.90357E+03-2.36926E+00
 -1       339 3.26726E+00-1.52875E+05-2.21400E+05-1.87804E-01-1.83918E+05-3.47256E+00
 -1       340 2.26421E+00 4.87632E+03-4.41400E+03 2.01716E-01 1.90305E+03-1.48176E+00
 -1       341 3.26569E+00-1.52868E+05-2.21403E+05 1.28872E+00-1.83917E+05-2.04913E+00
 -1       342-9.12049E-01 4.67054E+03-4.59360E+03 1.21199E-01 2.02338E+03 9.60515E-01
 -1       343 2.75847E+00-7.40018E+04-1.12904E+05-4.84262E-01-9.10051E+04-2.72115E+00
 -1       344-1.31581E+00-1.58824E+05-2.44101E+05 9.44181E-02-1.96723E+05 1.44838E+00
 -1       345 3.26980E+00 5.15141E+03-4.09808E+03-9.01591E-01 1.73325E+03-3.32711E+00
 -1       346 4.70741E+00-1.37305E+05-1.80902E+05-5.54802E-01-1.57562E+05-4.88306E+00
 -1       347 3.26388E+00 5.15227E+03-4.10031E+03 4.28503E-01 1.73300E+03-1.87093E+00
 -1       348 4.66426E+00-1.37295E+05-1.80906E+05 2.13405E+00-1.57560E+05-2.66539E+00
 -1       349-1.36668E+00 4.97602E+03-4.25372E+03 2.29370E-01 1.83857E+03 1.42109E+00
 -1       350 4.04141E+00-6.60808E+04-9.24992E+04-9.45048E-01-7.79114E+04-3.88633E+00
 -1       351-1.98919E+00-1.45088E+05-2.01176E+05 7.04001E-02-1.70720E+05 2.02984E+00
 -1       352 4.25875E+00 5.37327E+03-3.83207E+03-6.02190E-01 1.59310E+03-4.42245E+00
 -1       353 6.89645E+00-1.18645E+05-1.44525E+05 4.64592E-01-1.30918E+05-6.33192E+00
 -1       354 4.31372E+00 5.37611E+03-3.83436E+03 1.23991E+00 1.59370E+03-2.33472E+00
 -1       355 7.02353E+00-1.18629E+05-1.44528E+05 3.37444E+00-1.30914E+05-3.12693E+00
 -1       356-1.93317E+00 5.22163E+03-3.96180E+03 6.08748E-01 1.68548E+03 1.90682E+00
 -1       357 5.41671E+00-5.66408E+04-7.41783E+04-2.81443E-01-6.46584E+04-5.11999E+00
 -1       358-2.79177E+00-1.27961E+05-1.62741E+05 4.21893E-01-1.44220E+05 2.83419E+00
 -1       359 5.06790E+00 5.55520E+03-3.61846E+03-2.56447E+00 1.48263E+03-4.85073E+00
 -1       360 8.31976E+00-9.74677E+04-1.11531E+05-2.60114E+00-1.04249E+05-9.07725E+00
 -1       361 5.00936E+00 5.56089E+03-3.61965E+03 2.08442E+00 1.48525E+03-1.81632E+00
 -1       362 7.82772E+00-9.74446E+04-1.11535E+05 6.42141E+00-1.04241E+05-4.04565E+00
 -1       363-2.33210E+00 5.41612E+03-3.72028E+03-1.24085E-01 1.56167E+03 2.50379E+00
 -1       364 7.34860E+00-4.59687E+04-5.75723E+04-2.79648E+00-5.13777E+04-6.85075E+00
 -1       365-4.13208E+00-1.08023E+05-1.28056E+05-9.38650E-01-1.17559E+05 3.50360E+00
 -1       366 4.35439E+00 5.68478E+03-3.43507E+03 6.51065E+00 1.40270E+03-6.07356E+00
 -1       367 1.39722E+01-7.43558E+04-8.12123E+04 1.25008E+01-7.76840E+04-7.47830E+00
 -1       368 4.79320E+00 5.69947E+03-3.43668E+03 6.95075E+00 1.40891E+03-3.19837E+00
 -1       369 1.59368E+01-7.43139E+04-8.12120E+04 8.30307E+00-7.76730E+04-2.27396E+00
 -1       370-2.85966E+00 5.55621E+03-3.52284E+03 2.50289E+00 1.46417E+03 2.27495E+00
 -1       371 6.78217E+00-3.43437E+04-4.23247E+04 9.58370E+00-3.81347E+04-6.34626E+00
 -1       372-4.51085E+00-8.58417E+04-9.63938E+04 3.20594E+00-9.09279E+04 5.36606E+00
 -1       373 2.17758E+00 5.84503E+03-3.35658E+03-1.90602E+01 1.36322E+03 9.64587E-01
 -1       374 4.23555E+00-4.97700E+04-5.28457E+04-3.42131E+01-5.13219E+04-2.22271E+01
 -1       375 1.39892E+00 5.86109E+03-3.34718E+03 4.22218E+00 1.37667E+03 6.30045E+00
 -1       376-3.06479E+00-4.97253E+04-5.28547E+04 2.40117E+01-5.12847E+04-8.30610E+00
 -1       377-1.19547E+00 5.67444E+03-3.39667E+03-9.39979E+00 1.38758E+03 3.77163E+00
 -1       378 1.22551E+01-2.20293E+04-2.80692E+04-2.72520E+01-2.49637E+04-1.19993E+01
 -1       379-8.82178E+00-6.19142E+04-6.70405E+04-1.53529E+01-6.44352E+04 2.47863E+00
 -1       380-6.80062E+00 5.76283E+03-3.08435E+03 9.68392E+01 1.36933E+03-1.30449E+01
 -1       381 4.72603E+01-2.45457E+04-2.58723E+04 1.61750E+02-2.49551E+04 3.09205E+01
 -1       382-3.90700E+00 5.83372E+03-3.10367E+03 4.22379E+01 1.39248E+03-1.88301E+01
 -1       383 7.56866E+01-2.43985E+04-2.58257E+04 2.65218E+00-2.49590E+04 1.99110E+01
 -1       384-2.21740E+00 5.66144E+03-3.24241E+03 2.81689E+01 1.32785E+03-5.20123E+00
 -1       385-1.36018E+01-9.31654E+03-1.45262E+04 1.33261E+02-1.17987E+04 1.29054E+01
 -1       386 1.41408E+00-3.68512E+04-3.93347E+04 4.66714E+01-3.80102E+04 1.76503E+01
 -1       387-3.41426E+01 5.43636E+03-3.60721E+03-3.72853E+02 1.04254E+03 1.25614E+02
 -1       388-3.12533E+02 4.54986E+03 9.43679E+02-6.08099E+02 1.48026E+03 5.21777E+01
 -1       389-3.91851E+01 5.03920E+03-3.50778E+03-2.22821E+02 8.91544E+02 1.05450E+02
 -1       390-4.20277E+02 3.47269E+03 8.66564E+02-1.26851E+02 1.33950E+03 3.68184E+00
 -1       391 1.36097E+01 5.92921E+03-3.44298E+03-1.26879E+02 1.25974E+03 1.90559E+01
 -1       392-4.58384E+01 4.94932E+03-1.15223E+03-5.17208E+02 1.21095E+03 5.67307E+01
 -1       393-3.78336E+01-1.06834E+04-1.24966E+04-1.99804E+02-1.19047E+04-4.20080E+01
 -1       394-6.63897E-01-6.39567E+03 1.25456E+06-5.04264E-01 6.78734E+03 7.94254E-01
 -1       395 7.38111E-02 6.74879E+03 1.17125E+06-8.09621E-02 9.74540E+04-1.48019E-02
 -1       396-6.63897E-01-6.39697E+03 1.25456E+06 7.44619E-09 6.78862E+03 2.82047E-07
 -1       397 7.14775E-02 6.74886E+03 1.17125E+06 4.42215E-08 9.74543E+04 5.17064E-07
 -1       398-3.75200E-01-5.81886E+03 6.21306E+05-9.59786E-03 5.00688E+03 1.26602E-01
 -1       399-4.17525E-02 3.34971E+02 1.21287E+06 3.37613E-02 5.16287E+04 3.00295E-02
 -1       400 1.36449E-02-6.61652E+02 5.80046E+05-6.48579E-02 5.22161E+04-2.49263E-02
 -1       401-6.63897E-01-6.39632E+03 1.25456E+06-5.99221E-01 6.78798E+03 8.67215E-01
 -1       402 7.26443E-02 6.74883E+03 1.17125E+06-5.18800E-02 9.74541E+04 3.67715E-02
 -1       403-3.75200E-01-5.82018E+03 6.21306E+05 1.99752E-08 5.00797E+03 1.37663E-07
 -1       404-4.29192E-02 3.34955E+02 1.21287E+06 1.00608E-08 5.16285E+04 3.91236E-07
 -1       405 1.28476E-02-6.61646E+02 5.80046E+05 2.12390E-08 5.22163E+04 2.20018E-07
 -1       406 6.63260E-02 2.57725E+04 1.07651E+06-1.05795E-01 1.74362E+05 8.20778E-02
 -1       407 6.45194E-02 2.57727E+04 1.07651E+06 4.40615E-08 1.74362E+05 4.70981E-07
 -1       408-3.21065E-02 1.64408E+04 1.12388E+06 4.65468E-02 1.36117E+05-1.62599E-02
 -1       409 5.65185E-03 1.04540E+04 5.33110E+05-8.26804E-02 9.00056E+04 9.03893E-03
 -1       410 6.54227E-02 2.57726E+04 1.07651E+06-7.34226E-02 1.74362E+05 1.08248E-01
 -1       411-3.41767E-02 1.64408E+04 1.12388E+06 5.37780E-08 1.36117E+05 4.91164E-07
 -1       412 4.87598E-03 1.04540E+04 5.33109E+05-2.15448E-09 9.00058E+04 2.13243E-07
 -1       413 8.24235E-02 5.28289E+04 9.76530E+05-1.29263E-01 2.30801E+05 1.97468E-01
 -1       414 8.00759E-02 5.28292E+04 9.76528E+05-2.01171E-08 2.30802E+05 5.33751E-07
 -1       415-3.40566E-02 3.94385E+04 1.02655E+06 5.85721E-02 2.02705E+05-6.77202E-02
 -1       416 7.67395E-03 2.46913E+04 4.83408E+05-1.06842E-01 1.18132E+05 5.46796E-02
 -1       417 8.12497E-02 5.28290E+04 9.76529E+05-9.50533E-02 2.30802E+05 1.96861E-01
 -1       418-3.61337E-02 3.94384E+04 1.02655E+06-1.55937E-08 2.02705E+05 4.81730E-07
 -1       419 6.52555E-03 2.46913E+04 4.83408E+05 2.25302E-08 1.18132E+05 2.13990E-07
 -1       420 1.26096E-01 8.16064E+04 8.75544E+05-1.49666E-01 2.69872E+05 3.48755E-01
 -1       421 1.23165E-01 8.16067E+04 8.75542E+05-6.28521E-09 2.69872E+05 4.22769E-07
 -1       422-4.80838E-02 6.72701E+04 9.26070E+05 6.97878E-02 2.50391E+05-1.32664E-01
 -1       423 2.34897E-02 3.98822E+04 4.33241E+05-1.36496E-01 1.37410E+05 1.22521E-01
 -1       424 1.24630E-01 8.16065E+04 8.75543E+05-1.17185E-01 2.69872E+05 3.11950E-01
 -1       425-5.07230E-02 6.72700E+04 9.26070E+05 1.44336E-07 2.50391E+05 4.80810E-07
 -1       426 2.18401E-02 3.98822E+04 4.33240E+05-1.71661E-07 1.37410E+05 2.19702E-07
 -1       427 2.06431E-01 1.09436E+05 7.77090E+05-1.62035E-01 2.93364E+05 5.55819E-01
 -1       428 2.02567E-01 1.09436E+05 7.77087E+05 2.91275E-08 2.93364E+05 4.41495E-07
 -1       429-7.76923E-02 9.55244E+04 8.26335E+05 7.85790E-02 2.81638E+05-2.20138E-01
 -1       430 6.01599E-02 5.44429E+04 3.84316E+05-1.68965E-01 1.48940E+05 2.25825E-01
 -1       431 2.04499E-01 1.09436E+05 7.77088E+05-1.39458E-01 2.93364E+05 4.64490E-01
 -1       432-8.10897E-02 9.55242E+04 8.26336E+05-2.19142E-07 2.81638E+05 4.68786E-07
 -1       433 5.77399E-02 5.44430E+04 3.84315E+05 6.14588E-08 1.48940E+05 2.33920E-07
 -1       434 3.37490E-01 1.33924E+05 6.83529E+05-1.57871E-01 3.03828E+05 8.42217E-01
 -1       435 3.32434E-01 1.33925E+05 6.83526E+05 1.97451E-08 3.03828E+05 4.33983E-07
 -1       436-1.28508E-01 1.21652E+05 7.30316E+05 8.16399E-02 2.98599E+05-3.40918E-01
 -1       437 1.28848E-01 6.72549E+04 3.37841E+05-1.98982E-01 1.53950E+05 3.81713E-01
 -1       438 3.34962E-01 1.33924E+05 6.83528E+05-1.61270E-01 3.03828E+05 6.66837E-01
 -1       439-1.32968E-01 1.21652E+05 7.30318E+05 6.44111E-07 2.98599E+05 3.98889E-07
 -1       440 1.25371E-01 6.72551E+04 3.37839E+05 7.62657E-08 1.53950E+05 1.64808E-07
 -1       441 5.39253E-01 1.53672E+05 5.96410E+05-1.25167E-01 3.03676E+05 1.23541E+00
 -1       442 5.32785E-01 1.53673E+05 5.96405E+05-6.12310E-08 3.03676E+05 4.08969E-07
 -1       443-2.09034E-01 1.43755E+05 6.39968E+05 7.39004E-02 3.03750E+05-5.07670E-01
 -1       444 2.46014E-01 7.76110E+04 2.94576E+05-2.18051E-01 1.53668E+05 6.11750E-01
 -1       445 5.36019E-01 1.53673E+05 5.96408E+05-1.82823E-01 3.03676E+05 9.32089E-01
 -1       446-2.14796E-01 1.43755E+05 6.39970E+05-6.45572E-07 3.03750E+05 3.15419E-07
 -1       447 2.41176E-01 7.76112E+04 2.94574E+05-2.94580E-08 1.53668E+05 2.79986E-07
 -1       448 8.37767E-01 1.67893E+05 5.16548E+05-4.86473E-02 2.95191E+05 1.76626E+00
 -1       449 8.29986E-01 1.67894E+05 5.16542E+05-1.08249E-07 2.95190E+05 4.48599E-07
 -1       450-3.30846E-01 1.60735E+05 5.56472E+05 4.86531E-02 2.99431E+05-7.34950E-01
 -1       451 4.34302E-01 8.51320E+04 2.54930E+05-2.13719E-01 1.49233E+05 9.42141E-01
 -1       452 8.33877E-01 1.67894E+05 5.16545E+05-2.07163E-01 2.95191E+05 1.27259E+00
 -1       453-3.37971E-01 1.60734E+05 5.56474E+05 9.00929E-08 2.99431E+05 3.60200E-07
 -1       454 4.27919E-01 8.51323E+04 2.54926E+05-2.60898E-07 1.49232E+05 2.87439E-07
 -1       455 1.26376E+00 1.76314E+05 4.44218E+05 8.72823E-02 2.80384E+05 2.46629E+00
 -1       456 1.25498E+00 1.76316E+05 4.44210E+05 3.10566E-07 2.80384E+05 2.22539E-07
 -1       457-5.08562E-01 1.72057E+05 4.80371E+05-2.21314E-03 2.87787E+05-1.03865E+00
 -1       458 7.22735E-01 8.96895E+04 2.19033E+05-1.70680E-01 1.41655E+05 1.40253E+00
 -1       459 1.25937E+00 1.76315E+05 4.44214E+05-2.43691E-01 2.80384E+05 1.69681E+00
 -1       460-5.16845E-01 1.72056E+05 4.80374E+05 4.21995E-07 2.87787E+05 4.36215E-07
 -1       461 7.14805E-01 8.96900E+04 2.19028E+05 3.05865E-07 1.41655E+05 5.99426E-08
 -1       462 1.84854E+00 1.79023E+05 3.79287E+05 2.96433E-01 2.60968E+05 3.36283E+00
 -1       463 1.84124E+00 1.79026E+05 3.79277E+05-2.17866E-06 2.60967E+05 8.38943E-07
 -1       464-7.58426E-01 1.77626E+05 4.11736E+05-8.53368E-02 2.70678E+05-1.43359E+00
 -1       465 1.14427E+00 9.13360E+04 1.86818E+05-7.03740E-02 1.31791E+05 2.02305E+00
 -1       466 1.84489E+00 1.79025E+05 3.79282E+05-3.15448E-01 2.60968E+05 2.20416E+00
 -1       467-7.66466E-01 1.77624E+05 4.11740E+05-7.68942E-07 2.70679E+05 2.35154E-07
 -1       468 1.13585E+00 9.13367E+04 1.86812E+05-1.10092E-06 1.31791E+05 8.60925E-08
 -1       469 2.61166E+00 1.76354E+05 3.21347E+05 5.67434E-01 2.38342E+05 4.46322E+00
 -1       470 2.60607E+00 1.76358E+05 3.21336E+05-5.91406E-07 2.38341E+05-5.65811E-07
 -1       471-1.09579E+00 1.77651E+05 3.50295E+05-2.06567E-01 2.49660E+05-1.93117E+00
 -1       472 1.73092E+00 9.02458E+04 1.58077E+05 9.22720E-02 1.20341E+05 2.82518E+00
 -1       473 2.60886E+00 1.76356E+05 3.21341E+05-4.68010E-01 2.38341E+05 2.77385E+00
 -1       474-1.10223E+00 1.77649E+05 3.50300E+05-1.47199E-06 2.49660E+05 2.44827E-07
 -1       475 1.72289E+00 9.02470E+04 1.58070E+05-1.31880E-07 1.20341E+05-2.73446E-07
 -1       476 3.54452E+00 1.68793E+05 2.69808E+05 8.87494E-01 2.13609E+05 5.74826E+00
 -1       477 3.55960E+00 1.68800E+05 2.69796E+05 8.78003E-07 2.13609E+05 9.48364E-07
 -1       478-1.52443E+00 1.72543E+05 2.95550E+05-3.46006E-01 2.25983E+05-2.52470E+00
 -1       479 2.49287E+00 8.66690E+04 1.32514E+05 3.33209E-01 1.07856E+05 3.81201E+00
 -1       480 3.55206E+00 1.68797E+05 2.69802E+05-7.96735E-01 2.13609E+05 3.35623E+00
 -1       481-1.51969E+00 1.72540E+05 2.95556E+05-2.93415E-07 2.25983E+05 4.98707E-07
 -1       482 2.49418E+00 8.66713E+04 1.32506E+05-7.11824E-07 1.07856E+05 4.58408E-07
 -1       483 4.54653E+00 1.56911E+05 2.23979E+05 1.03270E+00 1.87607E+05 7.07861E+00
 -1       484 4.55094E+00 1.56923E+05 2.23966E+05-1.93417E-06 1.87609E+05 7.05654E-08
 -1       485-2.03373E+00 1.62830E+05 2.46858E+05-5.08455E-01 2.00620E+05-3.20060E+00
 -1       486 3.41215E+00 8.08964E+04 1.09782E+05 5.11227E-01 9.47529E+04 4.92370E+00
 -1       487 4.54873E+00 1.56917E+05 2.23972E+05-1.44554E+00 1.87608E+05 3.82143E+00
 -1       488-2.02397E+00 1.62826E+05 2.46864E+05 7.83436E-08 2.00619E+05-1.92689E-07
 -1       489 3.41484E+00 8.09008E+04 1.09773E+05 4.15118E-07 9.47541E+04-3.32397E-07
 -1       490 5.43409E+00 1.41310E+05 1.83114E+05 1.14365E+00 1.60944E+05 8.33774E+00
 -1       491 5.60927E+00 1.41329E+05 1.83102E+05 4.62709E-06 1.60950E+05 2.77836E-07
 -1       492-2.52533E+00 1.49101E+05 2.03500E+05-4.54396E-01 1.74293E+05-3.82049E+00
 -1       493 4.29914E+00 7.32347E+04 8.95069E+04 8.05763E-01 8.13355E+04 6.05118E+00
 -1       494 5.52168E+00 1.41320E+05 1.83108E+05-2.76275E+00 1.60947E+05 4.02695E+00
 -1       495-2.43555E+00 1.49094E+05 2.03506E+05-1.72435E-06 1.74291E+05 9.93162E-07
 -1       496 4.38083E+00 7.32431E+04 8.94987E+04 1.77745E-06 8.13392E+04 2.84157E-07
 -1       497 5.48774E+00 1.22597E+05 1.46452E+05-7.86622E-01 1.34033E+05 8.57271E+00
 -1       498 5.29335E+00 1.22626E+05 1.46444E+05-4.24849E-06 1.34048E+05-1.14537E-06
 -1       499-2.94090E+00 1.31960E+05 1.64723E+05-5.74912E-01 1.47516E+05-4.42755E+00
 -1       500 5.03413E+00 6.39905E+04 7.13101E+04-3.04861E-01 6.78091E+04 6.75478E+00
 -1       501 5.39055E+00 1.22612E+05 1.46448E+05-4.97229E+00 1.34040E+05 3.36253E+00
 -1       502-2.95046E+00 1.31948E+05 1.64729E+05 3.09839E-07 1.47512E+05-1.83191E-07
 -1       503 4.99190E+00 6.40055E+04 7.13037E+04-1.13813E-06 6.78183E+04 8.32714E-08
 -1       504 4.51601E+00 1.01337E+05 1.13252E+05-8.05817E-02 1.07134E+05 8.59009E+00
 -1       505 6.09152E+00 1.01393E+05 1.13248E+05-1.80469E-07 1.07160E+05 5.15980E-07
 -1       506-2.50423E+00 1.11999E+05 1.29779E+05 1.61103E+00 1.20629E+05-3.90986E+00
 -1       507 4.13719E+00 5.34585E+04 5.48141E+04 1.02827E+00 5.43027E+04 6.83365E+00
 -1       508 5.30376E+00 1.01365E+05 1.13250E+05-9.69689E+00 1.07147E+05 2.20523E+00
 -1       509-1.81384E+00 1.11981E+05 1.29781E+05 8.55071E-07 1.20618E+05-1.24745E-06
 -1       510 4.86648E+00 5.34873E+04 5.48131E+04-1.56356E-06 5.43198E+04 3.65852E-07
 -1       511-2.50483E+00 7.81520E+04 8.27398E+04-1.92408E+01 8.03656E+04 6.88522E-01
 -1       512-6.54284E+00 7.82094E+04 8.27569E+04-1.56243E-06 8.04239E+04-9.38210E-07
 -1       513-2.21087E+00 8.98141E+04 9.79141E+04-1.30367E+00 9.38274E+04-4.56290E+00
 -1       514 3.30590E+00 4.19266E+04 3.96534E+04-1.27977E+01 4.08782E+04 3.81071E+00
 -1       515-4.52383E+00 7.81807E+04 8.27483E+04-1.49312E+01 8.03947E+04-4.00104E+00
 -1       516-3.44153E+00 8.97755E+04 9.79139E+04-3.30614E-06 9.38110E+04 2.12700E-07
 -1       517 1.72560E+00 4.19689E+04 3.96584E+04 3.83146E-08 4.09153E+04-5.49147E-07
 -1       518-5.98635E+00 5.33014E+04 5.43340E+04 1.70293E+01 5.38182E+04 4.44493E+00
 -1       519 1.12743E+01 5.35096E+04 5.43408E+04-7.93400E-06 5.38757E+04 1.68098E-06
 -1       520 5.56121E+00 6.58620E+04 6.84710E+04 2.15842E+01 6.72219E+04 5.08525E+00
 -1       521-1.09529E+01 2.96400E+04 2.54568E+04 1.74294E+01 2.75751E+04 3.72121E-01
 -1       522 2.64396E+00 5.34055E+04 5.43374E+04-3.39361E+01 5.38469E+04-2.83112E+00
 -1       523 1.21704E+01 6.58391E+04 6.84539E+04-3.38421E-06 6.71786E+04 8.17424E-08
 -1       524-3.10104E+00 2.97377E+04 2.54862E+04-1.85991E-06 2.76191E+04 4.20413E-08
 -1       525-6.20439E+01 2.82526E+04 2.67977E+04-1.85195E+02 2.72551E+04-6.37258E+01
 -1       526-1.18799E+02 2.81349E+04 2.69612E+04 2.89842E-06 2.74952E+04-3.17782E-06
 -1       527-2.33904E+00 4.09873E+04 4.05645E+04-3.94816E+01 4.07601E+04-1.14375E+01
 -1       528-5.90597E-01 1.69328E+04 1.19045E+04-1.37051E+02 1.43180E+04-2.13729E+01
 -1       529-9.04214E+01 2.81938E+04 2.68794E+04-2.71563E+01 2.73752E+04-4.82342E+01
 -1       530-2.20791E+01 4.08092E+04 4.05692E+04-2.94817E-06 4.07428E+04 4.06057E-07
 -1       531-2.60747E+01 1.69918E+04 1.19194E+04-5.97094E-07 1.44653E+04-2.22646E-07
 -1       532 2.02672E+02 2.02452E+03 1.00252E+03 7.97001E+02 2.97858E+03 1.11494E+02
 -1       533 4.11608E+02 1.40004E+03 5.93219E+02-3.00033E-06 1.53884E+03 1.83899E-06
 -1       534 7.57735E+01 1.44629E+04 1.43103E+04 2.32307E+02 1.46553E+04 8.63769E+01
 -1       535-4.32347E+01 3.77423E+03-1.48188E+03 5.58196E+02 2.06101E+03-3.92248E+01
 -1       536 3.07140E+02 1.71228E+03 7.97870E+02 3.05244E+02 2.25871E+03 1.52245E+02
 -1       537 1.51859E+02 1.47211E+04 1.41545E+04 6.99189E-07 1.44337E+04-1.40735E-06
 -1       538 5.61914E+01 2.97212E+03-1.41375E+03-4.06896E-06 1.15747E+03 1.83081E-06
 -1       539-6.63897E-01-6.39567E+03 1.25456E+06 5.04264E-01 6.78734E+03-7.94253E-01
 -1       540 7.38111E-02 6.74879E+03 1.17125E+06 8.09620E-02 9.74540E+04 1.48021E-02
 -1       541-6.63897E-01-6.39632E+03 1.25456E+06 5.99221E-01 6.78798E+03-8.67214E-01
 -1       542 7.26443E-02 6.74883E+03 1.17125E+06 5.18800E-02 9.74541E+04-3.67708E-02
 -1       543-3.75200E-01-5.81886E+03 6.21306E+05 9.59784E-03 5.00688E+03-1.26602E-01
 -1       544-4.17525E-02 3.34971E+02 1.21287E+06-3.37613E-02 5.16287E+04-3.00291E-02
 -1       545 1.36449E-02-6.61652E+02 5.80046E+05 6.48579E-02 5.22161E+04 2.49263E-02
 -1       546 6.63260E-02 2.57725E+04 1.07651E+06 1.05796E-01 1.74362E+05-8.20774E-02
 -1       547 6.54227E-02 2.57726E+04 1.07651E+06 7.34227E-02 1.74362E+05-1.08248E-01
 -1       548-3.21065E-02 1.64408E+04 1.12388E+06-4.65467E-02 1.36117E+05 1.62602E-02
 -1       549 5.65185E-03 1.04540E+04 5.33110E+05 8.26805E-02 9.00056E+04-9.03878E-03
 -1       550 8.24234E-02 5.28289E+04 9.76530E+05 1.29263E-01 2.30801E+05-1.97468E-01
 -1       551 8.12497E-02 5.28290E+04 9.76529E+05 9.50532E-02 2.30802E+05-1.96860E-01
 -1       552-3.40566E-02 3.94385E+04 1.02655E+06-5.85722E-02 2.02705E+05 6.77206E-02
 -1       553 7.67394E-03 2.46913E+04 4.83408E+05 1.06842E-01 1.18132E+05-5.46795E-02
 -1       554 1.26096E-01 8.16064E+04 8.75544E+05 1.49666E-01 2.69872E+05-3.48754E-01
 -1       555 1.24630E-01 8.16065E+04 8.75543E+05 1.17185E-01 2.69872E+05-3.11949E-01
 -1       556-4.80837E-02 6.72701E+04 9.26070E+05-6.97875E-02 2.50391E+05 1.32664E-01
 -1       557 2.34897E-02 3.98822E+04 4.33241E+05 1.36496E-01 1.37410E+05-1.22521E-01
 -1       558 2.06431E-01 1.09436E+05 7.77090E+05 1.62034E-01 2.93364E+05-5.55819E-01
 -1       559 2.04499E-01 1.09436E+05 7.77088E+05 1.39458E-01 2.93364E+05-4.64489E-01
 -1       560-7.76923E-02 9.55244E+04 8.26335E+05-7.85792E-02 2.81638E+05 2.20138E-01
 -1       561 6.01599E-02 5.44429E+04 3.84316E+05 1.68965E-01 1.48940E+05-2.25825E-01
 -1       562 3.37490E-01 1.33924E+05 6.83529E+05 1.57871E-01 3.03828E+05-8.42216E-01
 -1       563 3.34962E-01 1.33924E+05 6.83528E+05 1.61270E-01 3.03828E+05-6.66837E-01
 -1       564-1.28508E-01 1.21652E+05 7.30316E+05-8.16405E-02 2.98599E+05 3.40919E-01
 -1       565 1.28848E-01 6.72549E+04 3.37841E+05 1.98982E-01 1.53950E+05-3.81713E-01
 -1       566 5.39253E-01 1.53672E+05 5.96410E+05 1.25168E-01 3.03676E+05-1.23541E+00
 -1       567 5.36019E-01 1.53673E+05 5.96408E+05 1.82823E-01 3.03676E+05-9.32088E-01
 -1       568-2.09034E-01 1.43755E+05 6.39968E+05-7.38995E-02 3.03750E+05 5.07670E-01
 -1       569 2.46014E-01 7.76110E+04 2.94576E+05 2.18051E-01 1.53668E+05-6.11750E-01
 -1       570 8.37767E-01 1.67893E+05 5.16548E+05 4.86445E-02 2.95191E+05-1.76626E+00
 -1       571 8.33877E-01 1.67894E+05 5.16545E+05 2.07162E-01 2.95191E+05-1.27259E+00
 -1       572-3.30846E-01 1.60735E+05 5.56472E+05-4.86545E-02 2.99431E+05 7.34950E-01
 -1       573 4.34302E-01 8.51320E+04 2.54930E+05 2.13718E-01 1.49233E+05-9.42141E-01
 -1       574 1.26376E+00 1.76314E+05 4.44218E+05-8.72835E-02 2.80384E+05-2.46629E+00
 -1       575 1.25937E+00 1.76315E+05 4.44214E+05 2.43691E-01 2.80384E+05-1.69680E+00
 -1       576-5.08562E-01 1.72057E+05 4.80371E+05 2.21198E-03 2.87787E+05 1.03865E+00
 -1       577 7.22735E-01 8.96895E+04 2.19033E+05 1.70680E-01 1.41655E+05-1.40253E+00
 -1       578 1.84854E+00 1.79023E+05 3.79287E+05-2.96428E-01 2.60968E+05-3.36283E+00
 -1       579 1.84489E+00 1.79025E+05 3.79282E+05 3.15448E-01 2.60968E+05-2.20416E+00
 -1       580-7.58426E-01 1.77626E+05 4.11736E+05 8.53394E-02 2.70678E+05 1.43359E+00
 -1       581 1.14427E+00 9.13360E+04 1.86818E+05 7.03758E-02 1.31791E+05-2.02305E+00
 -1       582 2.61166E+00 1.76354E+05 3.21347E+05-5.67432E-01 2.38342E+05-4.46322E+00
 -1       583 2.60886E+00 1.76356E+05 3.21341E+05 4.68011E-01 2.38341E+05-2.77385E+00
 -1       584-1.09579E+00 1.77651E+05 3.50295E+05 2.06570E-01 2.49660E+05 1.93117E+00
 -1       585 1.73092E+00 9.02458E+04 1.58077E+05-9.22716E-02 1.20341E+05-2.82518E+00
 -1       586 3.54452E+00 1.68793E+05 2.69808E+05-8.87495E-01 2.13609E+05-5.74826E+00
 -1       587 3.55206E+00 1.68797E+05 2.69802E+05 7.96735E-01 2.13609E+05-3.35623E+00
 -1       588-1.52443E+00 1.72543E+05 2.95550E+05 3.46008E-01 2.25983E+05 2.52470E+00
 -1       589 2.49287E+00 8.66690E+04 1.32514E+05-3.33208E-01 1.07856E+05-3.81201E+00
 -1       590 4.54653E+00 1.56911E+05 2.23979E+05-1.03271E+00 1.87607E+05-7.07861E+00
 -1       591 4.54873E+00 1.56917E+05 2.23972E+05 1.44553E+00 1.87608E+05-3.82143E+00
 -1       592-2.03373E+00 1.62830E+05 2.46858E+05 5.08455E-01 2.00620E+05 3.20060E+00
 -1       593 3.41215E+00 8.08964E+04 1.09782E+05-5.11231E-01 9.47529E+04-4.92369E+00
 -1       594 5.43409E+00 1.41310E+05 1.83114E+05-1.14364E+00 1.60944E+05-8.33774E+00
 -1       595 5.52168E+00 1.41320E+05 1.83108E+05 2.76276E+00 1.60947E+05-4.02695E+00
 -1       596-2.52534E+00 1.49101E+05 2.03500E+05 4.54393E-01 1.74293E+05 3.82049E+00
 -1       597 4.29914E+00 7.32347E+04 8.95069E+04-8.05764E-01 8.13355E+04-6.05118E+00
 -1       598 5.48774E+00 1.22597E+05 1.46452E+05 7.86629E-01 1.34033E+05-8.57270E+00
 -1       599 5.39055E+00 1.22612E+05 1.46448E+05 4.97229E+00 1.34040E+05-3.36253E+00
 -1       600-2.94089E+00 1.31960E+05 1.64723E+05 5.74918E-01 1.47516E+05 4.42755E+00
 -1       601 5.03413E+00 6.39905E+04 7.13101E+04 3.04863E-01 6.78091E+04-6.75478E+00
 -1       602 4.51601E+00 1.01337E+05 1.13252E+05 8.05807E-02 1.07134E+05-8.59009E+00
 -1       603 5.30376E+00 1.01365E+05 1.13250E+05 9.69689E+00 1.07147E+05-2.20523E+00
 -1       604-2.50423E+00 1.11999E+05 1.29779E+05-1.61103E+00 1.20629E+05 3.90986E+00
 -1       605 4.13719E+00 5.34585E+04 5.48141E+04-1.02827E+00 5.43027E+04-6.83365E+00
 -1       606-2.50483E+00 7.81520E+04 8.27398E+04 1.92408E+01 8.03656E+04-6.88520E-01
 -1       607-4.52383E+00 7.81807E+04 8.27483E+04 1.49312E+01 8.03947E+04 4.00104E+00
 -1       608-2.21087E+00 8.98141E+04 9.79141E+04 1.30367E+00 9.38274E+04 4.56290E+00
 -1       609 3.30590E+00 4.19266E+04 3.96534E+04 1.27977E+01 4.08782E+04-3.81071E+00
 -1       610-5.98635E+00 5.33014E+04 5.43340E+04-1.70293E+01 5.38182E+04-4.44494E+00
 -1       611 2.64396E+00 5.34055E+04 5.43374E+04 3.39361E+01 5.38469E+04 2.83112E+00
 -1       612 5.56121E+00 6.58620E+04 6.84710E+04-2.15842E+01 6.72219E+04-5.08525E+00
 -1       613-1.09529E+01 2.96400E+04 2.54568E+04-1.74294E+01 2.75751E+04-3.72120E-01
 -1       614-6.20439E+01 2.82526E+04 2.67977E+04 1.85195E+02 2.72551E+04 6.37258E+01
 -1       615-9.04214E+01 2.81938E+04 2.68794E+04 2.71563E+01 2.73752E+04 4.82342E+01
 -1       616-2.33904E+00 4.09873E+04 4.05645E+04 3.94816E+01 4.07601E+04 1.14375E+01
 -1       617-5.90597E-01 1.69328E+04 1.19045E+04 1.37051E+02 1.43180E+04 2.13729E+01
 -1       618 2.02672E+02 2.02452E+03 1.00252E+03-7.97001E+02 2.97858E+03-1.11494E+02
 -1       619 3.07140E+02 1.71228E+03 7.97870E+02-3.05244E+02 2.25871E+03-1.52245E+02
 -1       620 7.57735E+01 1.44629E+04 1.43103E+04-2.32307E+02 1.46553E+04-8.63769E+01
 -1       621-4.32347E+01 3.77423E+03-1.48188E+03-5.58196E+02 2.06101E+03 3.92248E+01
 -3
    1PSTEP                         9           5           1          
  100CL  105 2.50000E-01         621                     0    5           1
 -4  DISP        4    1
 -5  D1          1    2    1    0
 -5  D2          1    2    2    0
 -5  D3          1    2    3    0
 -5  ALL         1    2    0    0    1ALL
 -1         1 0.00000E+00 0.00000E+00 0.00000E+00
 -1         2 0.00000E+00 0.00000E+00 0.00000E+00
 -1         3 1.70237E-10 2.42440E-02-8.28040E-04
 -1         4 1.57686E-10 2.39025E-02-7.90100E-03
 -1         5 0.00000E+00 0.00000E+00 0.00000E+00
 -1         6 0.00000E+00 0.00000E+00 0.00000E+00
 -1         7-1.75272E-12 2.42440E-02-8.28041E-04
 -1         8-1.32735E-12 2.39025E-02-7.90100E-03
 -1         9 0.00000E+00 0.00000E+00 0.00000E+00
 -1        10-2.09395E-11 6.14152E-03-1.25313E-04
 -1        11 1.64225E-10 2.40723E-02-4.36283E-03
 -1        12-4.61539E-11 6.04718E-03-3.72176E-03
 -1        13 0.00000E+00 0.00000E+00 0.00000E+00
 -1        14 0.00000E+00 0.00000E+00 0.00000E+00
 -1        15 8.43065E-11 2.42440E-02-8.28041E-04
 -1        16 7.81539E-11 2.39025E-02-7.90100E-03
 -1        17 0.00000E+00 0.00000E+00 0.00000E+00
 -1        18-4.38157E-13 6.14152E-03-1.25312E-04
 -1        19-1.53988E-12 2.40723E-02-4.36283E-03
 -1        20-2.39364E-13 6.04718E-03-3.72176E-03
 -1        21 5.26527E-10 9.45986E-02-6.01238E-03
 -1        22 2.58801E-10 9.33285E-02-1.96377E-02
 -1        23-6.99157E-12 9.45986E-02-6.01238E-03
 -1        24-6.11716E-12 9.33285E-02-1.96377E-02
 -1        25-1.54759E-10 5.38801E-02-2.63433E-03
 -1        26 3.92932E-10 9.39631E-02-1.28237E-02
 -1        27-1.17274E-10 5.31377E-02-1.30480E-02
 -1        28 2.59790E-10 9.45986E-02-6.01238E-03
 -1        29 1.26309E-10 9.33285E-02-1.96377E-02
 -1        30-3.93972E-12 5.38801E-02-2.63433E-03
 -1        31-6.55423E-12 9.39631E-02-1.28237E-02
 -1        32-3.28847E-12 5.31377E-02-1.30480E-02
 -1        33 1.10370E-09 2.07446E-01-1.90960E-02
 -1        34 2.85282E-10 2.04787E-01-3.87265E-02
 -1        35-1.56565E-11 2.07446E-01-1.90960E-02
 -1        36-1.43547E-11 2.04787E-01-3.87265E-02
 -1        37-3.93091E-10 1.45944E-01-1.13790E-02
 -1        38 6.94878E-10 2.06116E-01-2.89099E-02
 -1        39-1.62023E-10 1.44029E-01-2.80741E-02
 -1        40 5.44025E-10 2.07446E-01-1.90960E-02
 -1        41 1.35409E-10 2.04787E-01-3.87265E-02
 -1        42-1.09022E-11 1.45944E-01-1.13790E-02
 -1        43-1.50055E-11 2.06116E-01-2.89099E-02
 -1        44-9.81382E-12 1.44029E-01-2.80741E-02
 -1        45 1.95038E-09 3.59045E-01-4.27906E-02
 -1        46 2.03682E-10 3.54656E-01-6.78706E-02
 -1        47-2.76457E-11 3.59045E-01-4.27906E-02
 -1        48-2.59319E-11 3.54656E-01-6.78706E-02
 -1        49-7.58120E-10 2.78637E-01-2.94779E-02
 -1        50 1.07756E-09 3.56850E-01-5.53293E-02
 -1        51-1.69052E-10 2.75150E-01-5.19012E-02
 -1        52 9.61335E-10 3.59045E-01-4.27906E-02
 -1        53 8.87877E-11 3.54656E-01-6.78706E-02
 -1        54-2.12442E-11 2.78637E-01-2.94779E-02
 -1        55-2.67887E-11 3.56850E-01-5.53293E-02
 -1        56-1.97341E-11 2.75150E-01-5.19012E-02
 -1        57 3.11518E-09 5.45658E-01-7.90563E-02
 -1        58-5.01370E-11 5.39300E-01-1.09039E-01
 -1        59-4.28204E-11 5.45658E-01-7.90563E-02
 -1        60-4.07179E-11 5.39300E-01-1.09039E-01
 -1        61-1.27607E-09 4.48206E-01-5.92564E-02
 -1        62 1.53326E-09 5.42479E-01-9.40462E-02
 -1        63-1.16068E-10 4.42857E-01-8.68544E-02
 -1        64 1.53609E-09 5.45658E-01-7.90563E-02
 -1        65-4.55669E-11 5.39300E-01-1.09039E-01
 -1        66-3.48455E-11 4.48206E-01-5.92564E-02
 -1        67-4.17689E-11 5.42479E-01-9.40462E-02
 -1        68-3.29347E-11 4.42857E-01-8.68544E-02
 -1        69 4.62530E-09 7.63645E-01-1.29192E-01
 -1        70-5.94611E-10 7.55169E-01-1.63550E-01
 -1        71-6.10047E-11 7.63645E-01-1.29192E-01
 -1        72-5.85397E-11 7.55169E-01-1.63550E-01
 -1        73-1.96901E-09 6.50952E-01-1.02332E-01
 -1        74 2.01638E-09 7.59407E-01-1.46370E-01
 -1        75 3.90207E-11 6.43549E-01-1.34567E-01
 -1        76 2.28198E-09 7.63645E-01-1.29192E-01
 -1        77-3.26794E-10 7.55169E-01-1.63550E-01
 -1        78-5.15487E-11 6.50952E-01-1.02332E-01
 -1        79-5.97721E-11 7.59407E-01-1.46370E-01
 -1        80-4.92613E-11 6.43549E-01-1.34567E-01
 -1        81 6.45217E-09 1.00953E+00-1.93927E-01
 -1        82-1.64051E-09 9.98869E-01-2.32162E-01
 -1        83-8.19847E-11 1.00953E+00-1.93927E-01
 -1        84-7.91823E-11 9.98869E-01-2.32162E-01
 -1        85-2.84170E-09 8.83310E-01-1.59708E-01
 -1        86 2.40726E-09 1.00420E+00-2.13043E-01
 -1        87 3.72868E-10 8.73746E-01-1.96065E-01
 -1        88 3.18482E-09 1.00953E+00-1.93927E-01
 -1        89-8.60181E-10 9.98869E-01-2.32162E-01
 -1        90-7.11616E-11 8.83310E-01-1.59708E-01
 -1        91-8.05832E-11 1.00420E+00-2.13043E-01
 -1        92-6.85247E-11 8.73746E-01-1.96065E-01
 -1        93 8.45766E-09 1.28006E+00-2.73511E-01
 -1        94-3.55016E-09 1.26720E+00-3.15157E-01
 -1        95-1.05503E-10 1.28006E+00-2.73511E-01
 -1        96-1.02395E-10 1.26720E+00-3.15157E-01
 -1        97-3.86031E-09 1.14191E+00-2.31863E-01
 -1        98 2.45575E-09 1.27363E+00-2.94333E-01
 -1        99 1.01997E-09 1.13015E+00-2.71860E-01
 -1       100 4.17564E-09 1.28006E+00-2.73511E-01
 -1       101-1.82677E-09 1.26720E+00-3.15157E-01
 -1       102-9.34439E-11 1.14191E+00-2.31863E-01
 -1       103-1.03949E-10 1.27363E+00-2.94333E-01
 -1       104-9.04869E-11 1.13015E+00-2.71860E-01
 -1       105 1.03137E-08 1.57219E+00-3.67793E-01
 -1       106-6.92557E-09 1.55719E+00-4.12422E-01
 -1       107-1.31267E-10 1.57219E+00-3.67793E-01
 -1       108-1.27883E-10 1.55719E+00-4.12421E-01
 -1       109-4.91989E-09 1.42360E+00-3.18837E-01
 -1       110 1.69670E-09 1.56469E+00-3.90106E-01
 -1       111 2.20858E-09 1.40966E+00-3.62026E-01
 -1       112 5.09062E-09 1.57219E+00-3.67793E-01
 -1       113-3.52742E-09 1.55719E+00-4.12421E-01
 -1       114-1.18124E-10 1.42360E+00-3.18837E-01
 -1       115-1.29575E-10 1.56469E+00-3.90106E-01
 -1       116-1.14875E-10 1.40966E+00-3.62026E-01
 -1       117 1.13900E-08 1.88314E+00-4.76299E-01
 -1       118-1.27373E-08 1.86609E+00-5.23516E-01
 -1       119-1.58953E-10 1.88314E+00-4.76299E-01
 -1       120-1.55327E-10 1.86609E+00-5.23516E-01
 -1       121-5.79657E-09 1.72548E+00-4.20308E-01
 -1       122-6.69663E-10 1.87462E+00-4.99907E-01
 -1       123 4.31301E-09 1.70944E+00-4.66278E-01
 -1       124 5.61470E-09 1.88314E+00-4.76299E-01
 -1       125-6.44731E-09 1.86609E+00-5.23516E-01
 -1       126-1.44890E-10 1.72548E+00-4.20308E-01
 -1       127-1.57140E-10 1.87462E+00-4.99907E-01
 -1       128-1.41381E-10 1.70944E+00-4.66278E-01
 -1       129 1.06059E-08 2.21038E+00-5.98292E-01
 -1       130-2.24927E-08 2.19140E+00-6.47739E-01
 -1       131-1.88221E-10 2.21038E+00-5.98292E-01
 -1       132-1.84381E-10 2.19140E+00-6.47739E-01
 -1       133-6.08272E-09 2.04488E+00-5.35664E-01
 -1       134-5.93972E-09 2.20089E+00-6.23015E-01
 -1       135 7.93020E-09 2.02684E+00-5.84039E-01
 -1       136 5.20791E-09 2.21038E+00-5.98292E-01
 -1       137-1.13397E-08 2.19140E+00-6.47739E-01
 -1       138-1.73411E-10 2.04488E+00-5.35664E-01
 -1       139-1.86301E-10 2.20089E+00-6.23015E-01
 -1       140-1.69673E-10 2.02684E+00-5.84039E-01
 -1       141 6.25976E-09 2.55158E+00-7.32829E-01
 -1       142-3.84801E-08 2.53083E+00-7.84180E-01
 -1       143-2.18729E-10 2.55158E+00-7.32829E-01
 -1       144-2.14700E-10 2.53083E+00-7.84180E-01
 -1       145-5.10360E-09 2.37937E+00-6.64058E-01
 -1       146-1.60987E-08 2.54121E+00-7.58504E-01
 -1       147 1.39716E-08 2.35948E+00-7.14496E-01
 -1       148 3.01944E-09 2.55158E+00-7.32829E-01
 -1       149-1.93491E-08 2.53083E+00-7.84180E-01
 -1       150-2.03341E-10 2.37937E+00-6.64058E-01
 -1       151-2.16714E-10 2.54121E+00-7.58504E-01
 -1       152-1.99402E-10 2.35948E+00-7.14496E-01
 -1       153-4.14546E-09 2.90465E+00-8.78803E-01
 -1       154-6.39469E-08 2.88229E+00-9.31762E-01
 -1       155-2.50140E-10 2.90465E+00-8.78803E-01
 -1       156-2.45956E-10 2.88229E+00-9.31762E-01
 -1       157-1.83065E-09 2.72676E+00-8.04460E-01
 -1       158-3.40555E-08 2.89347E+00-9.05282E-01
 -1       159 2.38146E-08 2.70518E+00-8.56651E-01
 -1       160-2.19771E-09 2.90465E+00-8.78803E-01
 -1       161-3.20967E-08 2.88229E+00-9.31762E-01
 -1       162-2.34339E-10 2.72676E+00-8.04460E-01
 -1       163-2.48048E-10 2.89347E+00-9.05282E-01
 -1       164-2.30230E-10 2.70518E+00-8.56651E-01
 -1       165-2.39712E-08 3.26768E+00-1.03498E+00
 -1       166-1.03662E-07 3.24391E+00-1.08928E+00
 -1       167-2.82163E-10 3.26768E+00-1.03498E+00
 -1       168-2.77846E-10 3.24391E+00-1.08928E+00
 -1       169 5.21125E-09 3.08503E+00-9.55698E-01
 -1       170-6.37353E-08 3.25579E+00-1.06213E+00
 -1       171 3.93354E-08 3.06194E+00-1.00936E+00
 -1       172-1.21277E-08 3.26768E+00-1.03498E+00
 -1       173-5.19750E-08 3.24391E+00-1.08928E+00
 -1       174-2.66092E-10 3.08503E+00-9.55698E-01
 -1       175-2.80006E-10 3.25579E+00-1.06213E+00
 -1       176-2.61837E-10 3.06194E+00-1.00936E+00
 -1       177-5.73872E-08 3.63892E+00-1.20005E+00
 -1       178-1.62939E-07 3.61394E+00-1.25544E+00
 -1       179-3.14546E-10 3.63892E+00-1.20005E+00
 -1       180-3.10116E-10 3.61394E+00-1.25544E+00
 -1       181 1.79045E-08 3.45237E+00-1.11649E+00
 -1       182-1.10409E-07 3.62643E+00-1.22774E+00
 -1       183 6.34148E-08 3.42797E+00-1.17137E+00
 -1       184-2.88413E-08 3.63892E+00-1.20005E+00
 -1       185-8.16068E-08 3.61394E+00-1.25544E+00
 -1       186-2.98323E-10 3.45237E+00-1.11649E+00
 -1       187-3.12331E-10 3.62643E+00-1.22774E+00
 -1       188-2.93947E-10 3.42797E+00-1.17137E+00
 -1       189-1.08533E-07 4.01679E+00-1.37260E+00
 -1       190-2.51788E-07 3.99081E+00-1.42886E+00
 -1       191-3.47077E-10 4.01679E+00-1.37260E+00
 -1       192-3.42560E-10 3.99081E+00-1.42886E+00
 -1       193 3.85838E-08 3.82712E+00-1.28548E+00
 -1       194-1.79142E-07 4.00380E+00-1.40073E+00
 -1       195 9.85502E-08 3.80161E+00-1.34133E+00
 -1       196-5.44502E-08 4.01679E+00-1.37260E+00
 -1       197-1.26127E-07 3.99081E+00-1.42886E+00
 -1       198-3.30801E-10 3.82712E+00-1.28548E+00
 -1       199-3.44819E-10 4.00380E+00-1.40073E+00
 -1       200-3.26324E-10 3.80161E+00-1.34133E+00
 -1       201-1.80689E-07 4.39982E+00-1.55119E+00
 -1       202-3.68348E-07 4.37305E+00-1.60811E+00
 -1       203-3.79637E-10 4.39982E+00-1.55119E+00
 -1       204-3.75058E-10 4.37305E+00-1.60811E+00
 -1       205 6.89288E-08 4.20775E+00-1.46123E+00
 -1       206-2.78268E-07 4.38643E+00-1.57965E+00
 -1       207 1.52042E-07 4.18134E+00-1.51784E+00
 -1       208-9.04580E-08 4.39982E+00-1.55119E+00
 -1       209-1.84093E-07 4.37305E+00-1.60811E+00
 -1       210-3.63361E-10 4.20775E+00-1.46123E+00
 -1       211-3.77346E-10 4.38643E+00-1.57965E+00
 -1       212-3.58806E-10 4.18134E+00-1.51784E+00
 -1       213-2.71075E-07 4.78662E+00-1.73434E+00
 -1       214-5.56676E-07 4.75929E+00-1.79172E+00
 -1       215-4.12150E-10 4.78662E+00-1.73434E+00
 -1       216-4.07521E-10 4.75929E+00-1.79172E+00
 -1       217 1.11087E-07 4.59283E+00-1.64229E+00
 -1       218-3.99444E-07 4.77296E+00-1.76303E+00
 -1       219 2.15562E-07 4.56575E+00-1.69946E+00
 -1       220-1.35879E-07 4.78662E+00-1.73434E+00
 -1       221-2.79520E-07 4.75929E+00-1.79172E+00
 -1       222-3.95902E-10 4.59283E+00-1.64229E+00
 -1       223-4.09834E-10 4.77296E+00-1.76303E+00
 -1       224-3.91297E-10 4.56575E+00-1.69946E+00
 -1       225-3.70392E-07 5.17591E+00-1.92054E+00
 -1       226-6.79783E-07 5.14825E+00-1.97819E+00
 -1       227-4.44599E-10 5.17591E+00-1.92054E+00
 -1       228-4.39947E-10 5.14825E+00-1.97819E+00
 -1       229 1.58206E-07 4.98104E+00-1.82715E+00
 -1       230-5.79781E-07 5.16208E+00-1.94937E+00
 -1       231 3.38467E-07 4.95351E+00-1.88469E+00
 -1       232-1.84916E-07 5.17591E+00-1.92054E+00
 -1       233-3.36205E-07 5.14825E+00-1.97819E+00
 -1       234-4.28383E-10 4.98104E+00-1.82715E+00
 -1       235-4.42273E-10 5.16208E+00-1.94937E+00
 -1       236-4.23740E-10 4.95351E+00-1.88469E+00
 -1       237-4.40289E-07 5.56643E+00-2.10827E+00
 -1       238-1.25384E-06 5.53866E+00-2.16601E+00
 -1       239-4.76989E-10 5.56643E+00-2.10827E+00
 -1       240-4.72330E-10 5.53865E+00-2.16601E+00
 -1       241 2.15199E-07 5.37110E+00-2.01431E+00
 -1       242-6.38258E-07 5.55255E+00-2.13714E+00
 -1       243 3.45637E-07 5.34334E+00-2.07203E+00
 -1       244-2.21257E-07 5.56643E+00-2.10827E+00
 -1       245-6.42024E-07 5.53865E+00-2.16601E+00
 -1       246-4.60799E-10 5.37110E+00-2.01431E+00
 -1       247-4.74660E-10 5.55254E+00-2.13714E+00
 -1       248-4.56137E-10 5.34334E+00-2.07203E+00
 -1       249 0.00000E+00 0.00000E+00 0.00000E+00
 -1       250 0.00000E+00 0.00000E+00 0.00000E+00
 -1       251-1.73743E-10 2.42440E-02-8.28040E-04
 -1       252-1.60341E-10 2.39025E-02-7.90100E-03
 -1       253 0.00000E+00 0.00000E+00 0.00000E+00
 -1       254 0.00000E+00 0.00000E+00 0.00000E+00
 -1       255-8.78120E-11 2.42440E-02-8.28041E-04
 -1       256-8.08086E-11 2.39025E-02-7.90100E-03
 -1       257 0.00000E+00 0.00000E+00 0.00000E+00
 -1       258 2.00631E-11 6.14152E-03-1.25313E-04
 -1       259-1.67305E-10 2.40723E-02-4.36283E-03
 -1       260 4.56748E-11 6.04718E-03-3.72176E-03
 -1       261-5.40510E-10 9.45986E-02-6.01238E-03
 -1       262-2.71035E-10 9.33285E-02-1.96377E-02
 -1       263-2.73773E-10 9.45986E-02-6.01238E-03
 -1       264-1.38543E-10 9.33285E-02-1.96377E-02
 -1       265 1.46880E-10 5.38801E-02-2.63433E-03
 -1       266-4.06040E-10 9.39631E-02-1.28237E-02
 -1       267 1.10697E-10 5.31377E-02-1.30480E-02
 -1       268-1.13501E-09 2.07446E-01-1.90960E-02
 -1       269-3.13991E-10 2.04787E-01-3.87265E-02
 -1       270-5.75338E-10 2.07446E-01-1.90960E-02
 -1       271-1.64119E-10 2.04787E-01-3.87265E-02
 -1       272 3.71286E-10 1.45944E-01-1.13790E-02
 -1       273-7.24889E-10 2.06116E-01-2.89099E-02
 -1       274 1.42395E-10 1.44029E-01-2.80741E-02
 -1       275-2.00567E-09 3.59045E-01-4.27906E-02
 -1       276-2.55545E-10 3.54656E-01-6.78706E-02
 -1       277-1.01663E-09 3.59045E-01-4.27906E-02
 -1       278-1.40651E-10 3.54656E-01-6.78706E-02
 -1       279 7.15631E-10 2.78637E-01-2.94779E-02
 -1       280-1.13114E-09 3.56850E-01-5.53293E-02
 -1       281 1.29584E-10 2.75150E-01-5.19012E-02
 -1       282-3.20082E-09 5.45658E-01-7.90563E-02
 -1       283-3.12983E-11 5.39300E-01-1.09039E-01
 -1       284-1.62173E-09 5.45658E-01-7.90563E-02
 -1       285-3.58686E-11 5.39300E-01-1.09039E-01
 -1       286 1.20638E-09 4.48206E-01-5.92564E-02
 -1       287-1.61680E-09 5.42479E-01-9.40462E-02
 -1       288 5.01985E-11 4.42857E-01-8.68544E-02
 -1       289-4.74731E-09 7.63645E-01-1.29192E-01
 -1       290 4.77533E-10 7.55169E-01-1.63550E-01
 -1       291-2.40399E-09 7.63645E-01-1.29192E-01
 -1       292 2.09715E-10 7.55169E-01-1.63550E-01
 -1       293 1.86592E-09 6.50952E-01-1.02332E-01
 -1       294-2.13593E-09 7.59407E-01-1.46370E-01
 -1       295-1.37543E-10 6.43549E-01-1.34567E-01
 -1       296-6.61614E-09 1.00953E+00-1.93927E-01
 -1       297 1.48215E-09 9.98869E-01-2.32162E-01
 -1       298-3.34878E-09 1.00953E+00-1.93927E-01
 -1       299 7.01817E-10 9.98869E-01-2.32162E-01
 -1       300 2.69938E-09 8.83310E-01-1.59708E-01
 -1       301-2.56843E-09 1.00420E+00-2.13043E-01
 -1       302-5.09918E-10 8.73746E-01-1.96065E-01
 -1       303-8.66866E-09 1.28006E+00-2.73511E-01
 -1       304 3.34537E-09 1.26720E+00-3.15157E-01
 -1       305-4.38665E-09 1.28006E+00-2.73511E-01
 -1       306 1.62198E-09 1.26720E+00-3.15157E-01
 -1       307 3.67343E-09 1.14191E+00-2.31863E-01
 -1       308-2.66364E-09 1.27363E+00-2.94333E-01
 -1       309-1.20094E-09 1.13015E+00-2.71860E-01
 -1       310-1.05763E-08 1.57219E+00-3.67793E-01
 -1       311 6.66980E-09 1.55719E+00-4.12422E-01
 -1       312-5.35316E-09 1.57219E+00-3.67793E-01
 -1       313 3.27166E-09 1.55719E+00-4.12421E-01
 -1       314 4.68365E-09 1.42360E+00-3.18837E-01
 -1       315-1.95585E-09 1.56469E+00-3.90106E-01
 -1       316-2.43833E-09 1.40966E+00-3.62026E-01
 -1       317-1.17079E-08 1.88314E+00-4.76299E-01
 -1       318 1.24267E-08 1.86609E+00-5.23516E-01
 -1       319-5.93261E-09 1.88314E+00-4.76299E-01
 -1       320 6.13666E-09 1.86609E+00-5.23516E-01
 -1       321 5.50679E-09 1.72548E+00-4.20308E-01
 -1       322 3.55384E-10 1.87462E+00-4.99907E-01
 -1       323-4.59577E-09 1.70944E+00-4.66278E-01
 -1       324-1.09823E-08 2.21038E+00-5.98292E-01
 -1       325 2.21239E-08 2.19140E+00-6.47739E-01
 -1       326-5.58436E-09 2.21038E+00-5.98292E-01
 -1       327 1.09709E-08 2.19140E+00-6.47739E-01
 -1       328 5.73590E-09 2.04488E+00-5.35664E-01
 -1       329 5.56712E-09 2.20089E+00-6.23015E-01
 -1       330-8.26954E-09 2.02684E+00-5.84039E-01
 -1       331-6.69722E-09 2.55158E+00-7.32829E-01
 -1       332 3.80507E-08 2.53083E+00-7.84180E-01
 -1       333-3.45689E-09 2.55158E+00-7.32829E-01
 -1       334 1.89197E-08 2.53083E+00-7.84180E-01
 -1       335 4.69691E-09 2.37937E+00-6.64058E-01
 -1       336 1.56653E-08 2.54121E+00-7.58504E-01
 -1       337-1.43704E-08 2.35948E+00-7.14496E-01
 -1       338 3.64518E-09 2.90465E+00-8.78803E-01
 -1       339 6.34550E-08 2.88229E+00-9.31762E-01
 -1       340 1.69743E-09 2.90465E+00-8.78803E-01
 -1       341 3.16048E-08 2.88229E+00-9.31762E-01
 -1       342 1.36197E-09 2.72676E+00-8.04460E-01
 -1       343 3.35594E-08 2.89347E+00-9.05282E-01
 -1       344-2.42751E-08 2.70518E+00-8.56651E-01
 -1       345 2.34068E-08 3.26768E+00-1.03498E+00
 -1       346 1.03106E-07 3.24391E+00-1.08928E+00
 -1       347 1.15634E-08 3.26768E+00-1.03498E+00
 -1       348 5.14193E-08 3.24391E+00-1.08928E+00
 -1       349-5.74344E-09 3.08503E+00-9.55698E-01
 -1       350 6.31753E-08 3.25579E+00-1.06213E+00
 -1       351-3.98591E-08 3.06194E+00-1.00936E+00
 -1       352 5.67581E-08 3.63892E+00-1.20005E+00
 -1       353 1.62319E-07 3.61394E+00-1.25544E+00
 -1       354 2.82123E-08 3.63892E+00-1.20005E+00
 -1       355 8.09866E-08 3.61394E+00-1.25544E+00
 -1       356-1.85012E-08 3.45237E+00-1.11649E+00
 -1       357 1.09784E-07 3.62643E+00-1.22774E+00
 -1       358-6.40027E-08 3.42797E+00-1.17137E+00
 -1       359 1.07839E-07 4.01679E+00-1.37260E+00
 -1       360 2.51103E-07 3.99081E+00-1.42886E+00
 -1       361 5.37561E-08 4.01679E+00-1.37260E+00
 -1       362 1.25442E-07 3.99081E+00-1.42886E+00
 -1       363-3.92454E-08 3.82712E+00-1.28548E+00
 -1       364 1.78453E-07 4.00380E+00-1.40073E+00
 -1       365-9.92029E-08 3.80161E+00-1.34133E+00
 -1       366 1.79929E-07 4.39982E+00-1.55119E+00
 -1       367 3.67598E-07 4.37305E+00-1.60811E+00
 -1       368 8.96987E-08 4.39982E+00-1.55119E+00
 -1       369 1.83343E-07 4.37305E+00-1.60811E+00
 -1       370-6.96556E-08 4.20775E+00-1.46123E+00
 -1       371 2.77513E-07 4.38643E+00-1.57965E+00
 -1       372-1.52759E-07 4.18134E+00-1.51784E+00
 -1       373 2.70251E-07 4.78662E+00-1.73434E+00
 -1       374 5.55861E-07 4.75929E+00-1.79172E+00
 -1       375 1.35055E-07 4.78662E+00-1.73434E+00
 -1       376 2.78705E-07 4.75929E+00-1.79172E+00
 -1       377-1.11879E-07 4.59283E+00-1.64229E+00
 -1       378 3.98624E-07 4.77296E+00-1.76303E+00
 -1       379-2.16344E-07 4.56575E+00-1.69946E+00
 -1       380 3.69503E-07 5.17591E+00-1.92054E+00
 -1       381 6.78903E-07 5.14825E+00-1.97819E+00
 -1       382 1.84027E-07 5.17591E+00-1.92054E+00
 -1       383 3.35325E-07 5.14825E+00-1.97819E+00
 -1       384-1.59062E-07 4.98104E+00-1.82715E+00
 -1       385 5.78896E-07 5.16208E+00-1.94937E+00
 -1       386-3.39314E-07 4.95351E+00-1.88469E+00
 -1       387 4.39335E-07 5.56643E+00-2.10827E+00
 -1       388 1.25290E-06 5.53866E+00-2.16601E+00
 -1       389 2.20303E-07 5.56643E+00-2.10827E+00
 -1       390 6.41079E-07 5.53865E+00-2.16601E+00
 -1       391-2.16120E-07 5.37110E+00-2.01431E+00
 -1       392 6.37308E-07 5.55255E+00-2.13714E+00
 -1       393-3.46549E-07 5.34334E+00-2.07203E+00
 -1       394 0.00000E+00 0.00000E+00 0.00000E+00
 -1       395 7.73354E-10 2.45854E-02 6.24219E-03
 -1       396 0.00000E+00 0.00000E+00 0.00000E+00
 -1       397-2.17844E-12 2.45854E-02 6.24219E-03
 -1       398 0.00000E+00 0.00000E+00 0.00000E+00
 -1       399-2.32132E-10 6.23570E-03 3.47244E-03
 -1       400 4.71562E-10 2.44157E-02 2.70543E-03
 -1       401 0.00000E+00 0.00000E+00 0.00000E+00
 -1       402 3.85414E-10 2.45854E-02 6.24219E-03
 -1       403 0.00000E+00 0.00000E+00 0.00000E+00
 -1       404-6.36768E-13 6.23570E-03 3.47244E-03
 -1       405-1.96584E-12 2.44157E-02 2.70543E-03
 -1       406 1.27751E-09 9.58686E-02 7.61018E-03
 -1       407-7.86625E-12 9.58686E-02 7.61019E-03
 -1       408-5.49911E-10 5.46226E-02 7.78046E-03
 -1       409 9.01732E-10 9.52341E-02 7.97635E-04
 -1       410 6.34678E-10 9.58686E-02 7.61018E-03
 -1       411-4.59110E-12 5.46227E-02 7.78046E-03
 -1       412-7.42894E-12 9.52341E-02 7.97637E-04
 -1       413 1.53178E-09 2.10104E-01 5.32484E-04
 -1       414-1.69593E-11 2.10104E-01 5.32494E-04
 -1       415-7.53226E-10 1.47858E-01 5.31714E-03
 -1       416 1.31731E-09 2.08775E-01-9.28312E-03
 -1       417 7.57223E-10 2.10104E-01 5.32489E-04
 -1       418-1.19901E-11 1.47858E-01 5.31714E-03
 -1       419-1.63081E-11 2.08775E-01-9.28311E-03
 -1       420 1.46958E-09 3.63434E-01-1.77118E-02
 -1       421-2.93600E-11 3.63434E-01-1.77118E-02
 -1       422-8.31535E-10 2.82124E-01-7.05415E-03
 -1       423 1.70937E-09 3.61240E-01-3.02525E-02
 -1       424 7.19868E-10 3.63434E-01-1.77118E-02
 -1       425-2.27540E-11 2.82124E-01-7.05416E-03
 -1       426-2.85028E-11 3.61240E-01-3.02525E-02
 -1       427 9.18895E-10 5.52017E-01-4.90746E-02
 -1       428-4.49230E-11 5.52017E-01-4.90745E-02
 -1       429-7.28483E-10 4.53556E-01-3.16581E-02
 -1       430 2.01618E-09 5.48838E-01-6.40667E-02
 -1       431 4.36666E-10 5.52017E-01-4.90746E-02
 -1       432-3.67561E-11 4.53556E-01-3.16581E-02
 -1       433-4.38717E-11 5.48838E-01-6.40667E-02
 -1       434-4.34297E-10 7.72120E-01-9.48344E-02
 -1       435-6.34697E-11 7.72120E-01-9.48344E-02
 -1       436-3.28027E-10 6.58355E-01-7.00980E-02
 -1       437 2.09430E-09 7.67882E-01-1.12014E-01
 -1       438-2.49305E-10 7.72120E-01-9.48344E-02
 -1       439-5.38364E-11 6.58355E-01-7.00980E-02
 -1       440-6.22370E-11 7.67882E-01-1.12014E-01
 -1       441-3.10276E-09 1.02019E+00-1.55692E-01
 -1       442-8.47863E-11 1.02019E+00-1.55692E-01
 -1       443 5.68356E-10 8.92874E-01-1.23352E-01
 -1       444 1.67308E-09 1.01486E+00-1.74811E-01
 -1       445-1.59432E-09 1.02019E+00-1.55692E-01
 -1       446-7.37979E-11 8.92874E-01-1.23352E-01
 -1       447-8.33853E-11 1.01486E+00-1.74811E-01
 -1       448-7.87809E-09 1.29291E+00-2.31864E-01
 -1       449-1.08611E-10 1.29291E+00-2.31864E-01
 -1       450 2.27561E-09 1.15367E+00-1.91867E-01
 -1       451 2.87529E-10 1.28648E+00-2.52688E-01
 -1       452-3.99401E-09 1.29291E+00-2.31864E-01
 -1       453-9.64017E-11 1.15367E+00-1.91867E-01
 -1       454-1.07057E-10 1.28648E+00-2.52688E-01
 -1       455-1.59365E-08 1.58719E+00-3.23164E-01
 -1       456-1.34651E-10 1.58719E+00-3.23164E-01
 -1       457 5.27133E-09 1.43754E+00-2.75648E-01
 -1       458-2.81426E-09 1.57969E+00-3.45480E-01
 -1       459-8.03636E-09 1.58719E+00-3.23164E-01
 -1       460-1.21373E-10 1.43754E+00-2.75648E-01
 -1       461-1.32959E-10 1.57969E+00-3.45480E-01
 -1       462-2.89639E-08 1.90020E+00-4.29082E-01
 -1       463-1.62581E-10 1.90020E+00-4.29082E-01
 -1       464 1.02556E-08 1.74152E+00-3.74338E-01
 -1       465-8.79137E-09 1.89167E+00-4.52691E-01
 -1       466-1.45639E-08 1.90020E+00-4.29082E-01
 -1       467-1.48400E-10 1.74152E+00-3.74338E-01
 -1       468-1.60767E-10 1.89167E+00-4.52691E-01
 -1       469-4.92943E-08 2.22936E+00-5.48846E-01
 -1       470-1.92063E-10 2.22936E+00-5.48846E-01
 -1       471 1.82159E-08 2.06291E+00-4.87289E-01
 -1       472-1.93478E-08 2.21987E+00-5.73570E-01
 -1       473-2.47438E-08 2.22936E+00-5.48846E-01
 -1       474-1.77149E-10 2.06291E+00-4.87289E-01
 -1       475-1.90142E-10 2.21987E+00-5.73570E-01
 -1       476-7.99839E-08 2.57234E+00-6.81478E-01
 -1       477-2.22757E-10 2.57234E+00-6.81478E-01
 -1       478 3.05021E-08 2.39926E+00-6.13620E-01
 -1       479-3.68750E-08 2.56196E+00-7.07154E-01
 -1       480-4.01023E-08 2.57234E+00-6.81478E-01
 -1       481-2.07280E-10 2.39926E+00-6.13621E-01
 -1       482-2.20743E-10 2.56196E+00-7.07154E-01
 -1       483-1.24882E-07 2.92701E+00-8.25844E-01
 -1       484-2.54326E-10 2.92701E+00-8.25844E-01
 -1       485 4.88243E-08 2.74834E+00-7.52270E-01
 -1       486-6.45003E-08 2.91583E+00-8.52324E-01
 -1       487-6.25678E-08 2.92701E+00-8.25844E-01
 -1       488-2.38449E-10 2.74834E+00-7.52270E-01
 -1       489-2.52233E-10 2.91583E+00-8.52324E-01
 -1       490-1.88007E-07 3.29145E+00-9.80686E-01
 -1       491-2.86483E-10 3.29145E+00-9.80686E-01
 -1       492 7.53327E-08 3.10812E+00-9.02037E-01
 -1       493-1.06084E-07 3.27956E+00-1.00784E+00
 -1       494-9.41339E-08 3.29145E+00-9.80686E-01
 -1       495-2.70344E-10 3.10812E+00-9.02037E-01
 -1       496-2.84323E-10 3.27956E+00-1.00784E+00
 -1       497-2.73912E-07 3.66390E+00-1.14466E+00
 -1       498-3.18975E-10 3.66390E+00-1.14465E+00
 -1       499 1.11894E-07 3.47678E+00-1.06162E+00
 -1       500-1.65361E-07 3.65141E+00-1.17235E+00
 -1       501-1.37128E-07 3.66390E+00-1.14466E+00
 -1       502-3.02698E-10 3.47678E+00-1.06162E+00
 -1       503-3.16760E-10 3.65141E+00-1.17235E+00
 -1       504-3.81282E-07 4.04277E+00-1.31634E+00
 -1       505-3.51597E-10 4.04277E+00-1.31634E+00
 -1       506 1.61266E-07 3.85263E+00-1.22962E+00
 -1       507-2.46057E-07 4.02978E+00-1.34447E+00
 -1       508-1.90703E-07 4.04277E+00-1.31634E+00
 -1       509-3.35278E-10 3.85263E+00-1.22962E+00
 -1       510-3.49338E-10 4.02978E+00-1.34447E+00
 -1       511-5.15832E-07 4.42658E+00-1.49427E+00
 -1       512-3.84220E-10 4.42658E+00-1.49427E+00
 -1       513 2.19203E-07 4.23415E+00-1.40461E+00
 -1       514-3.44133E-07 4.41320E+00-1.52273E+00
 -1       515-2.58387E-07 4.42658E+00-1.49427E+00
 -1       516-3.67915E-10 4.23415E+00-1.40461E+00
 -1       517-3.81927E-10 4.41320E+00-1.52273E+00
 -1       518-6.21648E-07 4.81396E+00-1.67696E+00
 -1       519-4.16779E-10 4.81396E+00-1.67696E+00
 -1       520 2.96490E-07 4.61991E+00-1.58511E+00
 -1       521-4.61816E-07 4.80029E+00-1.70565E+00
 -1       522-3.09821E-07 4.81396E+00-1.67696E+00
 -1       523-4.00504E-10 4.61991E+00-1.58511E+00
 -1       524-4.14464E-10 4.80029E+00-1.70565E+00
 -1       525-7.98639E-07 5.20359E+00-1.86289E+00
 -1       526-4.49255E-10 5.20359E+00-1.86289E+00
 -1       527 3.23544E-07 5.00857E+00-1.76961E+00
 -1       528-5.27540E-07 5.18975E+00-1.89171E+00
 -1       529-4.03446E-07 5.20359E+00-1.86289E+00
 -1       530-4.33023E-10 5.00857E+00-1.76961E+00
 -1       531-4.46926E-10 5.18975E+00-1.89171E+00
 -1       532-4.28078E-07 5.59422E+00-2.05053E+00
 -1       533-4.81657E-10 5.59422E+00-2.05053E+00
 -1       534 4.81202E-07 5.39885E+00-1.95659E+00
 -1       535-6.46072E-07 5.58033E+00-2.07940E+00
 -1       536-1.99975E-07 5.59422E+00-2.05053E+00
 -1       537-4.65462E-10 5.39885E+00-1.95659E+00
 -1       538-4.79323E-10 5.58033E+00-2.07940E+00
 -1       539 0.00000E+00 0.00000E+00 0.00000E+00
 -1       540-7.77711E-10 2.45854E-02 6.24219E-03
 -1       541 0.00000E+00 0.00000E+00 0.00000E+00
 -1       542-3.89771E-10 2.45854E-02 6.24219E-03
 -1       543 0.00000E+00 0.00000E+00 0.00000E+00
 -1       544 2.30858E-10 6.23570E-03 3.47244E-03
 -1       545-4.75494E-10 2.44157E-02 2.70543E-03
 -1       546-1.29324E-09 9.58686E-02 7.61018E-03
 -1       547-6.50411E-10 9.58686E-02 7.61018E-03
 -1       548 5.40729E-10 5.46226E-02 7.78046E-03
 -1       549-9.16590E-10 9.52341E-02 7.97635E-04
 -1       550-1.56570E-09 2.10104E-01 5.32484E-04
 -1       551-7.91142E-10 2.10104E-01 5.32489E-04
 -1       552 7.29245E-10 1.47858E-01 5.31714E-03
 -1       553-1.34993E-09 2.08775E-01-9.28312E-03
 -1       554-1.52830E-09 3.63434E-01-1.77118E-02
 -1       555-7.78588E-10 3.63434E-01-1.77118E-02
 -1       556 7.86026E-10 2.82124E-01-7.05415E-03
 -1       557-1.76637E-09 3.61240E-01-3.02525E-02
 -1       558-1.00874E-09 5.52017E-01-4.90746E-02
 -1       559-5.26512E-10 5.52017E-01-4.90746E-02
 -1       560 6.54970E-10 4.53556E-01-3.16581E-02
 -1       561-2.10392E-09 5.48838E-01-6.40667E-02
 -1       562 3.07358E-10 7.72120E-01-9.48344E-02
 -1       563 1.22366E-10 7.72120E-01-9.48344E-02
 -1       564 2.20354E-10 6.58355E-01-7.00980E-02
 -1       565-2.21878E-09 7.67882E-01-1.12014E-01
 -1       566 2.93319E-09 1.02019E+00-1.55692E-01
 -1       567 1.42475E-09 1.02019E+00-1.55692E-01
 -1       568-7.15952E-10 8.92874E-01-1.23352E-01
 -1       569-1.83985E-09 1.01486E+00-1.74811E-01
 -1       570 7.66087E-09 1.29291E+00-2.31864E-01
 -1       571 3.77679E-09 1.29291E+00-2.31864E-01
 -1       572-2.46841E-09 1.15367E+00-1.91867E-01
 -1       573-5.01643E-10 1.28648E+00-2.52688E-01
 -1       574 1.56672E-08 1.58719E+00-3.23164E-01
 -1       575 7.76706E-09 1.58719E+00-3.23164E-01
 -1       576-5.51407E-09 1.43754E+00-2.75648E-01
 -1       577 2.54834E-09 1.57969E+00-3.45480E-01
 -1       578 2.86388E-08 1.90020E+00-4.29082E-01
 -1       579 1.42388E-08 1.90020E+00-4.29082E-01
 -1       580-1.05524E-08 1.74152E+00-3.74338E-01
 -1       581 8.46984E-09 1.89167E+00-4.52691E-01
 -1       582 4.89102E-08 2.22936E+00-5.48846E-01
 -1       583 2.43596E-08 2.22936E+00-5.48846E-01
 -1       584-1.85702E-08 2.06291E+00-4.87289E-01
 -1       585 1.89675E-08 2.21987E+00-5.73570E-01
 -1       586 7.95384E-08 2.57234E+00-6.81478E-01
 -1       587 3.96568E-08 2.57234E+00-6.81478E-01
 -1       588-3.09167E-08 2.39926E+00-6.13620E-01
 -1       589 3.64335E-08 2.56196E+00-7.07154E-01
 -1       590 1.24373E-07 2.92701E+00-8.25844E-01
 -1       591 6.20592E-08 2.92701E+00-8.25844E-01
 -1       592-4.93012E-08 2.74834E+00-7.52270E-01
 -1       593 6.39959E-08 2.91583E+00-8.52324E-01
 -1       594 1.87434E-07 3.29145E+00-9.80686E-01
 -1       595 9.35609E-08 3.29145E+00-9.80686E-01
 -1       596-7.58734E-08 3.10812E+00-9.02037E-01
 -1       597 1.05515E-07 3.27956E+00-1.00784E+00
 -1       598 2.73274E-07 3.66390E+00-1.14466E+00
 -1       599 1.36491E-07 3.66390E+00-1.14466E+00
 -1       600-1.12499E-07 3.47678E+00-1.06162E+00
 -1       601 1.64728E-07 3.65141E+00-1.17235E+00
 -1       602 3.80578E-07 4.04277E+00-1.31634E+00
 -1       603 1.90000E-07 4.04277E+00-1.31634E+00
 -1       604-1.61937E-07 3.85263E+00-1.22962E+00
 -1       605 2.45358E-07 4.02978E+00-1.34447E+00
 -1       606 5.15063E-07 4.42658E+00-1.49427E+00
 -1       607 2.57618E-07 4.42658E+00-1.49427E+00
 -1       608-2.19939E-07 4.23415E+00-1.40461E+00
 -1       609 3.43369E-07 4.41320E+00-1.52273E+00
 -1       610 6.20815E-07 4.81396E+00-1.67696E+00
 -1       611 3.08988E-07 4.81396E+00-1.67696E+00
 -1       612-2.97291E-07 4.61991E+00-1.58511E+00
 -1       613 4.60987E-07 4.80029E+00-1.70565E+00
 -1       614 7.97741E-07 5.20359E+00-1.86289E+00
 -1       615 4.02547E-07 5.20359E+00-1.86289E+00
 -1       616-3.24410E-07 5.00857E+00-1.76961E+00
 -1       617 5.26647E-07 5.18975E+00-1.89171E+00
 -1       618 4.27115E-07 5.59422E+00-2.05053E+00
 -1       619 1.99011E-07 5.59422E+00-2.05053E+00
 -1       620-4.82133E-07 5.39885E+00-1.95659E+00
 -1       621 6.45113E-07 5.58033E+00-2.07940E+00
 -3
    1PSTEP                        10           5           1          
  100CL  105 2.50000E-01         621                     0    5           1
 -4  STRESS      6    1
 -5  SXX         1    4    1    1
 -5  SYY         1    4    2    2
 -5  SZZ         1    4    3    3
 -5  SXY         1    4    1    2
 -5  SYZ         1    4    2    3
 -5  SZX         1    4    3    1
 -1         1-1.69616E-01-5.72429E+03-1.44763E+06-7.62447E-01 3.14434E+02 4.14930E-01
 -1         2-1.42794E-01-7.46130E+03-1.62928E+04 3.22235E-01 4.49459E+03-7.13596E-01
 -1         3-6.31455E-02-1.10569E+04-1.53018E+04-2.61664E-02 8.49622E+03-5.11176E-02
 -1         4 1.77806E-02-1.11223E+04-1.34423E+06 2.66080E-02-1.30901E+05 1.01852E-02
 -1         5-1.69616E-01-5.72295E+03-1.44764E+06-6.53103E-07 3.13938E+02 2.67069E-05
 -1         6-1.42794E-01-7.46122E+03-1.62923E+04-8.12556E-07 4.49475E+03 5.13575E-07
 -1         7-6.21198E-02-1.10570E+04-1.53013E+04 1.43740E-06 8.49621E+03 8.76616E-07
 -1         8 1.73683E-02-1.11222E+04-1.34423E+06 5.25533E-06-1.30901E+05 5.39104E-05
 -1         9-1.55785E-01-6.62317E+03-7.31839E+05-2.78855E-01 2.67266E+03-1.46209E-01
 -1        10 2.96987E-02-8.82263E+03-1.53949E+04 1.11174E-02 6.46319E+03 1.33439E-02
 -1        11-2.26525E-02-1.11048E+04-6.79708E+05 1.97423E-02-6.12796E+04-2.16740E-02
 -1        12-7.98939E-03-7.78326E+03-1.39671E+06-1.74069E-02-6.47302E+04-1.84610E-04
 -1        13-1.69616E-01-5.72362E+03-1.44764E+06-7.57319E-01 3.14186E+02 4.31639E-01
 -1        14-1.42794E-01-7.46126E+03-1.62925E+04 2.67273E-01 4.49467E+03-6.99402E-01
 -1        15-6.26326E-02-1.10570E+04-1.53016E+04-1.55490E-02 8.49621E+03-2.43268E-02
 -1        16 1.75744E-02-1.11222E+04-1.34423E+06 1.52735E-02-1.30901E+05 2.49856E-02
 -1        17-1.55785E-01-6.62186E+03-7.31839E+05-6.91960E-07 2.67198E+03 1.36126E-05
 -1        18 3.02116E-02-8.82262E+03-1.53952E+04 4.43633E-07 6.46321E+03 7.03297E-07
 -1        19-2.23428E-02-1.11048E+04-6.79708E+05 2.97203E-06-6.12796E+04 2.40613E-05
 -1        20-8.19539E-03-7.78327E+03-1.39671E+06 2.52409E-06-6.47303E+04 3.95397E-05
 -1        21-7.45564E-02-6.46148E+03-1.41043E+04-4.20915E-02 6.77229E+03-9.59089E-02
 -1        22 2.36318E-02-4.35871E+04-1.22327E+06 1.51510E-02-2.29877E+05 3.36808E-02
 -1        23-7.42042E-02-6.46155E+03-1.41038E+04 9.45493E-07 6.77235E+03 5.39042E-07
 -1        24 2.31074E-02-4.35869E+04-1.22327E+06 9.76761E-06-2.29877E+05 4.95318E-05
 -1        25 3.36996E-02-8.50850E+03-1.47297E+04 1.60522E-02 7.59242E+03 3.69200E-02
 -1        26-2.54072E-02-2.50246E+04-6.18667E+05 7.46742E-03-1.11584E+05-3.60272E-02
 -1        27-1.01442E-02-2.71361E+04-1.28362E+06-9.84922E-03-1.80923E+05-1.06036E-02
 -1        28-7.43803E-02-6.46152E+03-1.41040E+04-2.35444E-02 6.77232E+03-5.09085E-02
 -1        29 2.33697E-02-4.35870E+04-1.22327E+06 2.22194E-03-2.29877E+05 4.52229E-02
 -1        30 3.43885E-02-8.50847E+03-1.47300E+04 1.00055E-06 7.59240E+03 7.18125E-07
 -1        31-2.54915E-02-2.50245E+04-6.18667E+05 4.98360E-06-1.11584E+05 2.30189E-05
 -1        32-1.06126E-02-2.71362E+04-1.28362E+06 7.18342E-06-1.80924E+05 5.22821E-05
 -1        33-9.07500E-02-4.45480E+03-1.32064E+04-7.01168E-02 6.43396E+03-1.35431E-01
 -1        34 3.48053E-02-8.32472E+04-1.09403E+06 1.02811E-02-3.02122E+05 6.47871E-02
 -1        35-9.06843E-02-4.45488E+03-1.32059E+04 9.88251E-07 6.43409E+03 4.96769E-07
 -1        36 3.39267E-02-8.32468E+04-1.09403E+06 1.41629E-05-3.02122E+05 5.22325E-05
 -1        37 4.12157E-02-5.37859E+03-1.37070E+04 2.71407E-02 6.51748E+03 5.80690E-02
 -1        38-2.78419E-02-4.38556E+04-5.53599E+05-4.52249E-03-1.47848E+05-4.50468E-02
 -1        39-1.40559E-02-6.34467E+04-1.15844E+06-5.86844E-03-2.66314E+05-2.40162E-02
 -1        40-9.07171E-02-4.45484E+03-1.32062E+04-3.62452E-02 6.43402E+03-7.01070E-02
 -1        41 3.43660E-02-8.32470E+04-1.09403E+06-7.98128E-03-3.02122E+05 7.17831E-02
 -1        42 4.14246E-02-5.37855E+03-1.37073E+04 8.53598E-07 6.51743E+03 5.70936E-07
 -1        43-2.82464E-02-4.38555E+04-5.53599E+05 6.99268E-06-1.47848E+05 2.44786E-05
 -1        44-1.47574E-02-6.34468E+04-1.15844E+06 1.20014E-05-2.66314E+05 5.10439E-05
 -1        45-1.06855E-01-2.23030E+03-1.22181E+04-1.09633E-01 5.64195E+03-1.66526E-01
 -1        46 5.61880E-02-1.25905E+05-9.64327E+05 1.20044E-02-3.48416E+05 1.08380E-01
 -1        47-1.07374E-01-2.23040E+03-1.22177E+04 5.62306E-07 5.64214E+03 4.63184E-07
 -1        48 5.47768E-02-1.25905E+05-9.64328E+05 1.83521E-05-3.48416E+05 5.10938E-05
 -1        49 4.99914E-02-3.36522E+03-1.27851E+04 4.41883E-02 5.96949E+03 7.60558E-02
 -1        50-2.51204E-02-6.40693E+04-4.88260E+05-1.60466E-02-1.71386E+05-4.57361E-02
 -1        51-2.16175E-02-1.04689E+05-1.02892E+06-5.02555E-03-3.25424E+05-4.21865E-02
 -1        52-1.07114E-01-2.23035E+03-1.22179E+04-5.26308E-02 5.64204E+03-7.94930E-02
 -1        53 5.54824E-02-1.25905E+05-9.64328E+05-1.63441E-02-3.48416E+05 1.08331E-01
 -1        54 4.97649E-02-3.36517E+03-1.27853E+04 7.92220E-07 5.96941E+03 4.59554E-07
 -1        55-2.60834E-02-6.40691E+04-4.88260E+05 8.90785E-06-1.71386E+05 2.42298E-05
 -1        56-2.27624E-02-1.04689E+05-1.02892E+06 1.62799E-05-3.25424E+05 5.17212E-05
 -1        57-1.15841E-01-4.91037E+02-1.12749E+04-1.58539E-01 4.96073E+03-1.82092E-01
 -1        58 9.57256E-02-1.65782E+05-8.39450E+05 2.22232E-02-3.73038E+05 1.72450E-01
 -1        59-1.17205E-01-4.91160E+02-1.12746E+04 7.71165E-08 4.96095E+03 2.76437E-07
 -1        60 9.34730E-02-1.65781E+05-8.39451E+05 2.20182E-05-3.73038E+05 4.95979E-05
 -1        61 5.73934E-02-1.43768E+03-1.17871E+04 6.67242E-02 5.25726E+03 8.84035E-02
 -1        62-9.72703E-03-8.31376E+04-4.25352E+05-2.50513E-02-1.84037E+05-3.14808E-02
 -1        63-3.59016E-02-1.45981E+05-9.01690E+05-7.76081E-03-3.60774E+05-6.82539E-02
 -1        64-1.16523E-01-4.91099E+02-1.12748E+04-7.06833E-02 4.96084E+03-7.41806E-02
 -1        65 9.45993E-02-1.65782E+05-8.39450E+05-2.35265E-02-3.73038E+05 1.60154E-01
 -1        66 5.64520E-02-1.43763E+03-1.17873E+04 3.03684E-07 5.25716E+03 3.24546E-07
 -1        67-1.15333E-02-8.31373E+04-4.25352E+05 1.06202E-05-1.84037E+05 2.36926E-05
 -1        68-3.77334E-02-1.45981E+05-9.01689E+05 2.03658E-05-3.60774E+05 5.03259E-05
 -1        69-1.06251E-01 9.94970E+02-1.03273E+04-2.11418E-01 4.28405E+03-1.70122E-01
 -1        70 1.66098E-01-1.99745E+05-7.23022E+05 4.54727E-02-3.79966E+05 2.69205E-01
 -1        71-1.08894E-01 9.94803E+02-1.03273E+04-6.47287E-07 4.28425E+03 3.90469E-07
 -1        72 1.62573E-01-1.99745E+05-7.23024E+05 2.45137E-05-3.79966E+05 4.64718E-05
 -1        73 5.89754E-02 1.56249E+02-1.08206E+04 9.30698E-02 4.60420E+03 9.04211E-02
 -1        74 3.04218E-02-9.93764E+04-3.66666E+05-2.63885E-02-1.87839E+05 8.85505E-03
 -1        75-6.18781E-02-1.82892E+05-7.81100E+05-1.55450E-02-3.76489E+05-1.07122E-01
 -1        76-1.07573E-01 9.94887E+02-1.03273E+04-8.69098E-02 4.28415E+03-4.65035E-02
 -1        77 1.64336E-01-1.99745E+05-7.23023E+05-2.99116E-02-3.79966E+05 2.34686E-01
 -1        78 5.69716E-02 1.56316E+02-1.08206E+04-2.90827E-08 4.60409E+03 3.45398E-07
 -1        79 2.73390E-02-9.93760E+04-3.66666E+05 1.11218E-05-1.87840E+05 2.24628E-05
 -1        80-6.47673E-02-1.82892E+05-7.81099E+05 2.32659E-05-3.76489E+05 4.80831E-05
 -1        81-6.02019E-02 2.21814E+03-9.41041E+03-2.57615E-01 3.66955E+03-1.12679E-01
 -1        82 2.87026E-01-2.25851E+05-6.17053E+05 8.99429E-02-3.73235E+05 4.16466E-01
 -1        83-6.46591E-02 2.21788E+03-9.41065E+03-2.75019E-07 3.66967E+03 2.63945E-07
 -1        84 2.81654E-01-2.25850E+05-6.17054E+05 2.62922E-05-3.73235E+05 4.33721E-05
 -1        85 4.76491E-02 1.51068E+03-9.87553E+03 1.19455E-01 3.97870E+03 7.47272E-02
 -1        86 1.14138E-01-1.11818E+05-3.13224E+05-1.03843E-02-1.84782E+05 9.21395E-02
 -1        87-1.07405E-01-2.12906E+05-6.69956E+05-3.14207E-02-3.76558E+05-1.66122E-01
 -1        88-6.24305E-02 2.21801E+03-9.41053E+03-9.59247E-02 3.66961E+03 1.42166E-02
 -1        89 2.84340E-01-2.25850E+05-6.17054E+05-3.60567E-02-3.73235E+05 3.41955E-01
 -1        90 4.40987E-02 1.51078E+03-9.87549E+03-3.68970E-07 3.97862E+03 1.72187E-07
 -1        91 1.09225E-01-1.11817E+05-3.13224E+05 1.26197E-05-1.84782E+05 2.09075E-05
 -1        92-1.11854E-01-2.12907E+05-6.69955E+05 2.58948E-05-3.76558E+05 4.49915E-05
 -1        93 4.90090E-02 3.22956E+03-8.53477E+03-2.78865E-01 3.11699E+03 1.50458E-02
 -1        94 4.87950E-01-2.43309E+05-5.22393E+05 1.68962E-01-3.56426E+05 6.39232E-01
 -1        95 4.20946E-02 3.22915E+03-8.53543E+03-7.67086E-07 3.11693E+03 4.35222E-09
 -1        96 4.79981E-01-2.43307E+05-5.22395E+05 2.71926E-05-3.56427E+05 3.97604E-05
 -1        97 1.24966E-02 2.63640E+03-8.97475E+03 1.39025E-01 3.40852E+03 3.07281E-02
 -1        98 2.69556E-01-1.20042E+05-2.65456E+05 3.90047E-02-1.76654E+05 2.42275E-01
 -1        99-1.84552E-01-2.34665E+05-5.69681E+05-6.04716E-02-3.64778E+05-2.55747E-01
 -1       100 4.55519E-02 3.22935E+03-8.53510E+03-9.04663E-02 3.11696E+03 1.21588E-01
 -1       101 4.83965E-01-2.43308E+05-5.22394E+05-4.37723E-02-3.56427E+05 4.94884E-01
 -1       102 6.81094E-03 2.63655E+03-8.97453E+03-4.43005E-07 3.40850E+03 1.30462E-07
 -1       103 2.62117E-01-1.20041E+05-2.65458E+05 1.29351E-05-1.76654E+05 1.93224E-05
 -1       104-1.91223E-01-2.34666E+05-5.69680E+05 2.66344E-05-3.64777E+05 4.14234E-05
 -1       105 2.58805E-01 4.05958E+03-7.71547E+03-2.48218E-01 2.63224E+03 2.45145E-01
 -1       106 8.11465E-01-2.52089E+05-4.39038E+05 3.00577E-01-3.32592E+05 9.71011E-01
 -1       107 2.49003E-01 4.05893E+03-7.71670E+03 3.94851E-07 2.63189E+03 5.55688E-07
 -1       108 8.00230E-01-2.52087E+05-4.39041E+05 2.58333E-05-3.32592E+05 3.47417E-05
 -1       109-6.24572E-02 3.56812E+03-8.12715E+03 1.40536E-01 2.89763E+03-5.57645E-02
 -1       110 5.36576E-01-1.24017E+05-2.23370E+05 1.44453E-01-1.64979E+05 4.91181E-01
 -1       111-3.11006E-01-2.47764E+05-4.80701E+05-1.10719E-01-3.44455E+05-3.90414E-01
 -1       112 2.53904E-01 4.05925E+03-7.71609E+03-6.26695E-02 2.63207E+03 2.91582E-01
 -1       113 8.05848E-01-2.52088E+05-4.39039E+05-5.82920E-02-3.32592E+05 7.08973E-01
 -1       114-7.08151E-02 3.56837E+03-8.12667E+03-1.77773E-07 2.89772E+03 1.98627E-07
 -1       115 5.26059E-01-1.24016E+05-2.23372E+05 1.31565E-05-1.64979E+05 1.75431E-05
 -1       116-3.20608E-01-2.47765E+05-4.80700E+05 2.63328E-05-3.44454E+05 3.72645E-05
 -1       117 6.18362E-01 4.73857E+03-6.96165E+03-1.26987E-01 2.21337E+03 6.15935E-01
 -1       118 1.31455E+00-2.52677E+05-3.66419E+05 5.11121E-01-3.04194E+05 1.45505E+00
 -1       119 6.05160E-01 4.73762E+03-6.96360E+03-8.28477E-07 2.21260E+03 1.81487E-08
 -1       120 1.29892E+00-2.52673E+05-3.66423E+05 2.51961E-05-3.04195E+05 3.14622E-05
 -1       121-1.98894E-01 4.33334E+03-7.34230E+03 1.08697E-01 2.44971E+03-2.02497E-01
 -1       122 9.68851E-01-1.23971E+05-1.86685E+05 3.38292E-01-1.50989E+05 8.79247E-01
 -1       123-5.12052E-01-2.52430E+05-4.02734E+05-1.91749E-01-3.18342E+05-5.89036E-01
 -1       124 6.11761E-01 4.73809E+03-6.96262E+03-6.52859E-03 2.21298E+03 5.40135E-01
 -1       125 1.30674E+00-2.52675E+05-3.66421E+05-9.35344E-02-3.04194E+05 1.00162E+00
 -1       126-2.10396E-01 4.33372E+03-7.34150E+03-9.38299E-07 2.44998E+03 1.93096E-07
 -1       127 9.54437E-01-1.23969E+05-1.86687E+05 1.13674E-05-1.50990E+05 1.56082E-05
 -1       128-5.25483E-01-2.52432E+05-4.02732E+05 2.48132E-05-3.18341E+05 3.33178E-05
 -1       129 1.18434E+00 5.29154E+03-6.27961E+03 1.22105E-01 1.85670E+03 1.16891E+00
 -1       130 2.07412E+00-2.45855E+05-3.03621E+05 8.14813E-01-2.73140E+05 2.14136E+00
 -1       131 1.16985E+00 5.29031E+03-6.28242E+03 2.11647E-06 1.85543E+03-3.65361E-07
 -1       132 2.05581E+00-2.45849E+05-3.03625E+05 2.32254E-05-2.73141E+05 2.67625E-05
 -1       133-4.24738E-01 4.95849E+03-6.62628E+03 2.10075E-02 2.06359E+03-4.29628E-01
 -1       134 1.63124E+00-1.20284E+05-1.54946E+05 6.45772E-01-1.35640E+05 1.45236E+00
 -1       135-8.20122E-01-2.49298E+05-3.35038E+05-3.19260E-01-2.88622E+05-8.75365E-01
 -1       136 1.17710E+00 5.29092E+03-6.28102E+03 7.29840E-02 1.85607E+03 8.81187E-01
 -1       137 2.06496E+00-2.45852E+05-3.03623E+05-1.78628E-01-2.73140E+05 1.38746E+00
 -1       138-4.38584E-01 4.95903E+03-6.62508E+03 1.26013E-06 2.06409E+03 1.08406E-08
 -1       139 1.61483E+00-1.20281E+05-1.54949E+05 1.29904E-05-1.35641E+05 1.32022E-05
 -1       140-8.37092E-01-2.49300E+05-3.35037E+05 2.44126E-05-2.88621E+05 2.84296E-05
 -1       141 2.01538E+00 5.73992E+03-5.67271E+03 5.60825E-01 1.55687E+03 1.93702E+00
 -1       142 3.16556E+00-2.32553E+05-2.49545E+05 1.26393E+00-2.40836E+05 3.09148E+00
 -1       143 1.99809E+00 5.73862E+03-5.67642E+03-1.71500E-07 1.55512E+03 5.81975E-07
 -1       144 3.13855E+00-2.32544E+05-2.49550E+05 2.19858E-05-2.40836E+05 2.26401E-05
 -1       145-7.68762E-01 5.46633E+03-5.98305E+03-1.35677E-01 1.73606E+03-7.57780E-01
 -1       146 2.59825E+00-1.13409E+05-1.27606E+05 1.12174E+00-1.19637E+05 2.26089E+00
 -1       147-1.27972E+00-2.39224E+05-2.76610E+05-4.90514E-01-2.56950E+05-1.27528E+00
 -1       148 2.00674E+00 5.73927E+03-5.67456E+03 1.55555E-01 1.55599E+03 1.31168E+00
 -1       149 3.15205E+00-2.32549E+05-2.49548E+05-3.81629E-01-2.40836E+05 1.87955E+00
 -1       150-7.84654E-01 5.46697E+03-5.98141E+03 7.42127E-07 1.73683E+03 1.03708E-07
 -1       151 2.57609E+00-1.13404E+05-1.27610E+05 1.12078E-05-1.19639E+05 1.13951E-05
 -1       152-1.30238E+00-2.39227E+05-2.76608E+05 2.29633E-05-2.56949E+05 2.52698E-05
 -1       153 3.13258E+00 6.10144E+03-5.14201E+03 1.11851E+00 1.30794E+03 2.94104E+00
 -1       154 4.71165E+00-2.13741E+05-2.03025E+05 1.69413E+00-2.08265E+05 4.32977E+00
 -1       155 3.13397E+00 6.10075E+03-5.14656E+03 7.87691E-07 1.30595E+03 2.03097E-07
 -1       156 4.70796E+00-2.13726E+05-2.03031E+05 2.29211E-05-2.08265E+05 1.94379E-05
 -1       157-1.26251E+00 5.87622E+03-5.41451E+03-4.07019E-01 1.46256E+03-1.19770E+00
 -1       158 3.91426E+00-1.03822E+05-1.04082E+05 1.64608E+00-1.03476E+05 3.32831E+00
 -1       159-1.92539E+00-2.23155E+05-2.26319E+05-7.55824E-01-2.24519E+05-1.82127E+00
 -1       160 3.13327E+00 6.10109E+03-5.14428E+03 1.52508E-01 1.30694E+03 1.82911E+00
 -1       161 4.70980E+00-2.13734E+05-2.03028E+05-8.05440E-01-2.08265E+05 2.45206E+00
 -1       162-1.27047E+00 5.87676E+03-5.41242E+03-7.44545E-08 1.46352E+03 5.49944E-07
 -1       163 3.91311E+00-1.03814E+05-1.04087E+05 1.19723E-05-1.03478E+05 1.00069E-05
 -1       164-1.94074E+00-2.23161E+05-2.26316E+05 2.13767E-05-2.24519E+05 2.13696E-05
 -1       165 4.52322E+00 6.39145E+03-4.68743E+03 2.03647E+00 1.10398E+03 4.09898E+00
 -1       166 6.63086E+00-1.90359E+05-1.62902E+05 2.55032E+00-1.76062E+05 5.97913E+00
 -1       167 4.50664E+00 6.39271E+03-4.69244E+03-6.96174E-06 1.10251E+03 9.40499E-07
 -1       168 6.54847E+00-1.90335E+05-1.62909E+05 1.67053E-05-1.76060E+05 1.57381E-05
 -1       169-1.89079E+00 6.20433E+03-4.92124E+03-6.71960E-01 1.23792E+03-1.75811E+00
 -1       170 5.63561E+00-9.19876E+04-8.37939E+04 2.55415E+00-8.74758E+04 4.70052E+00
 -1       171-2.83552E+00-2.02047E+05-1.83001E+05-9.02586E-01-1.92138E+05-2.50875E+00
 -1       172 4.51493E+00 6.39208E+03-4.68994E+03-1.96561E-02 1.10324E+03 2.29716E+00
 -1       173 6.58967E+00-1.90347E+05-1.62905E+05-1.74265E+00-1.76061E+05 3.12592E+00
 -1       174-1.89838E+00 6.20423E+03-4.91878E+03-2.53063E-06 1.23887E+03 3.77233E-07
 -1       175 5.58610E+00-9.19730E+04-8.38001E+04 5.75165E-06-8.74764E+04 7.73657E-06
 -1       176-2.87858E+00-2.02056E+05-1.82998E+05 2.00420E-05-1.92138E+05 1.63642E-05
 -1       177 5.89077E+00 6.62108E+03-4.30578E+03 1.98348E+00 9.40214E+02 5.41552E+00
 -1       178 9.36860E+00-1.63284E+05-1.28065E+05 1.53407E+00-1.44587E+05 7.58356E+00
 -1       179 6.04333E+00 6.62767E+03-4.31081E+03-2.84804E-07 9.40526E+02 4.42254E-07
 -1       180 9.65549E+00-1.63244E+05-1.28072E+05 1.12462E-05-1.44581E+05 1.13692E-05
 -1       181-2.67403E+00 6.46283E+03-4.50224E+03-1.28568E+00 1.05703E+03-2.34183E+00
 -1       182 7.45169E+00-7.83366E+04-6.61860E+04 2.01292E+00-7.18190E+04 6.11269E+00
 -1       183-3.89281E+00-1.76805E+05-1.45522E+05-1.55424E+00-1.60301E+05-3.43993E+00
 -1       184 5.96705E+00 6.62438E+03-4.30829E+03-8.97744E-01 9.40370E+02 2.85436E+00
 -1       185 9.51205E+00-1.63264E+05-1.28068E+05-3.32329E+00-1.44584E+05 3.54611E+00
 -1       186-2.60605E+00 6.46124E+03-4.49972E+03-2.61654E-06 1.05739E+03 4.56826E-07
 -1       187 7.67144E+00-7.83109E+04-6.61920E+04 6.29901E-06-7.18171E+04 5.77444E-06
 -1       188-3.79051E+00-1.76820E+05-1.45519E+05 1.55787E-05-1.60303E+05 1.40316E-05
 -1       189 7.01089E+00 6.80783E+03-4.00022E+03 4.57258E+00 8.12591E+02 5.90130E+00
 -1       190 1.09845E+01-1.33303E+05-9.74767E+04 5.77110E+00-1.13991E+05 1.06015E+01
 -1       191 6.84747E+00 6.82300E+03-4.00289E+03 4.57054E-06 8.17953E+02-1.08095E-06
 -1       192 9.98819E+00-1.33241E+05-9.74833E+04 1.30936E-05-1.13974E+05 1.02532E-05
 -1       193-3.22574E+00 6.66380E+03-4.15838E+03-5.47986E-01 9.14033E+02-3.05854E+00
 -1       194 9.72076E+00-6.32615E+04-5.07354E+04 5.42465E+00-5.65814E+04 8.04146E+00
 -1       195-5.50212E+00-1.48253E+05-1.12808E+05 1.19979E-01-1.29261E+05-4.12742E+00
 -1       196 6.92918E+00 6.81541E+03-4.00155E+03-2.09396E+00 8.15272E+02 2.20445E+00
 -1       197 1.04864E+01-1.33272E+05-9.74800E+04-7.17591E+00-1.13983E+05 4.44808E+00
 -1       198-3.23113E+00 6.65810E+03-4.15592E+03 1.23262E-06 9.13038E+02 4.06453E-07
 -1       199 9.14076E+00-6.32175E+04-5.07426E+04 7.36889E-06-5.65723E+04 5.47782E-06
 -1       200-5.85703E+00-1.48279E+05-1.12805E+05 9.37011E-06-1.29265E+05 1.16812E-05
 -1       201 6.02620E+00 6.94161E+03-3.74556E+03-6.39922E+00 7.25795E+02 7.37465E+00
 -1       202 1.70271E+01-1.01160E+05-7.01770E+04-1.44982E+01-8.42465E+04 8.11303E+00
 -1       203 7.24384E+00 6.98100E+03-3.74872E+03-1.21317E-06 7.38450E+02 1.06623E-06
 -1       204 2.13285E+01-1.01046E+05-7.01749E+04 2.05738E-06-8.42224E+04 6.24968E-06
 -1       205-3.95688E+00 6.80509E+03-3.88134E+03-3.77178E+00 8.05310E+02-2.75755E+00
 -1       206 8.90191E+00-4.71173E+04-3.69633E+04-1.05494E+01-4.17530E+04 7.22366E+00
 -1       207-5.91859E+00-1.17142E+05-8.38554E+04-5.42831E+00-9.90730E+04-6.23271E+00
 -1       208 6.63502E+00 6.96130E+03-3.74714E+03-7.77500E+00 7.32123E+02 3.88971E+00
 -1       209 1.91778E+01-1.01103E+05-7.01760E+04-1.07074E+01-8.42345E+04 1.85550E+00
 -1       210-3.42992E+00 6.79437E+03-3.88128E+03-1.52111E-07 8.00444E+02-4.97859E-07
 -1       211 1.16616E+01-4.70404E+04-3.69611E+04 2.28645E-06-4.17365E+04 3.09303E-06
 -1       212-4.26538E+00-1.17178E+05-8.38527E+04 1.00851E-05-9.90872E+04 7.44335E-06
 -1       213 3.01719E+00 7.11650E+03-3.62339E+03 2.35778E+01 6.72306E+02-1.24338E+00
 -1       214 4.35648E+00-6.74016E+04-4.52625E+04 4.64110E+01-5.52928E+04 2.48413E+01
 -1       215 8.55287E-01 7.16735E+03-3.60373E+03-3.10329E-06 7.06970E+02-1.14881E-06
 -1       216-1.13120E+01-6.72680E+04-4.52766E+04 8.63524E-06-5.52066E+04 6.28292E-06
 -1       217-1.65469E+00 6.92186E+03-3.69751E+03 1.06609E+01 7.15354E+02-4.57944E+00
 -1       218 1.36498E+01-3.02238E+04-2.44002E+04 3.57346E+01-2.72783E+04 1.33245E+01
 -1       219-1.01763E+01-8.40827E+04-5.77349E+04 1.96250E+01-6.96909E+04-2.16337E+00
 -1       220 1.93624E+00 7.14193E+03-3.61356E+03-7.05599E+00 6.89638E+02-7.71522E+00
 -1       221-3.47777E+00-6.73348E+04-4.52696E+04-2.93727E+01-5.52497E+04 8.84058E+00
 -1       222-2.12630E+00 6.89150E+03-3.69434E+03-1.36951E-06 7.06588E+02 6.53617E-07
 -1       223 4.73431E+00-3.01024E+04-2.44202E+04 2.88713E-06-2.72261E+04 1.08028E-06
 -1       224-1.58624E+01-8.41642E+04-5.77393E+04 4.88121E-06-6.97010E+04 7.44239E-06
 -1       225-9.40924E+00 7.04638E+03-3.31172E+03-1.17320E+02 7.30556E+02 1.58793E+01
 -1       226 4.98744E+01-3.30342E+04-2.19597E+04-2.16044E+02-2.66724E+04-4.07158E+01
 -1       227-1.38444E+00 7.22884E+03-3.35140E+03 1.47503E-06 7.70368E+02 1.60313E-06
 -1       228 1.12395E+02-3.26427E+04-2.18626E+04 5.32406E-06-2.66807E+04 2.66698E-06
 -1       229-3.07490E+00 6.89518E+03-3.50046E+03-3.37400E+01 6.64706E+02 6.37308E+00
 -1       230-1.69874E+01-1.28978E+04-1.27021E+04-1.71509E+02-1.29962E+04-1.62426E+01
 -1       231 1.44704E+00-4.97987E+04-3.35897E+04-6.24449E+01-4.08361E+04-2.05706E+01
 -1       232-5.39684E+00 7.13761E+03-3.33156E+03-4.74353E+01 7.50462E+02 2.29565E+01
 -1       233 8.11345E+01-3.28385E+04-2.19112E+04-1.33892E+01-2.66766E+04-2.73998E+01
 -1       234-1.45478E-01 6.87100E+03-3.52395E+03 1.27763E-06 6.38186E+02 3.13226E-08
 -1       235 1.82854E+01-1.26753E+04-1.26082E+04 3.16166E-06-1.29700E+04 2.25797E-06
 -1       236 2.48825E+01-4.98471E+04-3.35777E+04 6.95953E-06-4.09185E+04 3.04295E-06
 -1       237-4.72888E+01 6.47217E+03-3.89415E+03 4.30347E+02 2.77695E+02-1.53187E+02
 -1       238-3.59477E+02 6.25959E+03 1.00943E+03 7.71380E+02 1.70490E+03-3.94176E+01
 -1       239-6.12635E+01 5.43397E+03-3.68054E+03 4.52925E-06-4.83963E+00 6.19124E-09
 -1       240-5.97377E+02 3.43177E+03 8.17757E+02-5.19409E-06 1.44050E+03-3.84480E-06
 -1       241 1.88474E+01 7.16315E+03-3.68778E+03 1.53169E+02 5.19273E+02-2.32178E+01
 -1       242-6.31563E+01 6.27589E+03-1.20243E+03 6.33409E+02 9.72278E+02-6.37215E+01
 -1       243-3.61644E+01-1.42391E+04-1.05483E+04 2.68615E+02-1.26719E+04 5.52728E+01
 -1       244-5.42761E+01 5.95307E+03-3.78735E+03 2.48532E+02 1.36428E+02-1.28598E+02
 -1       245-4.78427E+02 4.84568E+03 9.13592E+02 1.82531E+02 1.57270E+03 1.85040E+01
 -1       246 1.58741E+01 7.00354E+03-3.62202E+03 1.75530E-06 5.01813E+02 4.78280E-07
 -1       247-1.89094E+02 4.48631E+03-1.42362E+03-1.33415E-06 6.92171E+02-1.75795E-06
 -1       248-1.23862E+02-1.46162E+04-1.06403E+04-1.10128E-07-1.25682E+04-6.14443E-08
 -1       249-1.69616E-01-5.72429E+03-1.44763E+06 7.62446E-01 3.14434E+02-4.14876E-01
 -1       250-1.42794E-01-7.46130E+03-1.62928E+04-3.22237E-01 4.49459E+03 7.13597E-01
 -1       251-6.31458E-02-1.10569E+04-1.53018E+04 2.61671E-02 8.49622E+03 5.11183E-02
 -1       252 1.77808E-02-1.11223E+04-1.34423E+06-2.66048E-02-1.30901E+05-1.01601E-02
 -1       253-1.69616E-01-5.72362E+03-1.44764E+06 7.57318E-01 3.14186E+02-4.31586E-01
 -1       254-1.42794E-01-7.46126E+03-1.62925E+04-2.67275E-01 4.49467E+03 6.99403E-01
 -1       255-6.26328E-02-1.10570E+04-1.53016E+04 1.55508E-02 8.49621E+03 2.43280E-02
 -1       256 1.75746E-02-1.11222E+04-1.34423E+06-1.52667E-02-1.30901E+05-2.49191E-02
 -1       257-1.55784E-01-6.62317E+03-7.31839E+05 2.78854E-01 2.67266E+03 1.46236E-01
 -1       258 2.96987E-02-8.82263E+03-1.53949E+04-1.11179E-02 6.46319E+03-1.33431E-02
 -1       259-2.26524E-02-1.11048E+04-6.79708E+05-1.97408E-02-6.12796E+04 2.16802E-02
 -1       260-7.98892E-03-7.78326E+03-1.39671E+06 1.74082E-02-6.47302E+04 2.22310E-04
 -1       261-7.45562E-02-6.46148E+03-1.41043E+04 4.20917E-02 6.77229E+03 9.59098E-02
 -1       262 2.36313E-02-4.35871E+04-1.22327E+06-1.51422E-02-2.29877E+05-3.36310E-02
 -1       263-7.43802E-02-6.46152E+03-1.41040E+04 2.35455E-02 6.77232E+03 5.09094E-02
 -1       264 2.33692E-02-4.35870E+04-1.22327E+06-2.20776E-03-2.29877E+05-4.51484E-02
 -1       265 3.36995E-02-8.50850E+03-1.47297E+04-1.60521E-02 7.59242E+03-3.69193E-02
 -1       266-2.54074E-02-2.50246E+04-6.18667E+05-7.46378E-03-1.11584E+05 3.60485E-02
 -1       267-1.01445E-02-2.71361E+04-1.28362E+06 9.85470E-03-1.80923E+05 1.06422E-02
 -1       268-9.07500E-02-4.45480E+03-1.32064E+04 7.01163E-02 6.43396E+03 1.35432E-01
 -1       269 3.48051E-02-8.32472E+04-1.09403E+06-1.02650E-02-3.02122E+05-6.47295E-02
 -1       270-9.07172E-02-4.45484E+03-1.32062E+04 3.62459E-02 6.43402E+03 7.01080E-02
 -1       271 3.43658E-02-8.32470E+04-1.09403E+06 8.00348E-03-3.02122E+05-7.17021E-02
 -1       272 4.12158E-02-5.37859E+03-1.37070E+04-2.71409E-02 6.51748E+03-5.80680E-02
 -1       273-2.78420E-02-4.38556E+04-5.53599E+05 4.52919E-03-1.47848E+05 4.50723E-02
 -1       274-1.40562E-02-6.34467E+04-1.15844E+06 5.88058E-03-2.66314E+05 2.40704E-02
 -1       275-1.06855E-01-2.23030E+03-1.22181E+04 1.09632E-01 5.64195E+03 1.66527E-01
 -1       276 5.61877E-02-1.25905E+05-9.64327E+05-1.19816E-02-3.48416E+05-1.08315E-01
 -1       277-1.07114E-01-2.23035E+03-1.22179E+04 5.26311E-02 5.64204E+03 7.94941E-02
 -1       278 5.54822E-02-1.25905E+05-9.64328E+05 1.63739E-02-3.48416E+05-1.08248E-01
 -1       279 4.99915E-02-3.36522E+03-1.27851E+04-4.41887E-02 5.96949E+03-7.60547E-02
 -1       280-2.51205E-02-6.40693E+04-4.88260E+05 1.60567E-02-1.71386E+05 4.57664E-02
 -1       281-2.16178E-02-1.04689E+05-1.02892E+06 5.04537E-03-3.25424E+05 4.22482E-02
 -1       282-1.15841E-01-4.91037E+02-1.12749E+04 1.58540E-01 4.96073E+03 1.82093E-01
 -1       283 9.57254E-02-1.65782E+05-8.39450E+05-2.21952E-02-3.73038E+05-1.72381E-01
 -1       284-1.16523E-01-4.91099E+02-1.12748E+04 7.06835E-02 4.96084E+03 7.41815E-02
 -1       285 9.45992E-02-1.65782E+05-8.39450E+05 2.35625E-02-3.73038E+05-1.60070E-01
 -1       286 5.73933E-02-1.43768E+03-1.17871E+04-6.67248E-02 5.25726E+03-8.84023E-02
 -1       287-9.72712E-03-8.31376E+04-4.25352E+05 2.50649E-02-1.84037E+05 3.15133E-02
 -1       288-3.59017E-02-1.45981E+05-9.01690E+05 7.78647E-03-3.60774E+05 6.83212E-02
 -1       289-1.06251E-01 9.94970E+02-1.03273E+04 2.11418E-01 4.28405E+03 1.70123E-01
 -1       290 1.66098E-01-1.99745E+05-7.23022E+05-4.54370E-02-3.79966E+05-2.69134E-01
 -1       291-1.07573E-01 9.94887E+02-1.03273E+04 8.69091E-02 4.28415E+03 4.65046E-02
 -1       292 1.64335E-01-1.99745E+05-7.23023E+05 2.99540E-02-3.79966E+05-2.34604E-01
 -1       293 5.89755E-02 1.56249E+02-1.08206E+04-9.30689E-02 4.60420E+03-9.04198E-02
 -1       294 3.04217E-02-9.93764E+04-3.66666E+05 2.64049E-02-1.87839E+05-8.82111E-03
 -1       295-6.18784E-02-1.82892E+05-7.81100E+05 1.55766E-02-3.76489E+05 1.07192E-01
 -1       296-6.02018E-02 2.21814E+03-9.41041E+03 2.57615E-01 3.66955E+03 1.12681E-01
 -1       297 2.87026E-01-2.25851E+05-6.17053E+05-8.99018E-02-3.73235E+05-4.16397E-01
 -1       298-6.24304E-02 2.21801E+03-9.41053E+03 9.59244E-02 3.66961E+03-1.42155E-02
 -1       299 2.84340E-01-2.25850E+05-6.17054E+05 3.61035E-02-3.73235E+05-3.41877E-01
 -1       300 4.76490E-02 1.51068E+03-9.87553E+03-1.19455E-01 3.97870E+03-7.47259E-02
 -1       301 1.14138E-01-1.11818E+05-3.13224E+05 1.04036E-02-1.84782E+05-9.21055E-02
 -1       302-1.07405E-01-2.12906E+05-6.69956E+05 3.14585E-02-3.76558E+05 1.66192E-01
 -1       303 4.90087E-02 3.22956E+03-8.53477E+03 2.78867E-01 3.11699E+03-1.50442E-02
 -1       304 4.87950E-01-2.43309E+05-5.22393E+05-1.68918E-01-3.56426E+05-6.39166E-01
 -1       305 4.55516E-02 3.22935E+03-8.53510E+03 9.04663E-02 3.11696E+03-1.21587E-01
 -1       306 4.83966E-01-2.43308E+05-5.22394E+05 4.38219E-02-3.56427E+05-4.94812E-01
 -1       307 1.24968E-02 2.63640E+03-8.97475E+03-1.39025E-01 3.40852E+03-3.07267E-02
 -1       308 2.69556E-01-1.20042E+05-2.65456E+05-3.89828E-02-1.76654E+05-2.42242E-01
 -1       309-1.84553E-01-2.34665E+05-5.69681E+05 6.05152E-02-3.64778E+05 2.55814E-01
 -1       310 2.58805E-01 4.05958E+03-7.71547E+03 2.48214E-01 2.63224E+03-2.45144E-01
 -1       311 8.11465E-01-2.52089E+05-4.39038E+05-3.00529E-01-3.32592E+05-9.70948E-01
 -1       312 2.53904E-01 4.05925E+03-7.71609E+03 6.26679E-02 2.63207E+03-2.91581E-01
 -1       313 8.05847E-01-2.52088E+05-4.39039E+05 5.83421E-02-3.32592E+05-7.08907E-01
 -1       314-6.24574E-02 3.56812E+03-8.12715E+03-1.40535E-01 2.89762E+03 5.57657E-02
 -1       315 5.36576E-01-1.24017E+05-2.23370E+05-1.44431E-01-1.64979E+05-4.91150E-01
 -1       316-3.11006E-01-2.47764E+05-4.80701E+05 1.10765E-01-3.44455E+05 3.90478E-01
 -1       317 6.18362E-01 4.73857E+03-6.96165E+03 1.26987E-01 2.21337E+03-6.15933E-01
 -1       318 1.31455E+00-2.52677E+05-3.66419E+05-5.11077E-01-3.04194E+05-1.45499E+00
 -1       319 6.11761E-01 4.73809E+03-6.96262E+03 6.52788E-03 2.21298E+03-5.40134E-01
 -1       320 1.30674E+00-2.52675E+05-3.66421E+05 9.35814E-02-3.04194E+05-1.00156E+00
 -1       321-1.98894E-01 4.33334E+03-7.34230E+03-1.08699E-01 2.44971E+03 2.02499E-01
 -1       322 9.68851E-01-1.23971E+05-1.86685E+05-3.38270E-01-1.50989E+05-8.79217E-01
 -1       323-5.12052E-01-2.52430E+05-4.02734E+05 1.91796E-01-3.18342E+05 5.89095E-01
 -1       324 1.18434E+00 5.29154E+03-6.27961E+03-1.22110E-01 1.85670E+03-1.16891E+00
 -1       325 2.07412E+00-2.45855E+05-3.03621E+05-8.14764E-01-2.73140E+05-2.14131E+00
 -1       326 1.17710E+00 5.29092E+03-6.28102E+03-7.29841E-02 1.85607E+03-8.81186E-01
 -1       327 2.06496E+00-2.45852E+05-3.03623E+05 1.78676E-01-2.73140E+05-1.38741E+00
 -1       328-4.24738E-01 4.95849E+03-6.62628E+03-2.10102E-02 2.06359E+03 4.29630E-01
 -1       329 1.63124E+00-1.20284E+05-1.54946E+05-6.45749E-01-1.35640E+05-1.45233E+00
 -1       330-8.20122E-01-2.49298E+05-3.35038E+05 3.19307E-01-2.88622E+05 8.75418E-01
 -1       331 2.01538E+00 5.73992E+03-5.67271E+03-5.60826E-01 1.55687E+03-1.93702E+00
 -1       332 3.16556E+00-2.32553E+05-2.49545E+05-1.26388E+00-2.40836E+05-3.09144E+00
 -1       333 2.00674E+00 5.73927E+03-5.67456E+03-1.55555E-01 1.55599E+03-1.31168E+00
 -1       334 3.15205E+00-2.32549E+05-2.49548E+05 3.81672E-01-2.40836E+05-1.87950E+00
 -1       335-7.68761E-01 5.46633E+03-5.98305E+03 1.35673E-01 1.73606E+03 7.57781E-01
 -1       336 2.59825E+00-1.13409E+05-1.27606E+05-1.12172E+00-1.19637E+05-2.26087E+00
 -1       337-1.27972E+00-2.39224E+05-2.76610E+05 4.90560E-01-2.56950E+05 1.27533E+00
 -1       338 3.13258E+00 6.10144E+03-5.14201E+03-1.11852E+00 1.30794E+03-2.94104E+00
 -1       339 4.71165E+00-2.13741E+05-2.03025E+05-1.69410E+00-2.08265E+05-4.32973E+00
 -1       340 3.13327E+00 6.10109E+03-5.14428E+03-1.52509E-01 1.30694E+03-1.82911E+00
 -1       341 4.70980E+00-2.13734E+05-2.03028E+05 8.05477E-01-2.08265E+05-2.45202E+00
 -1       342-1.26251E+00 5.87622E+03-5.41451E+03 4.07018E-01 1.46256E+03 1.19770E+00
 -1       343 3.91426E+00-1.03822E+05-1.04082E+05-1.64607E+00-1.03476E+05-3.32829E+00
 -1       344-1.92539E+00-2.23155E+05-2.26319E+05 7.55853E-01-2.24519E+05 1.82131E+00
 -1       345 4.52322E+00 6.39145E+03-4.68743E+03-2.03646E+00 1.10398E+03-4.09898E+00
 -1       346 6.63086E+00-1.90359E+05-1.62902E+05-2.55029E+00-1.76062E+05-5.97910E+00
 -1       347 4.51493E+00 6.39208E+03-4.68994E+03 1.96535E-02 1.10324E+03-2.29715E+00
 -1       348 6.58967E+00-1.90347E+05-1.62905E+05 1.74268E+00-1.76061E+05-3.12589E+00
 -1       349-1.89079E+00 6.20433E+03-4.92124E+03 6.71962E-01 1.23792E+03 1.75811E+00
 -1       350 5.63561E+00-9.19876E+04-8.37939E+04-2.55413E+00-8.74758E+04-4.70050E+00
 -1       351-2.83552E+00-2.02047E+05-1.83001E+05 9.02621E-01-1.92138E+05 2.50878E+00
 -1       352 5.89077E+00 6.62108E+03-4.30578E+03-1.98348E+00 9.40214E+02-5.41552E+00
 -1       353 9.36860E+00-1.63284E+05-1.28065E+05-1.53404E+00-1.44587E+05-7.58353E+00
 -1       354 5.96705E+00 6.62438E+03-4.30829E+03 8.97742E-01 9.40370E+02-2.85436E+00
 -1       355 9.51205E+00-1.63264E+05-1.28068E+05 3.32331E+00-1.44584E+05-3.54609E+00
 -1       356-2.67403E+00 6.46283E+03-4.50224E+03 1.28568E+00 1.05703E+03 2.34183E+00
 -1       357 7.45169E+00-7.83366E+04-6.61860E+04-2.01291E+00-7.18190E+04-6.11268E+00
 -1       358-3.89281E+00-1.76805E+05-1.45522E+05 1.55427E+00-1.60301E+05 3.43996E+00
 -1       359 7.01089E+00 6.80783E+03-4.00022E+03-4.57258E+00 8.12591E+02-5.90130E+00
 -1       360 1.09845E+01-1.33303E+05-9.74767E+04-5.77108E+00-1.13991E+05-1.06015E+01
 -1       361 6.92918E+00 6.81541E+03-4.00155E+03 2.09396E+00 8.15272E+02-2.20445E+00
 -1       362 1.04864E+01-1.33272E+05-9.74800E+04 7.17593E+00-1.13983E+05-4.44806E+00
 -1       363-3.22574E+00 6.66380E+03-4.15838E+03 5.47988E-01 9.14033E+02 3.05854E+00
 -1       364 9.72076E+00-6.32615E+04-5.07354E+04-5.42464E+00-5.65814E+04-8.04144E+00
 -1       365-5.50212E+00-1.48253E+05-1.12808E+05-1.19961E-01-1.29261E+05 4.12745E+00
 -1       366 6.02620E+00 6.94161E+03-3.74556E+03 6.39922E+00 7.25795E+02-7.37465E+00
 -1       367 1.70271E+01-1.01160E+05-7.01770E+04 1.44982E+01-8.42465E+04-8.11302E+00
 -1       368 6.63502E+00 6.96130E+03-3.74714E+03 7.77500E+00 7.32123E+02-3.88971E+00
 -1       369 1.91778E+01-1.01103E+05-7.01760E+04 1.07074E+01-8.42345E+04-1.85549E+00
 -1       370-3.95688E+00 6.80509E+03-3.88134E+03 3.77177E+00 8.05310E+02 2.75755E+00
 -1       371 8.90191E+00-4.71173E+04-3.69633E+04 1.05494E+01-4.17530E+04-7.22366E+00
 -1       372-5.91859E+00-1.17142E+05-8.38554E+04 5.42833E+00-9.90730E+04 6.23273E+00
 -1       373 3.01719E+00 7.11650E+03-3.62339E+03-2.35778E+01 6.72306E+02 1.24338E+00
 -1       374 4.35648E+00-6.74016E+04-4.52625E+04-4.64110E+01-5.52928E+04-2.48413E+01
 -1       375 1.93624E+00 7.14193E+03-3.61356E+03 7.05599E+00 6.89638E+02 7.71522E+00
 -1       376-3.47777E+00-6.73348E+04-4.52696E+04 2.93728E+01-5.52497E+04-8.84056E+00
 -1       377-1.65469E+00 6.92186E+03-3.69751E+03-1.06609E+01 7.15354E+02 4.57944E+00
 -1       378 1.36498E+01-3.02238E+04-2.44002E+04-3.57346E+01-2.72783E+04-1.33245E+01
 -1       379-1.01763E+01-8.40827E+04-5.77349E+04-1.96250E+01-6.96909E+04 2.16338E+00
 -1       380-9.40924E+00 7.04638E+03-3.31172E+03 1.17320E+02 7.30556E+02-1.58792E+01
 -1       381 4.98744E+01-3.30342E+04-2.19597E+04 2.16044E+02-2.66724E+04 4.07158E+01
 -1       382-5.39684E+00 7.13761E+03-3.33156E+03 4.74353E+01 7.50462E+02-2.29565E+01
 -1       383 8.11345E+01-3.28385E+04-2.19112E+04 1.33892E+01-2.66766E+04 2.73998E+01
 -1       384-3.07490E+00 6.89518E+03-3.50046E+03 3.37400E+01 6.64706E+02-6.37308E+00
 -1       385-1.69874E+01-1.28978E+04-1.27021E+04 1.71509E+02-1.29962E+04 1.62426E+01
 -1       386 1.44704E+00-4.97987E+04-3.35897E+04 6.24449E+01-4.08361E+04 2.05706E+01
 -1       387-4.72888E+01 6.47217E+03-3.89415E+03-4.30347E+02 2.77696E+02 1.53187E+02
 -1       388-3.59477E+02 6.25959E+03 1.00943E+03-7.71380E+02 1.70490E+03 3.94177E+01
 -1       389-5.42761E+01 5.95307E+03-3.78735E+03-2.48532E+02 1.36428E+02 1.28598E+02
 -1       390-4.78427E+02 4.84568E+03 9.13592E+02-1.82531E+02 1.57270E+03-1.85040E+01
 -1       391 1.88474E+01 7.16315E+03-3.68778E+03-1.53169E+02 5.19273E+02 2.32178E+01
 -1       392-6.31563E+01 6.27589E+03-1.20243E+03-6.33409E+02 9.72278E+02 6.37215E+01
 -1       393-3.61644E+01-1.42391E+04-1.05483E+04-2.68615E+02-1.26719E+04-5.52728E+01
 -1       394-8.15716E-01-9.26953E+03 1.48024E+06-3.90812E-01 9.09989E+03 9.57830E-01
 -1       395 8.77712E-02 1.10383E+04 1.37285E+06-9.54676E-02 1.34560E+05-1.59958E-02
 -1       396-8.15716E-01-9.27061E+03 1.48024E+06-2.57210E-07 9.10137E+03-2.76189E-05
 -1       397 8.50206E-02 1.10384E+04 1.37285E+06-4.45710E-06 1.34560E+05-5.45838E-05
 -1       398-4.79676E-01-8.33503E+03 7.31849E+05 2.44602E-02 6.52909E+03 1.18992E-01
 -1       399-4.90141E-02 1.10944E+03 1.42655E+06 4.05816E-02 7.11467E+04 3.57749E-02
 -1       400 1.22829E-02 5.89485E+00 6.78717E+05-8.03385E-02 7.16055E+04-3.23489E-02
 -1       401-8.15716E-01-9.27007E+03 1.48024E+06-5.00638E-01 9.10063E+03 1.04812E+00
 -1       402 8.63958E-02 1.10383E+04 1.37285E+06-5.72119E-02 1.34560E+05 4.78592E-02
 -1       403-4.79676E-01-8.33613E+03 7.31848E+05-5.75753E-07 6.53042E+03-1.35550E-05
 -1       404-5.03895E-02 1.10942E+03 1.42655E+06-2.05243E-06 7.11466E+04-4.04132E-05
 -1       405 1.14174E-02 5.91341E+00 6.78717E+05-1.13552E-06 7.16056E+04-2.35214E-05
 -1       406 8.13146E-02 4.17257E+04 1.24740E+06-1.18865E-01 2.37899E+05 1.04868E-01
 -1       407 7.90499E-02 4.17259E+04 1.24740E+06-9.50751E-06 2.37899E+05-5.04217E-05
 -1       408-3.87811E-02 2.66364E+04 1.31013E+06 5.37782E-02 1.86519E+05-2.13715E-02
 -1       409 3.32403E-03 1.76324E+04 6.16630E+05-1.01416E-01 1.22367E+05 9.39272E-03
 -1       410 8.01822E-02 4.17258E+04 1.24740E+06-7.52225E-02 2.37899E+05 1.36507E-01
 -1       411-4.12887E-02 2.66364E+04 1.31013E+06-7.35931E-06 1.86519E+05-5.29771E-05
 -1       412 2.36587E-03 1.76325E+04 6.16629E+05-3.90806E-06 1.22367E+05-2.29248E-05
 -1       413 1.03584E-01 8.40245E+04 1.11449E+06-1.35422E-01 3.10650E+05 2.50524E-01
 -1       414 1.00586E-01 8.40248E+04 1.11449E+06-1.43745E-05 3.10650E+05-5.31499E-05
 -1       415-4.23633E-02 6.30682E+04 1.18097E+06 6.38223E-02 2.74440E+05-8.61042E-02
 -1       416 6.28654E-03 3.97895E+04 5.50624E+05-1.28165E-01 1.58546E+05 6.72716E-02
 -1       417 1.02085E-01 8.40247E+04 1.11449E+06-8.97715E-02 3.10650E+05 2.47403E-01
 -1       418-4.49946E-02 6.30681E+04 1.18097E+06-1.20980E-05 2.74440E+05-5.20138E-05
 -1       419 4.81846E-03 3.97896E+04 5.50623E+05-6.11021E-06 1.58547E+05-2.44405E-05
 -1       420 1.60590E-01 1.27972E+05 9.81306E+05-1.40947E-01 3.57601E+05 4.41689E-01
 -1       421 1.56778E-01 1.27973E+05 9.81303E+05-1.91983E-05 3.57601E+05-5.21942E-05
 -1       422-6.09563E-02 1.06071E+05 1.04793E+06 6.98828E-02 3.34194E+05-1.68232E-01
 -1       423 2.66545E-02 6.28725E+04 4.84531E+05-1.58058E-01 1.81620E+05 1.54245E-01
 -1       424 1.58684E-01 1.27972E+05 9.81304E+05-9.97977E-02 3.57601E+05 3.91647E-01
 -1       425-6.43613E-02 1.06071E+05 1.04793E+06-1.67801E-05 3.34194E+05-5.26996E-05
 -1       426 2.44871E-02 6.28726E+04 4.84530E+05-8.76861E-06 1.81621E+05-2.43168E-05
 -1       427 2.64649E-01 1.69188E+05 8.53457E+05-1.26019E-01 3.82182E+05 7.02185E-01
 -1       428 2.59578E-01 1.69188E+05 8.53454E+05-2.20889E-05 3.82181E+05-5.03553E-05
 -1       429-9.93812E-02 1.48579E+05 9.17398E+05 6.86288E-02 3.69913E+05-2.78613E-01
 -1       430 7.40736E-02 8.43494E+04 4.21081E+05-1.85386E-01 1.93569E+05 2.86706E-01
 -1       431 2.62113E-01 1.69188E+05 8.53455E+05-1.02788E-01 3.82181E+05 5.82358E-01
 -1       432-1.03823E-01 1.48579E+05 9.17399E+05-2.05575E-05 3.69913E+05-5.12168E-05
 -1       433 7.08541E-02 8.43495E+04 4.21079E+05-1.05784E-05 1.93569E+05-2.37949E-05
 -1       434 4.34549E-01 2.04139E+05 7.34459E+05-7.55349E-02 3.88801E+05 1.06003E+00
 -1       435 4.27864E-01 2.04140E+05 7.34455E+05-2.53831E-05 3.88800E+05-4.75622E-05
 -1       436-1.65196E-01 1.86616E+05 7.93963E+05 5.40317E-02 3.85492E+05-4.30123E-01
 -1       437 1.63651E-01 1.02568E+05 3.62057E+05-2.00061E-01 1.96541E+05 4.85639E-01
 -1       438 4.31207E-01 2.04140E+05 7.34457E+05-9.53820E-02 3.88801E+05 8.34271E-01
 -1       439-1.71074E-01 1.86616E+05 7.93965E+05-2.35190E-05 3.85492E+05-4.90097E-05
 -1       440 1.58985E-01 1.02568E+05 3.62055E+05-1.22038E-05 1.96541E+05-2.26176E-05
 -1       441 6.96968E-01 2.30997E+05 6.26341E+05 3.14417E-02 3.81542E+05 1.54753E+00
 -1       442 6.88345E-01 2.30998E+05 6.26335E+05-2.73104E-05 3.81541E+05-4.41001E-05
 -1       443-2.69726E-01 2.17500E+05 6.80396E+05 1.71832E-02 3.85166E+05-6.37757E-01
 -1       444 3.17657E-01 1.16609E+05 3.08457E+05-1.86539E-01 1.92605E+05 7.77178E-01
 -1       445 6.92656E-01 2.30998E+05 6.26338E+05-7.47043E-02 3.81542E+05 1.16291E+00
 -1       446-2.77380E-01 2.17499E+05 6.80399E+05-2.63902E-05 3.85167E+05-4.58649E-05
 -1       447 3.11116E-01 1.16610E+05 3.08454E+05-1.34038E-05 1.92604E+05-2.10076E-05
 -1       448 1.08697E+00 2.48977E+05 5.29910E+05 2.21459E-01 3.64102E+05 2.20060E+00
 -1       449 1.07647E+00 2.48978E+05 5.29903E+05-2.70364E-05 3.64100E+05-4.04020E-05
 -1       450-4.28463E-01 2.39912E+05 5.78116E+05-5.36198E-02 3.72818E+05-9.18549E-01
 -1       451 5.66912E-01 1.26105E+05 2.60680E+05-1.22659E-01 1.83609E+05 1.19268E+00
 -1       452 1.08172E+00 2.48977E+05 5.29907E+05-4.10684E-02 3.64101E+05 1.58283E+00
 -1       453-4.38025E-01 2.39911E+05 5.78119E+05-2.72601E-05 3.72818E+05-4.22390E-05
 -1       454 5.58202E-01 1.26105E+05 2.60676E+05-1.36241E-05 1.83608E+05-1.96388E-05
 -1       455 1.64667E+00 2.58093E+05 4.45122E+05 5.22849E-01 3.39596E+05 3.05542E+00
 -1       456 1.63461E+00 2.58094E+05 4.45113E+05-2.86229E-05 3.39593E+05-3.54985E-05
 -1       457-6.61192E-01 2.53462E+05 4.87501E+05-1.72596E-01 3.51848E+05-1.29088E+00
 -1       458 9.51296E-01 1.31078E+05 2.18697E+05 1.90423E-02 1.71113E+05 1.76718E+00
 -1       459 1.64064E+00 2.58093E+05 4.45118E+05-2.80534E-03 3.39594E+05 2.10389E+00
 -1       460-6.72472E-01 2.53461E+05 4.87505E+05-2.78655E-05 3.51849E+05-3.80759E-05
 -1       461 9.40366E-01 1.31078E+05 2.18692E+05-1.41565E-05 1.71112E+05-1.73657E-05
 -1       462 2.42047E+00 2.58866E+05 3.71359E+05 9.62664E-01 3.10536E+05 4.14306E+00
 -1       463 2.40981E+00 2.58869E+05 3.71349E+05-2.52934E-05 3.10533E+05-3.09661E-05
 -1       464-9.90447E-01 2.58413E+05 4.08220E+05-3.52665E-01 3.25069E+05-1.77165E+00
 -1       465 1.51702E+00 1.31805E+05 1.82194E+05 2.71614E-01 1.56374E+05 2.53575E+00
 -1       466 2.41514E+00 2.58868E+05 3.71354E+05 1.39107E-02 3.10535E+05 2.72550E+00
 -1       467-1.00180E+00 2.58412E+05 4.08225E+05-2.57368E-05 3.25070E+05-3.32519E-05
 -1       468 1.50509E+00 1.31805E+05 1.82187E+05-1.22446E-05 1.56372E+05-1.53420E-05
 -1       469 3.44039E+00 2.52119E+05 3.07660E+05 1.53510E+00 2.78861E+05 5.47107E+00
 -1       470 3.43161E+00 2.52123E+05 3.07648E+05-2.39570E-05 2.78858E+05-2.82873E-05
 -1       471-1.43853E+00 2.55436E+05 3.39483E+05-6.06110E-01 2.94705E+05-2.37375E+00
 -1       472 2.31036E+00 1.28707E+05 1.50686E+05 6.51289E-01 1.40357E+05 3.52277E+00
 -1       473 3.43600E+00 2.52121E+05 3.07654E+05-4.80574E-02 2.78860E+05 3.42346E+00
 -1       474-1.44825E+00 2.55434E+05 3.39489E+05-2.58686E-05 2.94706E+05-2.94655E-05
 -1       475 2.29873E+00 1.28708E+05 1.50678E+05-1.12397E-05 1.40356E+05-1.43299E-05
 -1       476 4.70460E+00 2.38811E+05 2.52883E+05 2.23127E+00 2.45996E+05 7.01814E+00
 -1       477 4.72026E+00 2.38819E+05 2.52869E+05-2.24210E-05 2.45993E+05-2.37488E-05
 -1       478-2.01466E+00 2.45419E+05 2.80237E+05-9.11076E-01 2.62437E+05-3.08891E+00
 -1       479 3.35222E+00 1.22278E+05 1.23602E+05 1.18668E+00 1.23774E+05 4.73094E+00
 -1       480 4.71243E+00 2.38815E+05 2.52876E+05-3.11792E-01 2.45994E+05 4.14111E+00
 -1       481-2.01122E+00 2.45416E+05 2.80244E+05-2.18602E-05 2.62439E+05-2.62529E-05
 -1       482 3.35140E+00 1.22280E+05 1.23593E+05-1.15969E-05 1.23773E+05-1.13675E-05
 -1       483 6.10260E+00 2.19940E+05 2.05824E+05 2.75830E+00 2.12931E+05 8.62186E+00
 -1       484 6.10791E+00 2.19953E+05 2.05810E+05-2.02664E-05 2.12930E+05-1.91916E-05
 -1       485-2.71030E+00 2.29343E+05 2.29309E+05-1.27718E+00 2.29475E+05-3.90271E+00
 -1       486 4.62544E+00 1.13023E+05 1.00340E+05 1.69864E+00 1.07117E+05 6.08854E+00
 -1       487 6.10526E+00 2.19946E+05 2.05817E+05-9.76009E-01 2.12930E+05 4.72776E+00
 -1       488-2.69981E+00 2.29338E+05 2.29316E+05-2.05247E-05 2.29476E+05-2.21623E-05
 -1       489 4.62879E+00 1.13028E+05 1.00330E+05-9.85725E-06 1.07116E+05-9.68067E-06
 -1       490 7.40542E+00 1.96463E+05 1.65294E+05 3.29696E+00 1.80304E+05 1.01658E+01
 -1       491 7.61106E+00 1.96487E+05 1.65280E+05-1.41183E-05 1.80308E+05-1.78066E-05
 -1       492-3.41243E+00 2.08185E+05 1.85501E+05-1.38714E+00 1.96634E+05-4.65359E+00
 -1       493 5.90575E+00 1.01431E+05 8.03026E+04 2.40596E+00 9.07003E+04 7.47090E+00
 -1       494 7.50824E+00 1.96475E+05 1.65287E+05-2.49056E+00 1.80306E+05 5.02594E+00
 -1       495-3.30697E+00 2.08177E+05 1.85508E+05-1.93438E-05 1.96633E+05-1.76514E-05
 -1       496 6.00031E+00 1.01441E+05 8.02935E+04-1.14199E-05 9.07029E+04-7.83030E-06
 -1       497 7.77430E+00 1.69273E+05 1.30152E+05 1.15772E+00 1.48468E+05 1.05199E+01
 -1       498 7.56886E+00 1.69312E+05 1.30142E+05-1.35478E-05 1.48483E+05-1.38772E-05
 -1       499-4.04202E+00 1.82876E+05 1.47648E+05-1.75250E+00 1.64411E+05-5.40778E+00
 -1       500 7.01054E+00 8.79524E+04 6.29237E+04 1.31646E+00 7.46997E+04 8.35456E+00
 -1       501 7.67158E+00 1.69293E+05 1.30147E+05-5.25656E+00 1.48476E+05 4.31644E+00
 -1       502-4.04186E+00 1.82860E+05 1.47654E+05-1.50907E-05 1.64407E+05-1.52221E-05
 -1       503 6.98407E+00 8.79725E+04 6.29165E+04-7.73461E-06 7.47087E+04-6.58618E-06
 -1       504 6.78486E+00 1.39145E+05 9.93480E+04 2.49451E+00 1.17571E+05 1.07909E+01
 -1       505 8.60223E+00 1.39220E+05 9.93433E+04-1.43875E-05 1.17598E+05-8.56331E-06
 -1       506-3.68357E+00 1.54255E+05 1.14656E+05 9.37148E-01 1.33062E+05-4.84929E+00
 -1       507 6.17483E+00 7.29908E+04 4.76708E+04 3.28073E+00 5.91839E+04 8.55607E+00
 -1       508 7.69355E+00 1.39183E+05 9.93456E+04-1.11605E+01 1.17585E+05 3.09763E+00
 -1       509-2.87781E+00 1.54231E+05 1.14659E+05-1.25243E-05 1.33051E+05-1.25343E-05
 -1       510 7.00192E+00 7.30301E+04 4.76698E+04-3.44530E-06 5.92024E+04-5.71383E-06
 -1       511-1.14404E+00 1.06864E+05 7.18511E+04-2.27233E+01 8.75581E+04 1.58387E+00
 -1       512-5.60243E+00 1.06952E+05 7.18677E+04-7.60599E-06 8.76274E+04-8.24454E-06
 -1       513-3.39015E+00 1.23108E+05 8.54910E+04-3.10174E+00 1.02641E+05-5.78324E+00
 -1       514 5.06581E+00 5.69113E+04 3.40548E+04-1.44605E+01 4.41346E+04 4.99943E+00
 -1       515-3.37324E+00 1.06908E+05 7.18594E+04-1.87746E+01 8.75927E+04-4.08319E+00
 -1       516-4.70993E+00 1.23056E+05 8.54913E+04-1.22114E-05 1.02625E+05-7.52127E-06
 -1       517 3.44527E+00 5.69743E+04 3.40588E+04-6.27393E-06 4.41775E+04-3.02423E-06
 -1       518-6.78224E+00 7.27495E+04 4.68984E+04 2.54051E+01 5.83990E+04 7.46847E+00
 -1       519 1.25815E+01 7.30212E+04 4.69042E+04-6.04188E-06 5.84523E+04-5.56675E-06
 -1       520 5.66455E+00 9.00082E+04 5.92810E+04 2.72274E+01 7.31160E+04 5.49736E+00
 -1       521-1.18455E+01 4.00142E+04 2.15947E+04 2.37512E+01 2.95038E+04 1.58699E+00
 -1       522 2.89961E+00 7.28854E+04 4.69013E+04-4.14574E+01 5.84256E+04-2.24628E+00
 -1       523 1.31147E+01 8.99668E+04 5.92637E+04-4.88865E-06 7.30621E+04-8.03560E-06
 -1       524-3.24430E+00 4.01463E+04 2.16302E+04-4.69374E-06 2.95559E+04-1.87101E-06
 -1       525-7.03339E+01 3.84687E+04 2.29923E+04-2.44485E+02 2.94317E+04-7.49295E+01
 -1       526-1.32733E+02 3.84082E+04 2.31647E+04-8.05009E-06 2.97639E+04-3.37180E-06
 -1       527-2.74035E+00 5.59369E+04 3.49241E+04-5.36404E+01 4.41737E+04-1.48112E+01
 -1       528-2.65152E+00 2.26614E+04 9.90666E+03-1.76076E+02 1.51064E+04-2.57008E+01
 -1       529-1.01533E+02 3.84385E+04 2.30785E+04-4.32044E+01 2.95978E+04-5.57966E+01
 -1       530-2.42496E+01 5.57136E+04 3.49306E+04-8.76866E-06 4.41684E+04-3.99977E-06
 -1       531-2.98390E+01 2.27869E+04 9.90783E+03-3.04965E-06 1.52820E+04-1.00725E-06
 -1       532 2.07255E+02 3.51063E+03 1.03456E+03 1.00169E+03 3.71469E+03 1.11515E+02
 -1       533 4.36088E+02 2.29850E+03 6.32615E+02 1.91539E-06 1.93281E+03-2.60485E-06
 -1       534 8.87284E+01 2.00420E+04 1.25386E+04 3.08088E+02 1.61342E+04 1.01378E+02
 -1       535-6.02431E+01 5.08140E+03-1.66973E+03 6.83472E+02 2.01521E+03-5.34170E+01
 -1       536 3.21672E+02 2.90457E+03 8.33590E+02 3.99838E+02 2.82375E+03 1.62614E+02
 -1       537 1.71938E+02 2.02831E+04 1.23693E+04-2.13950E-06 1.58157E+04-2.39660E-06
 -1       538 4.71861E+01 3.81280E+03-1.53174E+03 4.22405E-06 9.89642E+02-1.46068E-06
 -1       539-8.15717E-01-9.26953E+03 1.48024E+06 3.90812E-01 9.09989E+03-9.57885E-01
 -1       540 8.77715E-02 1.10383E+04 1.37285E+06 9.54645E-02 1.34560E+05 1.59665E-02
 -1       541-8.15717E-01-9.27007E+03 1.48024E+06 5.00637E-01 9.10063E+03-1.04818E+00
 -1       542 8.63961E-02 1.10383E+04 1.37285E+06 5.72059E-02 1.34560E+05-4.79284E-02
 -1       543-4.79676E-01-8.33503E+03 7.31849E+05-2.44617E-02 6.52909E+03-1.19019E-01
 -1       544-4.90146E-02 1.10944E+03 1.42655E+06-4.05831E-02 7.11467E+04-3.58156E-02
 -1       545 1.22828E-02 5.89487E+00 6.78717E+05 8.03377E-02 7.16055E+04 3.23413E-02
 -1       546 8.13148E-02 4.17257E+04 1.24740E+06 1.18855E-01 2.37899E+05-1.04921E-01
 -1       547 8.01824E-02 4.17258E+04 1.24740E+06 7.52083E-02 2.37899E+05-1.36584E-01
 -1       548-3.87805E-02 2.66364E+04 1.31013E+06-5.37852E-02 1.86519E+05 2.13296E-02
 -1       549 3.32418E-03 1.76324E+04 6.16630E+05 1.01412E-01 1.22367E+05-9.41473E-03
 -1       550 1.03584E-01 8.40245E+04 1.11449E+06 1.35404E-01 3.10650E+05-2.50584E-01
 -1       551 1.02085E-01 8.40247E+04 1.11449E+06 8.97485E-02 3.10650E+05-2.47486E-01
 -1       552-4.23631E-02 6.30682E+04 1.18097E+06-6.38358E-02 2.74440E+05 8.60471E-02
 -1       553 6.28662E-03 3.97895E+04 5.50624E+05 1.28157E-01 1.58546E+05-6.72976E-02
 -1       554 1.60590E-01 1.27972E+05 9.81306E+05 1.40923E-01 3.57601E+05-4.41757E-01
 -1       555 1.58684E-01 1.27972E+05 9.81304E+05 9.97665E-02 3.57601E+05-3.91733E-01
 -1       556-6.09561E-02 1.06071E+05 1.04793E+06-6.99036E-02 3.34194E+05 1.68168E-01
 -1       557 2.66546E-02 6.28725E+04 4.84531E+05 1.58046E-01 1.81620E+05-1.54275E-01
 -1       558 2.64649E-01 1.69188E+05 8.53457E+05 1.25986E-01 3.82182E+05-7.02256E-01
 -1       559 2.62114E-01 1.69188E+05 8.53455E+05 1.02750E-01 3.82181E+05-5.82444E-01
 -1       560-9.93809E-02 1.48579E+05 9.17398E+05-6.86575E-02 3.69913E+05 2.78543E-01
 -1       561 7.40737E-02 8.43494E+04 4.21081E+05 1.85370E-01 1.93569E+05-2.86739E-01
 -1       562 4.34550E-01 2.04139E+05 7.34459E+05 7.54946E-02 3.88801E+05-1.06010E+00
 -1       563 4.31207E-01 2.04140E+05 7.34457E+05 9.53365E-02 3.88801E+05-8.34354E-01
 -1       564-1.65196E-01 1.86616E+05 7.93963E+05-5.40683E-02 3.85492E+05 4.30052E-01
 -1       565 1.63651E-01 1.02568E+05 3.62057E+05 2.00042E-01 1.96541E+05-4.85672E-01
 -1       566 6.96968E-01 2.30997E+05 6.26341E+05-3.14853E-02 3.81542E+05-1.54760E+00
 -1       567 6.92656E-01 2.30998E+05 6.26338E+05 7.46552E-02 3.81542E+05-1.16299E+00
 -1       568-2.69725E-01 2.17500E+05 6.80396E+05-1.72245E-02 3.85166E+05 6.37686E-01
 -1       569 3.17657E-01 1.16609E+05 3.08457E+05 1.86518E-01 1.92605E+05-7.77211E-01
 -1       570 1.08697E+00 2.48977E+05 5.29910E+05-2.21510E-01 3.64102E+05-2.20066E+00
 -1       571 1.08172E+00 2.48977E+05 5.29907E+05 4.10161E-02 3.64101E+05-1.58290E+00
 -1       572-4.28463E-01 2.39912E+05 5.78116E+05 5.35720E-02 3.72818E+05 9.18482E-01
 -1       573 5.66912E-01 1.26105E+05 2.60680E+05 1.22636E-01 1.83609E+05-1.19272E+00
 -1       574 1.64667E+00 2.58093E+05 4.45122E+05-5.22899E-01 3.39596E+05-3.05548E+00
 -1       575 1.64064E+00 2.58093E+05 4.45118E+05 2.75191E-03 3.39594E+05-2.10396E+00
 -1       576-6.61192E-01 2.53462E+05 4.87501E+05 1.72548E-01 3.51848E+05 1.29082E+00
 -1       577 9.51297E-01 1.31078E+05 2.18697E+05-1.90682E-02 1.71113E+05-1.76721E+00
 -1       578 2.42047E+00 2.58866E+05 3.71359E+05-9.62712E-01 3.10536E+05-4.14312E+00
 -1       579 2.41514E+00 2.58868E+05 3.71354E+05-1.39601E-02 3.10535E+05-2.72556E+00
 -1       580-9.90447E-01 2.58413E+05 4.08220E+05 3.52615E-01 3.25069E+05 1.77159E+00
 -1       581 1.51702E+00 1.31805E+05 1.82194E+05-2.71637E-01 1.56374E+05-2.53577E+00
 -1       582 3.44039E+00 2.52119E+05 3.07660E+05-1.53514E+00 2.78861E+05-5.47112E+00
 -1       583 3.43600E+00 2.52121E+05 3.07654E+05 4.80122E-02 2.78860E+05-3.42351E+00
 -1       584-1.43853E+00 2.55436E+05 3.39483E+05 6.06065E-01 2.94705E+05 2.37370E+00
 -1       585 2.31036E+00 1.28707E+05 1.50686E+05-6.51312E-01 1.40357E+05-3.52279E+00
 -1       586 4.70460E+00 2.38811E+05 2.52883E+05-2.23132E+00 2.45996E+05-7.01818E+00
 -1       587 4.71243E+00 2.38815E+05 2.52876E+05 3.11747E-01 2.45994E+05-4.14116E+00
 -1       588-2.01466E+00 2.45419E+05 2.80237E+05 9.11031E-01 2.62437E+05 3.08887E+00
 -1       589 3.35222E+00 1.22278E+05 1.23602E+05-1.18670E+00 1.23774E+05-4.73096E+00
 -1       590 6.10260E+00 2.19940E+05 2.05824E+05-2.75832E+00 2.12931E+05-8.62189E+00
 -1       591 6.10526E+00 2.19946E+05 2.05817E+05 9.75975E-01 2.12930E+05-4.72780E+00
 -1       592-2.71030E+00 2.29343E+05 2.29309E+05 1.27714E+00 2.29475E+05 3.90267E+00
 -1       593 4.62544E+00 1.13023E+05 1.00340E+05-1.69866E+00 1.07117E+05-6.08856E+00
 -1       594 7.40542E+00 1.96463E+05 1.65294E+05-3.29700E+00 1.80304E+05-1.01658E+01
 -1       595 7.50824E+00 1.96475E+05 1.65287E+05 2.49053E+00 1.80306E+05-5.02598E+00
 -1       596-3.41243E+00 2.08185E+05 1.85501E+05 1.38710E+00 1.96634E+05 4.65356E+00
 -1       597 5.90575E+00 1.01431E+05 8.03026E+04-2.40598E+00 9.07003E+04-7.47092E+00
 -1       598 7.77430E+00 1.69273E+05 1.30152E+05-1.15776E+00 1.48468E+05-1.05199E+01
 -1       599 7.67158E+00 1.69293E+05 1.30147E+05 5.25653E+00 1.48476E+05-4.31647E+00
 -1       600-4.04202E+00 1.82876E+05 1.47648E+05 1.75246E+00 1.64411E+05 5.40775E+00
 -1       601 7.01054E+00 8.79524E+04 6.29237E+04-1.31648E+00 7.46997E+04-8.35457E+00
 -1       602 6.78486E+00 1.39145E+05 9.93480E+04-2.49454E+00 1.17571E+05-1.07910E+01
 -1       603 7.69355E+00 1.39183E+05 9.93456E+04 1.11605E+01 1.17585E+05-3.09765E+00
 -1       604-3.68357E+00 1.54255E+05 1.14656E+05-9.37178E-01 1.33062E+05 4.84927E+00
 -1       605 6.17483E+00 7.29908E+04 4.76708E+04-3.28075E+00 5.91839E+04-8.55607E+00
 -1       606-1.14404E+00 1.06864E+05 7.18511E+04 2.27233E+01 8.75581E+04-1.58388E+00
 -1       607-3.37324E+00 1.06908E+05 7.18594E+04 1.87745E+01 8.75927E+04 4.08317E+00
 -1       608-3.39015E+00 1.23108E+05 8.54910E+04 3.10172E+00 1.02641E+05 5.78322E+00
 -1       609 5.06581E+00 5.69113E+04 3.40548E+04 1.44605E+01 4.41346E+04-4.99944E+00
 -1       610-6.78224E+00 7.27495E+04 4.68984E+04-2.54051E+01 5.83990E+04-7.46848E+00
 -1       611 2.89961E+00 7.28854E+04 4.69013E+04 4.14574E+01 5.84256E+04 2.24627E+00
 -1       612 5.66455E+00 9.00082E+04 5.92810E+04-2.72274E+01 7.31160E+04-5.49737E+00
 -1       613-1.18455E+01 4.00142E+04 2.15947E+04-2.37512E+01 2.95038E+04-1.58699E+00
 -1       614-7.03339E+01 3.84687E+04 2.29923E+04 2.44485E+02 2.94317E+04 7.49295E+01
 -1       615-1.01533E+02 3.84385E+04 2.30785E+04 4.32044E+01 2.95978E+04 5.57965E+01
 -1       616-2.74035E+00 5.59369E+04 3.49241E+04 5.36404E+01 4.41737E+04 1.48112E+01
 -1       617-2.65152E+00 2.26614E+04 9.90666E+03 1.76076E+02 1.51064E+04 2.57008E+01
 -1       618 2.07255E+02 3.51063E+03 1.03456E+03-1.00169E+03 3.71469E+03-1.11515E+02
 -1       619 3.21672E+02 2.90457E+03 8.33590E+02-3.99838E+02 2.82375E+03-1.62614E+02
 -1       620 8.87284E+01 2.00420E+04 1.25386E+04-3.08088E+02 1.61342E+04-1.01378E+02
 -1       621-6.02431E+01 5.08140E+03-1.66973E+03-6.83472E+02 2.01521E+03 5.34170E+01
 -3
    1PSTEP                        11           6           1          
  100CL  106 3.00000E-01         621                     0    6           1
 -4  DISP        4    1
 -5  D1          1    2    1    0
 -5  D2          1    2    2    0
 -5  D3          1    2    3    0
 -5  ALL         1    2    0    0    1ALL
 -1         1 0.00000E+00 0.00000E+00 0.00000E+00
 -1         2 0.00000E+00 0.00000E+00 0.00000E+00
 -1         3 2.47858E-10 2.73924E-02-1.05683E-03
 -1         4 9.26247E-11 2.69571E-02-9.04091E-03
 -1         5 0.00000E+00 0.00000E+00 0.00000E+00
 -1         6 0.00000E+00 0.00000E+00 0.00000E+00
 -1         7 1.92197E-14 2.73924E-02-1.05683E-03
 -1         8 1.06440E-14 2.69571E-02-9.04091E-03
 -1         9 0.00000E+00 0.00000E+00 0.00000E+00
 -1        10-3.36680E-11 6.94563E-03-1.60135E-04
 -1        11 1.70545E-10 2.71735E-02-5.04683E-03
 -1        12-3.22246E-11 6.82514E-03-4.22481E-03
 -1        13 0.00000E+00 0.00000E+00 0.00000E+00
 -1        14 0.00000E+00 0.00000E+00 0.00000E+00
 -1        15 1.24020E-10 2.73924E-02-1.05683E-03
 -1        16 4.62783E-11 2.69571E-02-9.04091E-03
 -1        17 0.00000E+00 0.00000E+00 0.00000E+00
 -1        18 4.81678E-15 6.94563E-03-1.60134E-04
 -1        19 1.49252E-14 2.71735E-02-5.04683E-03
 -1        20 8.37865E-16 6.82514E-03-4.22481E-03
 -1        21 7.34104E-10 1.06673E-01-7.64796E-03
 -1        22 1.06496E-10 1.05061E-01-2.29790E-02
 -1        23 7.62247E-14 1.06673E-01-7.64796E-03
 -1        24 5.85576E-14 1.05061E-01-2.29790E-02
 -1        25-2.13270E-10 6.08197E-02-3.35671E-03
 -1        26 4.20588E-10 1.05867E-01-1.53119E-02
 -1        27-6.14777E-11 5.98754E-02-1.50933E-02
 -1        28 3.67118E-10 1.06673E-01-7.64796E-03
 -1        29 5.32309E-11 1.05061E-01-2.29790E-02
 -1        30 4.30730E-14 6.08197E-02-3.35671E-03
 -1        31 6.73899E-14 1.05867E-01-1.53119E-02
 -1        32 3.00794E-14 5.98754E-02-1.50933E-02
 -1        33 1.50266E-09 2.33399E-01-2.42039E-02
 -1        34 1.38390E-11 2.30042E-01-4.62086E-02
 -1        35 1.69612E-13 2.33399E-01-2.42039E-02
 -1        36 1.43395E-13 2.30042E-01-4.62086E-02
 -1        37-5.19950E-10 1.64392E-01-1.44489E-02
 -1        38 7.58659E-10 2.31720E-01-3.52046E-02
 -1        39-4.63817E-11 1.61969E-01-3.31993E-02
 -1        40 7.51419E-10 2.33399E-01-2.42039E-02
 -1        41 6.91592E-12 2.30042E-01-4.62086E-02
 -1        42 1.18427E-13 1.64392E-01-1.44489E-02
 -1        43 1.56485E-13 2.31720E-01-3.52046E-02
 -1        44 9.66785E-14 1.61969E-01-3.31993E-02
 -1        45 2.61474E-09 4.02972E-01-5.40354E-02
 -1        46-2.37034E-10 3.97459E-01-8.20324E-02
 -1        47 2.97103E-13 4.02972E-01-5.40354E-02
 -1        48 2.62762E-13 3.97459E-01-8.20324E-02
 -1        49-9.81832E-10 3.13118E-01-3.72940E-02
 -1        50 1.18941E-09 4.00216E-01-6.80323E-02
 -1        51 3.07205E-11 3.08727E-01-6.23779E-02
 -1        52 1.30748E-09 4.02972E-01-5.40354E-02
 -1        53-1.18504E-10 3.97459E-01-8.20324E-02
 -1        54 2.29214E-13 3.13118E-01-3.72940E-02
 -1        55 2.79985E-13 4.00216E-01-6.80323E-02
 -1        56 1.98775E-13 3.08727E-01-6.23779E-02
 -1        57 4.13122E-09 6.10826E-01-9.94556E-02
 -1        58-7.42378E-10 6.02882E-01-1.32779E-01
 -1        59 4.56758E-13 6.10826E-01-9.94556E-02
 -1        60 4.14419E-13 6.02882E-01-1.32779E-01
 -1        61-1.63212E-09 5.02395E-01-7.46875E-02
 -1        62 1.69520E-09 6.06854E-01-1.16116E-01
 -1        63 2.03715E-10 4.95695E-01-1.05429E-01
 -1        64 2.06573E-09 6.10826E-01-9.94556E-02
 -1        65-3.71168E-10 6.02882E-01-1.32779E-01
 -1        66 3.73084E-13 5.02395E-01-7.46875E-02
 -1        67 4.35552E-13 6.06854E-01-1.16116E-01
 -1        68 3.34342E-13 4.95695E-01-1.05429E-01
 -1        69 6.08531E-09 8.52559E-01-1.61917E-01
 -1        70-1.67506E-09 8.42026E-01-1.99935E-01
 -1        71 6.46381E-13 8.52559E-01-1.61917E-01
 -1        72 5.95970E-13 8.42026E-01-1.99935E-01
 -1        73-2.49863E-09 7.27724E-01-1.28495E-01
 -1        74 2.20623E-09 8.47293E-01-1.80924E-01
 -1        75 5.34781E-10 7.18500E-01-1.64242E-01
 -1        76 3.04277E-09 8.52559E-01-1.61917E-01
 -1        77-8.37522E-10 8.42026E-01-1.99935E-01
 -1        78 5.48674E-13 7.27724E-01-1.28495E-01
 -1        79 6.21435E-13 8.47293E-01-1.80924E-01
 -1        80 5.02086E-13 7.18500E-01-1.64242E-01
 -1        81 8.43867E-09 1.12403E+00-2.42149E-01
 -1        82-3.33566E-09 1.11084E+00-2.84270E-01
 -1        83 8.63792E-13 1.12403E+00-2.42149E-01
 -1        84 8.07655E-13 1.11084E+00-2.84270E-01
 -1        85-3.58694E-09 9.84824E-01-1.99790E-01
 -1        86 2.55304E-09 1.11744E+00-2.63209E-01
 -1        87 1.13435E-09 9.72969E-01-2.39931E-01
 -1        88 4.21941E-09 1.12403E+00-2.42149E-01
 -1        89-1.66786E-09 1.11084E+00-2.84270E-01
 -1        90 7.51227E-13 9.84824E-01-1.99790E-01
 -1        91 8.35901E-13 1.11744E+00-2.63209E-01
 -1        92 6.97184E-13 9.72969E-01-2.39931E-01
 -1        93 1.10127E-08 1.42140E+00-3.40289E-01
 -1        94-6.23101E-09 1.40558E+00-3.85973E-01
 -1        95 1.10595E-12 1.42140E+00-3.40289E-01
 -1        96 1.04198E-12 1.40558E+00-3.85973E-01
 -1        97-4.85333E-09 1.26970E+00-2.88992E-01
 -1        98 2.39301E-09 1.41349E+00-3.63130E-01
 -1        99 2.19223E-09 1.25520E+00-3.32959E-01
 -1       100 5.50636E-09 1.42140E+00-3.40289E-01
 -1       101-3.11562E-09 1.40558E+00-3.85973E-01
 -1       102 9.81940E-13 1.26970E+00-2.88992E-01
 -1       103 1.07401E-12 1.41349E+00-3.63130E-01
 -1       104 9.21112E-13 1.25520E+00-3.32959E-01
 -1       105 1.33862E-08 1.74118E+00-4.55998E-01
 -1       106-1.11898E-08 1.72282E+00-5.04752E-01
 -1       107 1.36966E-12 1.74118E+00-4.55998E-01
 -1       108 1.29945E-12 1.72282E+00-5.04752E-01
 -1       109-6.16312E-09 1.57869E+00-3.95984E-01
 -1       110 1.10104E-09 1.73200E+00-4.80374E-01
 -1       111 4.02508E-09 1.56159E+00-4.43262E-01
 -1       112 6.69300E-09 1.74118E+00-4.55998E-01
 -1       113-5.59513E-09 1.72282E+00-5.04752E-01
 -1       114 1.23520E-12 1.57869E+00-3.95984E-01
 -1       115 1.33409E-12 1.73200E+00-4.80374E-01
 -1       116 1.16596E-12 1.56159E+00-4.43262E-01
 -1       117 1.47516E-08 2.08022E+00-5.88562E-01
 -1       118-1.95284E-08 2.05943E+00-6.39946E-01
 -1       119 1.65318E-12 2.08022E+00-5.88562E-01
 -1       120 1.57491E-12 2.05943E+00-6.39946E-01
 -1       121-7.22981E-09 1.90848E+00-5.20229E-01
 -1       122-2.38405E-09 2.06983E+00-6.14253E-01
 -1       123 7.14459E-09 1.88888E+00-5.70351E-01
 -1       124 7.37558E-09 2.08022E+00-5.88562E-01
 -1       125-9.76462E-09 2.05943E+00-6.39946E-01
 -1       126 1.51011E-12 1.90848E+00-5.20229E-01
 -1       127 1.61434E-12 2.06983E+00-6.14253E-01
 -1       128 1.43579E-12 1.88888E+00-5.70351E-01
 -1       129 1.37266E-08 2.43569E+00-7.36978E-01
 -1       130-3.32644E-08 2.41265E+00-7.90598E-01
 -1       131 1.95217E-12 2.43569E+00-7.36978E-01
 -1       132 1.87111E-12 2.41265E+00-7.90598E-01
 -1       133-7.53228E-09 2.25607E+00-6.60860E-01
 -1       134-9.76484E-09 2.42417E+00-7.63787E-01
 -1       135 1.23551E-08 2.23413E+00-7.13409E-01
 -1       136 6.86311E-09 2.43569E+00-7.36978E-01
 -1       137-1.66326E-08 2.41265E+00-7.90598E-01
 -1       138 1.80060E-12 2.25607E+00-6.60860E-01
 -1       139 1.91124E-12 2.42417E+00-7.63787E-01
 -1       140 1.72058E-12 2.23413E+00-7.13409E-01
 -1       141 8.13568E-09 2.80508E+00-9.00028E-01
 -1       142-5.54137E-08 2.77997E+00-9.55533E-01
 -1       143 2.26403E-12 2.80508E+00-9.00028E-01
 -1       144 2.18105E-12 2.77997E+00-9.55533E-01
 -1       145-6.20829E-09 2.61879E+00-8.16757E-01
 -1       146-2.36267E-08 2.79253E+00-9.27780E-01
 -1       147 2.08703E-08 2.59469E+00-8.71361E-01
 -1       148 4.06759E-09 2.80508E+00-9.00028E-01
 -1       149-2.77076E-08 2.77997E+00-9.55533E-01
 -1       150 2.10668E-12 2.61879E+00-8.16757E-01
 -1       151 2.22205E-12 2.79253E+00-9.27780E-01
 -1       152 2.02391E-12 2.59469E+00-8.71361E-01
 -1       153-5.21274E-09 3.18615E+00-1.07633E+00
 -1       154-9.02064E-08 3.15919E+00-1.13341E+00
 -1       155 2.59793E-12 3.18615E+00-1.07633E+00
 -1       156 2.51141E-12 3.15918E+00-1.13341E+00
 -1       157-1.94376E-09 2.99428E+00-9.86614E-01
 -1       158-4.77190E-08 3.17267E+00-1.10487E+00
 -1       159 3.44921E-08 2.96822E+00-1.04294E+00
 -1       160-2.60496E-09 3.18615E+00-1.07633E+00
 -1       161-4.51022E-08 3.15919E+00-1.13341E+00
 -1       162 2.43176E-12 2.99428E+00-9.86614E-01
 -1       163 2.55449E-12 3.17267E+00-1.10487E+00
 -1       164 2.34796E-12 2.96822E+00-1.04294E+00
 -1       165-3.06150E-08 3.57690E+00-1.26439E+00
 -1       166-1.43684E-07 3.54832E+00-1.32276E+00
 -1       167 2.93696E-12 3.57690E+00-1.26439E+00
 -1       168 2.84696E-12 3.54832E+00-1.32276E+00
 -1       169 7.14598E-09 3.38043E+00-1.16899E+00
 -1       170-8.70637E-08 3.56261E+00-1.29357E+00
 -1       171 5.56562E-08 3.35263E+00-1.22675E+00
 -1       172-1.53074E-08 3.57690E+00-1.26439E+00
 -1       173-7.18449E-08 3.54832E+00-1.32276E+00
 -1       174 2.76413E-12 3.38043E+00-1.16899E+00
 -1       175 2.89217E-12 3.56261E+00-1.29357E+00
 -1       176 2.68042E-12 3.35263E+00-1.22675E+00
 -1       177-7.34012E-08 3.97558E+00-1.46261E+00
 -1       178-2.22578E-07 3.94561E+00-1.52204E+00
 -1       179 3.28120E-12 3.97558E+00-1.46261E+00
 -1       180 3.18979E-12 3.94561E+00-1.52204E+00
 -1       181 2.34664E-08 3.77536E+00-1.36233E+00
 -1       182-1.48247E-07 3.96060E+00-1.49232E+00
 -1       183 8.79514E-08 3.74605E+00-1.42126E+00
 -1       184-3.66867E-08 3.97558E+00-1.46261E+00
 -1       185-1.11268E-07 3.94561E+00-1.52204E+00
 -1       186 3.10846E-12 3.77536E+00-1.36233E+00
 -1       187 3.23509E-12 3.96060E+00-1.49232E+00
 -1       188 3.01850E-12 3.74605E+00-1.42126E+00
 -1       189-1.38866E-07 4.38058E+00-1.66938E+00
 -1       190-3.38502E-07 4.34947E+00-1.72963E+00
 -1       191 3.63846E-12 4.38058E+00-1.66938E+00
 -1       192 3.54403E-12 4.34947E+00-1.72963E+00
 -1       193 5.00020E-08 4.17738E+00-1.56503E+00
 -1       194-2.37614E-07 4.36503E+00-1.69950E+00
 -1       195 1.34608E-07 4.14681E+00-1.62490E+00
 -1       196-6.94442E-08 4.38058E+00-1.66938E+00
 -1       197-1.69309E-07 4.34947E+00-1.72963E+00
 -1       198 3.45967E-12 4.17738E+00-1.56503E+00
 -1       199 3.59125E-12 4.36503E+00-1.69950E+00
 -1       200 3.36894E-12 4.14681E+00-1.62490E+00
 -1       201-2.31206E-07 4.79046E+00-1.88300E+00
 -1       202-4.89865E-07 4.75847E+00-1.94387E+00
 -1       203 4.00409E-12 4.79046E+00-1.88300E+00
 -1       204 3.90654E-12 4.75847E+00-1.94387E+00
 -1       205 8.89011E-08 4.58500E+00-1.77544E+00
 -1       206-3.64481E-07 4.77447E+00-1.91344E+00
 -1       207 2.03729E-07 4.55341E+00-1.83602E+00
 -1       208-1.15503E-07 4.79046E+00-1.88300E+00
 -1       209-2.44647E-07 4.75847E+00-1.94387E+00
 -1       210 3.81277E-12 4.58500E+00-1.77544E+00
 -1       211 3.95587E-12 4.77447E+00-1.91344E+00
 -1       212 3.72455E-12 4.55341E+00-1.83602E+00
 -1       213-3.46878E-07 5.20391E+00-2.10179E+00
 -1       214-7.22177E-07 5.17128E+00-2.16309E+00
 -1       215 4.36451E-12 5.20391E+00-2.10179E+00
 -1       216 4.26504E-12 5.17128E+00-2.16309E+00
 -1       217 1.42915E-07 4.99682E+00-1.99186E+00
 -1       218-5.19317E-07 5.18760E+00-2.13244E+00
 -1       219 2.86719E-07 4.96448E+00-2.05297E+00
 -1       220-1.73610E-07 5.20391E+00-2.10179E+00
 -1       221-3.62098E-07 5.17128E+00-2.16309E+00
 -1       222 4.18273E-12 4.99682E+00-1.99186E+00
 -1       223 4.31588E-12 5.18760E+00-2.13244E+00
 -1       224 4.08850E-12 4.96448E+00-2.05297E+00
 -1       225-4.73987E-07 5.61968E+00-2.32402E+00
 -1       226-8.85844E-07 5.58667E+00-2.38558E+00
 -1       227 4.72857E-12 5.61968E+00-2.32402E+00
 -1       228 4.62946E-12 5.58667E+00-2.38558E+00
 -1       229 2.03276E-07 5.41158E+00-2.21258E+00
 -1       230-7.37689E-07 5.60318E+00-2.35480E+00
 -1       231 4.33731E-07 5.37873E+00-2.27404E+00
 -1       232-2.36348E-07 5.61968E+00-2.32402E+00
 -1       233-4.38777E-07 5.58667E+00-2.38558E+00
 -1       234 4.54194E-12 5.41158E+00-2.21258E+00
 -1       235 4.68003E-12 5.60318E+00-2.35480E+00
 -1       236 4.44598E-12 5.37873E+00-2.27404E+00
 -1       237-5.63460E-07 6.03661E+00-2.54798E+00
 -1       238-1.51714E-06 6.00347E+00-2.60963E+00
 -1       239 5.11732E-12 6.03661E+00-2.54798E+00
 -1       240 5.02297E-12 6.00347E+00-2.60963E+00
 -1       241 2.76296E-07 5.82808E+00-2.43590E+00
 -1       242-8.19182E-07 6.02004E+00-2.57880E+00
 -1       243 4.59597E-07 5.79496E+00-2.49752E+00
 -1       244-2.82846E-07 6.03661E+00-2.54798E+00
 -1       245-7.74393E-07 6.00347E+00-2.60963E+00
 -1       246 4.91780E-12 5.82808E+00-2.43590E+00
 -1       247 5.06957E-12 6.02004E+00-2.57880E+00
 -1       248 4.82120E-12 5.79497E+00-2.49752E+00
 -1       249 0.00000E+00 0.00000E+00 0.00000E+00
 -1       250 0.00000E+00 0.00000E+00 0.00000E+00
 -1       251-2.47819E-10 2.73924E-02-1.05683E-03
 -1       252-9.26034E-11 2.69571E-02-9.04091E-03
 -1       253 0.00000E+00 0.00000E+00 0.00000E+00
 -1       254 0.00000E+00 0.00000E+00 0.00000E+00
 -1       255-1.23981E-10 2.73924E-02-1.05683E-03
 -1       256-4.62570E-11 2.69571E-02-9.04091E-03
 -1       257 0.00000E+00 0.00000E+00 0.00000E+00
 -1       258 3.36776E-11 6.94563E-03-1.60135E-04
 -1       259-1.70515E-10 2.71735E-02-5.04683E-03
 -1       260 3.22263E-11 6.82514E-03-4.22481E-03
 -1       261-7.33951E-10 1.06673E-01-7.64796E-03
 -1       262-1.06379E-10 1.05061E-01-2.29790E-02
 -1       263-3.66965E-10 1.06673E-01-7.64796E-03
 -1       264-5.31139E-11 1.05061E-01-2.29790E-02
 -1       265 2.13356E-10 6.08197E-02-3.35671E-03
 -1       266-4.20453E-10 1.05867E-01-1.53119E-02
 -1       267 6.15379E-11 5.98754E-02-1.50933E-02
 -1       268-1.50232E-09 2.33399E-01-2.42039E-02
 -1       269-1.35523E-11 2.30042E-01-4.62086E-02
 -1       270-7.51080E-10 2.33399E-01-2.42039E-02
 -1       271-6.62915E-12 2.30042E-01-4.62086E-02
 -1       272 5.20187E-10 1.64392E-01-1.44489E-02
 -1       273-7.58346E-10 2.31720E-01-3.52046E-02
 -1       274 4.65751E-11 1.61969E-01-3.31993E-02
 -1       275-2.61414E-09 4.02972E-01-5.40354E-02
 -1       276 2.37559E-10 3.97459E-01-8.20324E-02
 -1       277-1.30688E-09 4.02972E-01-5.40354E-02
 -1       278 1.19029E-10 3.97459E-01-8.20324E-02
 -1       279 9.82290E-10 3.13118E-01-3.72940E-02
 -1       280-1.18885E-09 4.00216E-01-6.80323E-02
 -1       281-3.03229E-11 3.08727E-01-6.23779E-02
 -1       282-4.13030E-09 6.10826E-01-9.94556E-02
 -1       283 7.43206E-10 6.02882E-01-1.32779E-01
 -1       284-2.06481E-09 6.10826E-01-9.94556E-02
 -1       285 3.71997E-10 6.02882E-01-1.32779E-01
 -1       286 1.63286E-09 5.02395E-01-7.46875E-02
 -1       287-1.69433E-09 6.06854E-01-1.16116E-01
 -1       288-2.03047E-10 4.95695E-01-1.05429E-01
 -1       289-6.08402E-09 8.52559E-01-1.61917E-01
 -1       290 1.67626E-09 8.42026E-01-1.99935E-01
 -1       291-3.04147E-09 8.52559E-01-1.61917E-01
 -1       292 8.38714E-10 8.42026E-01-1.99935E-01
 -1       293 2.49973E-09 7.27724E-01-1.28495E-01
 -1       294-2.20498E-09 8.47293E-01-1.80924E-01
 -1       295-5.33777E-10 7.18500E-01-1.64242E-01
 -1       296-8.43694E-09 1.12403E+00-2.42149E-01
 -1       297 3.33728E-09 1.11084E+00-2.84270E-01
 -1       298-4.21768E-09 1.12403E+00-2.42149E-01
 -1       299 1.66948E-09 1.11084E+00-2.84270E-01
 -1       300 3.58845E-09 9.84824E-01-1.99790E-01
 -1       301-2.55136E-09 1.11744E+00-2.63209E-01
 -1       302-1.13295E-09 9.72969E-01-2.39931E-01
 -1       303-1.10105E-08 1.42140E+00-3.40289E-01
 -1       304 6.23309E-09 1.40558E+00-3.85973E-01
 -1       305-5.50414E-09 1.42140E+00-3.40289E-01
 -1       306 3.11771E-09 1.40558E+00-3.85973E-01
 -1       307 4.85529E-09 1.26970E+00-2.88992E-01
 -1       308-2.39086E-09 1.41349E+00-3.63130E-01
 -1       309-2.19039E-09 1.25520E+00-3.32959E-01
 -1       310-1.33835E-08 1.74118E+00-4.55998E-01
 -1       311 1.11924E-08 1.72282E+00-5.04752E-01
 -1       312-6.69026E-09 1.74118E+00-4.55998E-01
 -1       313 5.59773E-09 1.72282E+00-5.04752E-01
 -1       314 6.16559E-09 1.57869E+00-3.95984E-01
 -1       315-1.09837E-09 1.73200E+00-4.80374E-01
 -1       316-4.02275E-09 1.56159E+00-4.43262E-01
 -1       317-1.47483E-08 2.08022E+00-5.88562E-01
 -1       318 1.95316E-08 2.05943E+00-6.39946E-01
 -1       319-7.37227E-09 2.08022E+00-5.88562E-01
 -1       320 9.76777E-09 2.05943E+00-6.39946E-01
 -1       321 7.23283E-09 1.90848E+00-5.20229E-01
 -1       322 2.38728E-09 2.06983E+00-6.14253E-01
 -1       323-7.14171E-09 1.88888E+00-5.70351E-01
 -1       324-1.37227E-08 2.43569E+00-7.36978E-01
 -1       325 3.32681E-08 2.41265E+00-7.90598E-01
 -1       326-6.85920E-09 2.43569E+00-7.36978E-01
 -1       327 1.66364E-08 2.41265E+00-7.90598E-01
 -1       328 7.53588E-09 2.25607E+00-6.60860E-01
 -1       329 9.76866E-09 2.42417E+00-7.63787E-01
 -1       330-1.23517E-08 2.23413E+00-7.13409E-01
 -1       331-8.13115E-09 2.80508E+00-9.00028E-01
 -1       332 5.54180E-08 2.77997E+00-9.55533E-01
 -1       333-4.06306E-09 2.80508E+00-9.00028E-01
 -1       334 2.77120E-08 2.77997E+00-9.55533E-01
 -1       335 6.21250E-09 2.61879E+00-8.16757E-01
 -1       336 2.36311E-08 2.79253E+00-9.27780E-01
 -1       337-2.08663E-08 2.59469E+00-8.71361E-01
 -1       338 5.21794E-09 3.18615E+00-1.07633E+00
 -1       339 9.02114E-08 3.15919E+00-1.13341E+00
 -1       340 2.61015E-09 3.18615E+00-1.07633E+00
 -1       341 4.51072E-08 3.15919E+00-1.13341E+00
 -1       342 1.94862E-09 2.99428E+00-9.86614E-01
 -1       343 4.77241E-08 3.17267E+00-1.10487E+00
 -1       344-3.44874E-08 2.96822E+00-1.04294E+00
 -1       345 3.06208E-08 3.57690E+00-1.26439E+00
 -1       346 1.43689E-07 3.54832E+00-1.32276E+00
 -1       347 1.53132E-08 3.57690E+00-1.26439E+00
 -1       348 7.18506E-08 3.54832E+00-1.32276E+00
 -1       349-7.14046E-09 3.38043E+00-1.16899E+00
 -1       350 8.70695E-08 3.56261E+00-1.29357E+00
 -1       351-5.56508E-08 3.35263E+00-1.22675E+00
 -1       352 7.34078E-08 3.97558E+00-1.46261E+00
 -1       353 2.22584E-07 3.94561E+00-1.52204E+00
 -1       354 3.66933E-08 3.97558E+00-1.46261E+00
 -1       355 1.11274E-07 3.94561E+00-1.52204E+00
 -1       356-2.34602E-08 3.77536E+00-1.36233E+00
 -1       357 1.48254E-07 3.96060E+00-1.49232E+00
 -1       358-8.79454E-08 3.74605E+00-1.42126E+00
 -1       359 1.38873E-07 4.38058E+00-1.66938E+00
 -1       360 3.38509E-07 4.34947E+00-1.72963E+00
 -1       361 6.94515E-08 4.38058E+00-1.66938E+00
 -1       362 1.69316E-07 4.34947E+00-1.72963E+00
 -1       363-4.99950E-08 4.17738E+00-1.56503E+00
 -1       364 2.37621E-07 4.36503E+00-1.69950E+00
 -1       365-1.34601E-07 4.14681E+00-1.62490E+00
 -1       366 2.31214E-07 4.79046E+00-1.88300E+00
 -1       367 4.89873E-07 4.75847E+00-1.94387E+00
 -1       368 1.15511E-07 4.79046E+00-1.88300E+00
 -1       369 2.44655E-07 4.75847E+00-1.94387E+00
 -1       370-8.88934E-08 4.58500E+00-1.77544E+00
 -1       371 3.64488E-07 4.77447E+00-1.91344E+00
 -1       372-2.03721E-07 4.55341E+00-1.83602E+00
 -1       373 3.46887E-07 5.20391E+00-2.10179E+00
 -1       374 7.22186E-07 5.17128E+00-2.16309E+00
 -1       375 1.73619E-07 5.20391E+00-2.10179E+00
 -1       376 3.62106E-07 5.17128E+00-2.16309E+00
 -1       377-1.42906E-07 4.99682E+00-1.99186E+00
 -1       378 5.19325E-07 5.18760E+00-2.13244E+00
 -1       379-2.86710E-07 4.96448E+00-2.05297E+00
 -1       380 4.73997E-07 5.61968E+00-2.32402E+00
 -1       381 8.85853E-07 5.58667E+00-2.38558E+00
 -1       382 2.36357E-07 5.61968E+00-2.32402E+00
 -1       383 4.38787E-07 5.58667E+00-2.38558E+00
 -1       384-2.03267E-07 5.41158E+00-2.21258E+00
 -1       385 7.37698E-07 5.60318E+00-2.35480E+00
 -1       386-4.33722E-07 5.37873E+00-2.27404E+00
 -1       387 5.63470E-07 6.03661E+00-2.54798E+00
 -1       388 1.51715E-06 6.00347E+00-2.60963E+00
 -1       389 2.82857E-07 6.03661E+00-2.54798E+00
 -1       390 7.74403E-07 6.00347E+00-2.60963E+00
 -1       391-2.76286E-07 5.82808E+00-2.43590E+00
 -1       392 8.19192E-07 6.02004E+00-2.57880E+00
 -1       393-4.59587E-07 5.79496E+00-2.49752E+00
 -1       394 0.00000E+00 0.00000E+00 0.00000E+00
 -1       395 8.99276E-10 2.78277E-02 6.92371E-03
 -1       396 0.00000E+00 0.00000E+00 0.00000E+00
 -1       397 2.78114E-14 2.78277E-02 6.92371E-03
 -1       398 0.00000E+00 0.00000E+00 0.00000E+00
 -1       399-2.67299E-10 7.06595E-03 3.90621E-03
 -1       400 5.73287E-10 2.76114E-02 2.93146E-03
 -1       401 0.00000E+00 0.00000E+00 0.00000E+00
 -1       402 4.49455E-10 2.78277E-02 6.92371E-03
 -1       403 0.00000E+00 0.00000E+00 0.00000E+00
 -1       404 8.79399E-15 7.06595E-03 3.90621E-03
 -1       405 2.35108E-14 2.76113E-02 2.93146E-03
 -1       406 1.49467E-09 1.08285E-01 7.67953E-03
 -1       407 9.38261E-14 1.08285E-01 7.67954E-03
 -1       408-6.33322E-10 6.17642E-02 8.38136E-03
 -1       409 1.11407E-09 1.07479E-01 1.42500E-05
 -1       410 7.47213E-10 1.08285E-01 7.67953E-03
 -1       411 5.60643E-14 6.17642E-02 8.38136E-03
 -1       412 8.50732E-14 1.07479E-01 1.42514E-05
 -1       413 1.80032E-09 2.36755E-01-2.20172E-03
 -1       414 1.95891E-13 2.36755E-01-2.20171E-03
 -1       415-8.62514E-10 1.66816E-01 4.30280E-03
 -1       416 1.65102E-09 2.35077E-01-1.32044E-02
 -1       417 9.00029E-10 2.36755E-01-2.20172E-03
 -1       418 1.40289E-13 1.66816E-01 4.30280E-03
 -1       419 1.82699E-13 2.35077E-01-1.32044E-02
 -1       420 1.73007E-09 4.08485E-01-2.60400E-02
 -1       421 3.31818E-13 4.08485E-01-2.60400E-02
 -1       422-9.38896E-10 3.17510E-01-1.22094E-02
 -1       423 2.17175E-09 4.05729E-01-4.00393E-02
 -1       424 8.64908E-10 4.08485E-01-2.60400E-02
 -1       425 2.59589E-13 3.17510E-01-1.22094E-02
 -1       426 3.14463E-13 4.05729E-01-4.00392E-02
 -1       427 1.07169E-09 6.18770E-01-6.61326E-02
 -1       428 4.99795E-13 6.18770E-01-6.61326E-02
 -1       429-7.92341E-10 5.09096E-01-4.39460E-02
 -1       430 2.60052E-09 6.14798E-01-8.27956E-02
 -1       431 5.35701E-10 6.18770E-01-6.61326E-02
 -1       432 4.11639E-13 5.09096E-01-4.39460E-02
 -1       433 4.78315E-13 6.14798E-01-8.27956E-02
 -1       434-5.59424E-10 8.63092E-01-1.23900E-01
 -1       435 6.98197E-13 8.63092E-01-1.23900E-01
 -1       436-2.80790E-10 7.36948E-01-9.27476E-02
 -1       437 2.76165E-09 8.57825E-01-1.42910E-01
 -1       438-2.79884E-10 8.63092E-01-1.23900E-01
 -1       439 5.94573E-13 7.36948E-01-9.27476E-02
 -1       440 6.72512E-13 8.57825E-01-1.42910E-01
 -1       441-3.79096E-09 1.13721E+00-2.00028E-01
 -1       442 9.20501E-13 1.13721E+00-2.00028E-01
 -1       443 8.38256E-10 9.96678E-01-1.59650E-01
 -1       444 2.32209E-09 1.13062E+00-2.21090E-01
 -1       445-1.89569E-09 1.13721E+00-2.00028E-01
 -1       446 8.05241E-13 9.96678E-01-1.59650E-01
 -1       447 8.92316E-13 1.13062E+00-2.21090E-01
 -1       448-9.59369E-09 1.43721E+00-2.94606E-01
 -1       449 1.16899E-12 1.43721E+00-2.94606E-01
 -1       450 2.95001E-09 1.28421E+00-2.45025E-01
 -1       451 7.07055E-10 1.42931E+00-3.17449E-01
 -1       452-4.79709E-09 1.43721E+00-2.94606E-01
 -1       453 1.04279E-12 1.28421E+00-2.45025E-01
 -1       454 1.13771E-12 1.42931E+00-3.17449E-01
 -1       455-1.94144E-08 1.75955E+00-4.07244E-01
 -1       456 1.43998E-12 1.75955E+00-4.07243E-01
 -1       457 6.64023E-09 1.59580E+00-3.48707E-01
 -1       458-3.01721E-09 1.75036E+00-4.31622E-01
 -1       459-9.70745E-09 1.75955E+00-4.07244E-01
 -1       460 1.30328E-12 1.59580E+00-3.48707E-01
 -1       461 1.40450E-12 1.75036E+00-4.31622E-01
 -1       462-3.53348E-08 2.10101E+00-5.37178E-01
 -1       463 1.72905E-12 2.10101E+00-5.37178E-01
 -1       464 1.27705E-08 1.92807E+00-4.70107E-01
 -1       465-1.02964E-08 2.09062E+00-5.62871E-01
 -1       466-1.76674E-08 2.10101E+00-5.37178E-01
 -1       467 1.58378E-12 1.92807E+00-4.70108E-01
 -1       468 1.69112E-12 2.09062E+00-5.62870E-01
 -1       469-6.02513E-08 2.45874E+00-6.83359E-01
 -1       470 2.03187E-12 2.45874E+00-6.83359E-01
 -1       471 2.25619E-08 2.27801E+00-6.08311E-01
 -1       472-2.32662E-08 2.44722E+00-7.10170E-01
 -1       473-3.01254E-08 2.45874E+00-6.83359E-01
 -1       474 1.88190E-12 2.27801E+00-6.08311E-01
 -1       475 1.99174E-12 2.44722E+00-7.10169E-01
 -1       476-9.79851E-08 2.83019E+00-8.44524E-01
 -1       477 2.34789E-12 2.83019E+00-8.44524E-01
 -1       478 3.76922E-08 2.64290E+00-7.62153E-01
 -1       479-4.49388E-08 2.81764E+00-8.72277E-01
 -1       480-4.89904E-08 2.83019E+00-8.44524E-01
 -1       481 2.18976E-12 2.64290E+00-7.62153E-01
 -1       482 2.30518E-12 2.81764E+00-8.72277E-01
 -1       483-1.53387E-07 3.21311E+00-1.01925E+00
 -1       484 2.68131E-12 3.21311E+00-1.01925E+00
 -1       485 6.03083E-08 3.02035E+00-9.30285E-01
 -1       486-7.92851E-08 3.19963E+00-1.04779E+00
 -1       487-7.66917E-08 3.21311E+00-1.01925E+00
 -1       488 2.51338E-12 3.02035E+00-9.30286E-01
 -1       489 2.63936E-12 3.19963E+00-1.04779E+00
 -1       490-2.31662E-07 3.60549E+00-1.20601E+00
 -1       491 3.02398E-12 3.60549E+00-1.20601E+00
 -1       492 9.31257E-08 3.40823E+00-1.11123E+00
 -1       493-1.31241E-07 3.59120E+00-1.23520E+00
 -1       494-1.15815E-07 3.60549E+00-1.20601E+00
 -1       495 2.85121E-12 3.40823E+00-1.11123E+00
 -1       496 2.98073E-12 3.59120E+00-1.23520E+00
 -1       497-3.38710E-07 4.00555E+00-1.40319E+00
 -1       498 3.37369E-12 4.00555E+00-1.40319E+00
 -1       499 1.38630E-07 3.80466E+00-1.30340E+00
 -1       500-2.05743E-07 3.99056E+00-1.43290E+00
 -1       501-1.69366E-07 4.00555E+00-1.40319E+00
 -1       502 3.19733E-12 3.80466E+00-1.30340E+00
 -1       503 3.32759E-12 3.99056E+00-1.43290E+00
 -1       504-4.74052E-07 4.41169E+00-1.60913E+00
 -1       505 3.73027E-12 4.41169E+00-1.60913E+00
 -1       506 2.00323E-07 4.20795E+00-1.50517E+00
 -1       507-3.07697E-07 4.39613E+00-1.63925E+00
 -1       508-2.36898E-07 4.41169E+00-1.60913E+00
 -1       509 3.54968E-12 4.20795E+00-1.50517E+00
 -1       510 3.68360E-12 4.39613E+00-1.63925E+00
 -1       511-6.44232E-07 4.82246E+00-1.82213E+00
 -1       512 4.09478E-12 4.82246E+00-1.82213E+00
 -1       513 2.74009E-07 4.61658E+00-1.71485E+00
 -1       514-4.33291E-07 4.80646E+00-1.85257E+00
 -1       515-3.22411E-07 4.82246E+00-1.82213E+00
 -1       516 3.90561E-12 4.61658E+00-1.71485E+00
 -1       517 4.04975E-12 4.80646E+00-1.85257E+00
 -1       518-7.88575E-07 5.23655E+00-2.04049E+00
 -1       519 4.45766E-12 5.23654E+00-2.04049E+00
 -1       520 3.71453E-07 5.02917E+00-1.93075E+00
 -1       521-5.84246E-07 5.22023E+00-2.07114E+00
 -1       522-3.92975E-07 5.23654E+00-2.04049E+00
 -1       523 4.28024E-12 5.02917E+00-1.93075E+00
 -1       524 4.41162E-12 5.22023E+00-2.07114E+00
 -1       525-1.00921E-06 5.65270E+00-2.26247E+00
 -1       526 4.82252E-12 5.65270E+00-2.26247E+00
 -1       527 4.16581E-07 5.44444E+00-2.15113E+00
 -1       528-6.80902E-07 5.63619E+00-2.29324E+00
 -1       529-5.08737E-07 5.65270E+00-2.26247E+00
 -1       530 4.64267E-12 5.44444E+00-2.15113E+00
 -1       531 4.77619E-12 5.63619E+00-2.29324E+00
 -1       532-6.38532E-07 6.06976E+00-2.48634E+00
 -1       533 5.20880E-12 6.06975E+00-2.48634E+00
 -1       534 6.01946E-07 5.86118E+00-2.37427E+00
 -1       535-8.26052E-07 6.05318E+00-2.51716E+00
 -1       536-3.04155E-07 6.06975E+00-2.48634E+00
 -1       537 5.01622E-12 5.86119E+00-2.37427E+00
 -1       538 5.16115E-12 6.05318E+00-2.51716E+00
 -1       539 0.00000E+00 0.00000E+00 0.00000E+00
 -1       540-8.99221E-10 2.78277E-02 6.92371E-03
 -1       541 0.00000E+00 0.00000E+00 0.00000E+00
 -1       542-4.49399E-10 2.78277E-02 6.92371E-03
 -1       543 0.00000E+00 0.00000E+00 0.00000E+00
 -1       544 2.67317E-10 7.06595E-03 3.90621E-03
 -1       545-5.73241E-10 2.76114E-02 2.93146E-03
 -1       546-1.49449E-09 1.08285E-01 7.67953E-03
 -1       547-7.47025E-10 1.08285E-01 7.67953E-03
 -1       548 6.33434E-10 6.17642E-02 8.38136E-03
 -1       549-1.11390E-09 1.07479E-01 1.42500E-05
 -1       550-1.79993E-09 2.36755E-01-2.20172E-03
 -1       551-8.99638E-10 2.36755E-01-2.20172E-03
 -1       552 8.62795E-10 1.66816E-01 4.30280E-03
 -1       553-1.65066E-09 2.35077E-01-1.32044E-02
 -1       554-1.72941E-09 4.08485E-01-2.60400E-02
 -1       555-8.64245E-10 4.08485E-01-2.60400E-02
 -1       556 9.39415E-10 3.17510E-01-1.22094E-02
 -1       557-2.17112E-09 4.05729E-01-4.00393E-02
 -1       558-1.07069E-09 6.18770E-01-6.61326E-02
 -1       559-5.34702E-10 6.18770E-01-6.61326E-02
 -1       560 7.93165E-10 5.09096E-01-4.39460E-02
 -1       561-2.59957E-09 6.14798E-01-8.27956E-02
 -1       562 5.60819E-10 8.63092E-01-1.23900E-01
 -1       563 2.81280E-10 8.63092E-01-1.23900E-01
 -1       564 2.81980E-10 7.36948E-01-9.27476E-02
 -1       565-2.76030E-09 8.57825E-01-1.42910E-01
 -1       566 3.79279E-09 1.13721E+00-2.00028E-01
 -1       567 1.89753E-09 1.13721E+00-2.00028E-01
 -1       568-8.36645E-10 9.96678E-01-1.59650E-01
 -1       569-2.32030E-09 1.13062E+00-2.21090E-01
 -1       570 9.59603E-09 1.43721E+00-2.94606E-01
 -1       571 4.79943E-09 1.43721E+00-2.94606E-01
 -1       572-2.94793E-09 1.28421E+00-2.45025E-01
 -1       573-7.04781E-10 1.42931E+00-3.17449E-01
 -1       574 1.94173E-08 1.75955E+00-4.07244E-01
 -1       575 9.71032E-09 1.75955E+00-4.07244E-01
 -1       576-6.63763E-09 1.59580E+00-3.48707E-01
 -1       577 3.02002E-09 1.75036E+00-4.31622E-01
 -1       578 3.53383E-08 2.10101E+00-5.37178E-01
 -1       579 1.76709E-08 2.10101E+00-5.37178E-01
 -1       580-1.27673E-08 1.92807E+00-4.70107E-01
 -1       581 1.02998E-08 2.09062E+00-5.62871E-01
 -1       582 6.02553E-08 2.45874E+00-6.83359E-01
 -1       583 3.01294E-08 2.45874E+00-6.83359E-01
 -1       584-2.25582E-08 2.27801E+00-6.08311E-01
 -1       585 2.32702E-08 2.44722E+00-7.10170E-01
 -1       586 9.79898E-08 2.83019E+00-8.44524E-01
 -1       587 4.89951E-08 2.83019E+00-8.44524E-01
 -1       588-3.76878E-08 2.64290E+00-7.62153E-01
 -1       589 4.49435E-08 2.81764E+00-8.72277E-01
 -1       590 1.53392E-07 3.21311E+00-1.01925E+00
 -1       591 7.66971E-08 3.21311E+00-1.01925E+00
 -1       592-6.03033E-08 3.02035E+00-9.30285E-01
 -1       593 7.92904E-08 3.19963E+00-1.04779E+00
 -1       594 2.31668E-07 3.60549E+00-1.20601E+00
 -1       595 1.15821E-07 3.60549E+00-1.20601E+00
 -1       596-9.31200E-08 3.40823E+00-1.11123E+00
 -1       597 1.31247E-07 3.59120E+00-1.23520E+00
 -1       598 3.38716E-07 4.00555E+00-1.40319E+00
 -1       599 1.69373E-07 4.00555E+00-1.40319E+00
 -1       600-1.38624E-07 3.80466E+00-1.30340E+00
 -1       601 2.05750E-07 3.99056E+00-1.43290E+00
 -1       602 4.74060E-07 4.41169E+00-1.60913E+00
 -1       603 2.36905E-07 4.41169E+00-1.60913E+00
 -1       604-2.00316E-07 4.20795E+00-1.50517E+00
 -1       605 3.07705E-07 4.39613E+00-1.63925E+00
 -1       606 6.44240E-07 4.82246E+00-1.82213E+00
 -1       607 3.22419E-07 4.82246E+00-1.82213E+00
 -1       608-2.74002E-07 4.61658E+00-1.71485E+00
 -1       609 4.33299E-07 4.80646E+00-1.85257E+00
 -1       610 7.88584E-07 5.23655E+00-2.04049E+00
 -1       611 3.92984E-07 5.23654E+00-2.04049E+00
 -1       612-3.71444E-07 5.02917E+00-1.93075E+00
 -1       613 5.84255E-07 5.22023E+00-2.07114E+00
 -1       614 1.00921E-06 5.65270E+00-2.26247E+00
 -1       615 5.08747E-07 5.65270E+00-2.26247E+00
 -1       616-4.16571E-07 5.44444E+00-2.15113E+00
 -1       617 6.80912E-07 5.63619E+00-2.29324E+00
 -1       618 6.38542E-07 6.06976E+00-2.48634E+00
 -1       619 3.04166E-07 6.06975E+00-2.48634E+00
 -1       620-6.01936E-07 5.86118E+00-2.37427E+00
 -1       621 8.26063E-07 6.05318E+00-2.51716E+00
 -3
    1PSTEP                        12           6           1          
  100CL  106 3.00000E-01         621                     0    6           1
 -4  STRESS      6    1
 -5  SXX         1    4    1    1
 -5  SYY         1    4    2    2
 -5  SZZ         1    4    3    3
 -5  SXY         1    4    1    2
 -5  SYZ         1    4    2    3
 -5  SZX         1    4    3    1
 -1         1-1.06737E-01-7.17880E+03-1.63597E+06-4.66407E-01-1.18236E+02 5.34238E-01
 -1         2-2.11302E-01-9.69479E+03-2.08496E+04 2.45982E-01 5.37747E+03-8.79819E-01
 -1         3-7.94176E-02-1.39247E+04-1.95224E+04-3.40329E-02 1.00987E+04-6.71321E-02
 -1         4 2.64197E-02-1.59195E+04-1.50917E+06 4.72609E-02-1.66302E+05 1.73218E-02
 -1         5-1.06738E-01-7.17795E+03-1.63597E+06 5.97666E-08-1.18998E+02-5.23490E-07
 -1         6-2.11302E-01-9.69480E+03-2.08489E+04 7.38655E-08 5.37769E+03-2.41079E-08
 -1         7-7.81198E-02-1.39247E+04-1.95218E+04-3.13712E-08 1.00988E+04-1.61852E-08
 -1         8 2.57849E-02-1.59194E+04-1.50917E+06-1.39850E-07-1.66302E+05-1.03442E-06
 -1         9-1.58592E-01-8.46457E+03-8.28259E+05-1.63359E-01 2.97631E+03-1.69126E-01
 -1        10 3.73392E-02-1.11859E+04-1.96631E+04 1.35891E-02 7.68703E+03 1.84900E-02
 -1        11-2.64889E-02-1.49399E+04-7.64275E+05 3.05990E-02-7.82028E+04-2.72331E-02
 -1        12-1.18202E-02-1.06185E+04-1.57365E+06-2.54275E-02-8.25297E+04-2.44845E-03
 -1        13-1.06737E-01-7.17837E+03-1.63597E+06-4.83938E-01-1.18617E+02 5.45867E-01
 -1        14-2.11302E-01-9.69480E+03-2.08493E+04 1.75208E-01 5.37758E+03-8.58488E-01
 -1        15-7.87687E-02-1.39247E+04-1.95221E+04-2.04478E-02 1.00988E+04-3.01067E-02
 -1        16 2.61023E-02-1.59195E+04-1.50917E+06 3.05475E-02-1.66302E+05 2.61996E-02
 -1        17-1.58592E-01-8.46375E+03-8.28259E+05 6.27858E-08 2.97544E+03-2.75898E-07
 -1        18 3.79881E-02-1.11859E+04-1.96634E+04-7.09967E-10 7.68702E+03-1.77217E-08
 -1        19-2.61533E-02-1.49399E+04-7.64275E+05-7.67992E-08-7.82027E+04-4.55551E-07
 -1        20-1.21377E-02-1.06185E+04-1.57364E+06-4.05717E-08-8.25297E+04-7.73216E-07
 -1        21-9.38278E-02-7.89850E+03-1.78814E+04-5.79449E-02 7.87231E+03-1.22157E-01
 -1        22 3.54740E-02-6.16520E+04-1.35789E+06 4.76793E-02-2.88739E+05 4.61600E-02
 -1        23-9.33838E-02-7.89854E+03-1.78808E+04-1.11101E-07 7.87246E+03-9.93992E-09
 -1        24 3.47254E-02-6.16519E+04-1.35789E+06 1.88873E-09-2.88739E+05-9.31896E-07
 -1        25 4.23879E-02-1.06072E+04-1.87336E+04 2.16653E-02 8.92118E+03 4.75819E-02
 -1        26-2.91534E-02-3.47778E+04-6.87856E+05 2.08346E-02-1.40474E+05-4.55179E-02
 -1        27-1.50212E-02-3.85544E+04-1.43333E+06-2.27679E-02-2.28250E+05-1.54957E-02
 -1        28-9.36058E-02-7.89852E+03-1.78811E+04-3.22696E-02 7.87239E+03-6.27981E-02
 -1        29 3.50997E-02-6.16519E+04-1.35789E+06 2.66236E-02-2.88739E+05 5.05721E-02
 -1        30 4.32587E-02-1.06072E+04-1.87339E+04-7.93226E-08 8.92112E+03-1.19963E-08
 -1        31-2.93032E-02-3.47778E+04-6.87856E+05-7.63124E-08-1.40474E+05-4.23300E-07
 -1        32-1.57129E-02-3.85545E+04-1.43333E+06-6.25286E-08-2.28250E+05-9.88508E-07
 -1        33-1.14259E-01-5.26371E+03-1.66217E+04-9.68196E-02 7.30247E+03-1.69981E-01
 -1        34 5.27333E-02-1.16616E+05-1.19629E+06 5.95560E-02-3.74228E+05 8.32137E-02
 -1        35-1.14186E-01-5.26375E+03-1.66212E+04 5.18205E-08 7.30270E+03-2.94385E-08
 -1        36 5.15149E-02-1.16616E+05-1.19629E+06-2.47580E-07-3.74228E+05-9.57615E-07
 -1        37 5.18809E-02-6.50423E+03-1.73093E+04 3.75054E-02 7.46629E+03 7.34090E-02
 -1        38-3.06658E-02-6.09468E+04-6.06428E+05 1.28595E-02-1.83469E+05-5.76889E-02
 -1        39-2.11079E-02-8.92249E+04-1.27677E+06-2.58388E-02-3.31900E+05-3.16922E-02
 -1        40-1.14223E-01-5.26373E+03-1.66215E+04-4.95385E-02 7.30259E+03-8.62383E-02
 -1        41 5.21241E-02-1.16616E+05-1.19629E+06 2.87037E-02-3.74228E+05 8.15161E-02
 -1        42 5.21392E-02-6.50421E+03-1.73095E+04 1.59729E-09 7.46620E+03-1.67688E-08
 -1        43-3.12359E-02-6.09467E+04-6.06428E+05-7.18341E-08-1.83469E+05-4.39245E-07
 -1        44-2.20914E-02-8.92250E+04-1.27677E+06-1.37222E-07-3.31900E+05-9.57981E-07
 -1        45-1.34489E-01-2.42481E+03-1.52298E+04-1.49058E-01 6.19087E+03-2.06566E-01
 -1        46 8.48285E-02-1.74124E+05-1.03581E+06 8.46713E-02-4.24867E+05 1.34328E-01
 -1        47-1.35169E-01-2.42486E+03-1.52294E+04-4.00408E-07 6.19116E+03-8.10299E-09
 -1        48 8.29152E-02-1.74124E+05-1.03581E+06-5.07251E-07-4.24867E+05-9.79373E-07
 -1        49 6.29416E-02-3.89902E+03-1.60103E+04 6.05309E-02 6.65402E+03 9.49349E-02
 -1        50-2.46552E-02-8.82773E+04-5.25504E+05 8.17803E-03-2.09337E+05-6.01664E-02
 -1        51-3.26240E-02-1.45563E+05-1.11567E+06-3.48208E-02-3.99736E+05-5.31197E-02
 -1        52-1.34829E-01-2.42483E+03-1.52296E+04-7.02233E-02 6.19101E+03-9.74500E-02
 -1        53 8.38718E-02-1.74124E+05-1.03581E+06 3.68345E-02-4.24867E+05 1.23253E-01
 -1        54 6.26381E-02-3.89900E+03-1.60105E+04-6.14852E-08 6.65389E+03-3.48699E-08
 -1        55-2.59490E-02-8.82772E+04-5.25504E+05-4.96586E-07-2.09337E+05-4.58373E-07
 -1        56-3.41898E-02-1.45563E+05-1.11567E+06-3.94396E-07-3.99736E+05-9.46975E-07
 -1        57-1.45533E-01-2.65117E+02-1.38945E+04-2.10719E-01 5.23763E+03-2.23308E-01
 -1        58 1.42538E-01-2.26189E+05-8.83873E+05 1.27963E-01-4.47259E+05 2.09057E-01
 -1        59-1.47299E-01-2.65187E+02-1.38942E+04 1.25302E-08 5.23795E+03 1.10853E-08
 -1        60 1.39526E-01-2.26189E+05-8.83874E+05-1.98725E-07-4.47259E+05-9.53595E-07
 -1        61 7.22022E-02-1.46645E+03-1.46071E+04 8.96332E-02 5.65965E+03 1.09095E-01
 -1        62-1.20577E-03-1.13229E+05-4.48872E+05 1.12181E-02-2.21008E+05-4.51203E-02
 -1        63-5.37581E-02-2.00365E+05-9.59558E+05-5.13200E-02-4.36099E+05-8.35579E-02
 -1        64-1.46416E-01-2.65152E+02-1.38944E+04-9.07633E-02 5.23779E+03-9.06826E-02
 -1        65 1.41032E-01-2.26189E+05-8.83873E+05 5.18899E-02-4.47259E+05 1.81881E-01
 -1        66 7.09792E-02-1.46643E+03-1.46073E+04-4.45521E-07 5.65949E+03-4.70007E-08
 -1        67-3.59241E-03-1.13229E+05-4.48872E+05-1.61467E-07-2.21008E+05-4.09953E-07
 -1        68-5.62209E-02-2.00365E+05-9.59558E+05 3.38541E-07-4.36099E+05-9.68785E-07
 -1        69-1.32760E-01 1.52868E+03-1.25604E+04-2.72999E-01 4.32093E+03-2.06017E-01
 -1        70 2.42896E-01-2.68784E+05-7.45154E+05 1.98684E-01-4.47563E+05 3.21773E-01
 -1        71-1.36167E-01 1.52855E+03-1.25604E+04-4.76342E-07 4.32121E+03-1.88912E-08
 -1        72 2.38236E-01-2.68784E+05-7.45156E+05-3.23380E-07-4.47564E+05-5.78473E-07
 -1        73 7.39827E-02 4.92105E+02-1.32487E+04 1.21894E-01 4.76279E+03 1.10275E-01
 -1        74 5.55304E-02-1.33630E+05-3.78848E+05 3.11239E-02-2.21619E+05 4.38780E-04
 -1        75-9.12233E-02-2.47669E+05-8.14327E+05-7.86800E-02-4.47367E+05-1.28829E-01
 -1        76-1.34463E-01 1.52861E+03-1.25604E+04-1.05353E-01 4.32107E+03-5.70739E-02
 -1        77 2.40566E-01-2.68784E+05-7.45155E+05 7.55839E-02-4.47564E+05 2.65883E-01
 -1        78 7.13959E-02 4.92148E+02-1.32487E+04-1.41866E-07 4.76264E+03 2.75879E-08
 -1        79 5.14992E-02-1.33629E+05-3.78848E+05-1.56804E-07-2.21619E+05-4.36505E-07
 -1        80-9.50596E-02-2.47669E+05-8.14326E+05-1.28381E-06-4.47367E+05-6.65971E-07
 -1        81-7.33487E-02 2.96059E+03-1.12797E+04-3.19603E-01 3.51211E+03-1.33921E-01
 -1        82 4.12083E-01-2.99766E+05-6.21876E+05 3.11945E-01-4.31742E+05 4.93108E-01
 -1        83-7.90775E-02 2.96031E+03-1.12800E+04-5.57308E-07 3.51226E+03-5.54214E-08
 -1        84 4.05057E-01-2.99765E+05-6.21877E+05 2.64839E-07-4.31743E+05-6.63799E-07
 -1        85 5.92343E-02 2.11102E+03-1.19285E+04 1.51374E-01 3.92826E+03 8.98357E-02
 -1        86 1.70067E-01-1.48405E+05-3.16569E+05 8.37955E-02-2.14114E+05 9.58724E-02
 -1        87-1.55527E-01-2.84419E+05-6.83410E+05-1.22791E-01-4.39573E+05-1.97502E-01
 -1        88-7.62132E-02 2.96045E+03-1.12799E+04-1.05322E-01 3.51219E+03 1.55423E-02
 -1        89 4.08570E-01-2.99766E+05-6.21876E+05 1.09963E-01-4.31742E+05 3.86521E-01
 -1        90 5.46663E-02 2.11111E+03-1.19285E+04-1.33742E-07 3.92814E+03-7.29580E-08
 -1        91 1.63692E-01-1.48404E+05-3.16569E+05-1.68480E-07-2.14114E+05-4.02799E-07
 -1        92-1.61371E-01-2.84419E+05-6.83410E+05-2.81995E-07-4.39573E+05-6.80068E-07
 -1        93 6.67727E-02 4.10915E+03-1.00702E+04-3.23582E-01 2.80781E+03 2.11910E-02
 -1        94 6.88670E-01-3.18646E+05-5.14581E+05 4.90702E-01-4.04879E+05 7.51475E-01
 -1        95 5.79012E-02 4.10861E+03-1.00711E+04-3.98341E-07 2.80770E+03 4.19689E-07
 -1        96 6.78388E-01-3.18645E+05-5.14583E+05-2.36607E-06-4.04880E+05-8.57685E-07
 -1        97 1.40273E-02 3.41770E+03-1.06807E+04 1.67739E-01 3.18923E+03 3.56105E-02
 -1        98 3.78796E-01-1.57271E+05-2.62318E+05 1.94379E-01-2.01034E+05 2.68167E-01
 -1        99-2.62608E-01-3.09313E+05-5.68183E+05-1.92773E-01-4.18222E+05-3.01616E-01
 -1       100 6.23370E-02 4.10888E+03-1.00707E+04-7.90978E-02 2.80775E+03 1.42444E-01
 -1       101 6.83529E-01-3.18645E+05-5.14582E+05 1.55988E-01-4.04879E+05 5.58029E-01
 -1       102 6.72718E-03 3.41788E+03-1.06804E+04-1.05416E-06 3.18921E+03 1.36038E-07
 -1       103 3.69222E-01-1.57270E+05-2.62319E+05-1.44011E-06-2.01035E+05-2.28154E-07
 -1       104-2.71262E-01-3.09314E+05-5.68182E+05 1.27413E-07-4.18221E+05-7.74992E-07
 -1       105 3.35357E-01 5.02341E+03-8.95298E+03-2.45792E-01 2.21019E+03 2.95176E-01
 -1       106 1.12757E+00-3.25944E+05-4.22675E+05 7.65113E-01-3.71102E+05 1.13422E+00
 -1       107 3.22798E-01 5.02247E+03-8.95445E+03-6.23759E-07 2.20967E+03-4.90637E-08
 -1       108 1.11325E+00-3.25942E+05-4.22677E+05 2.70677E-07-3.71103E+05-1.46538E-06
 -1       109-8.20231E-02 4.46776E+03-9.51922E+03 1.54564E-01 2.54734E+03-6.84013E-02
 -1       110 7.32927E-01-1.60463E+05-2.15807E+05 3.97643E-01-1.84445E+05 5.52760E-01
 -1       111-4.35498E-01-3.22371E+05-4.68622E+05-3.02127E-01-3.87906E+05-4.57417E-01
 -1       112 3.29078E-01 5.02294E+03-8.95371E+03-1.37804E-02 2.20993E+03 3.41285E-01
 -1       113 1.12041E+00-3.25943E+05-4.22676E+05 2.10512E-01-3.71102E+05 7.97047E-01
 -1       114-9.27383E-02 4.46811E+03-9.51865E+03 3.87089E-07 2.54748E+03 2.11499E-08
 -1       115 7.19489E-01-1.60462E+05-2.15809E+05-7.28587E-07-1.84446E+05-2.79251E-07
 -1       116-4.47799E-01-3.22372E+05-4.68621E+05-1.66929E-06-3.87905E+05-1.30664E-06
 -1       117 7.95183E-01 5.74951E+03-7.93909E+03-3.13862E-02 1.71117E+03 7.30047E-01
 -1       118 1.80083E+00-3.22783E+05-3.44882E+05 1.17644E+00-3.33573E+05 1.68854E+00
 -1       119 7.78277E-01 5.74804E+03-7.94133E+03 5.03634E-07 1.71009E+03-4.71439E-07
 -1       120 1.78145E+00-3.22780E+05-3.44885E+05-3.12779E-06-3.33575E+05 3.19073E-07
 -1       121-2.56585E-01 5.30511E+03-8.45703E+03 8.96685E-02 2.00248E+03-2.41866E-01
 -1       122 1.30051E+00-1.58519E+05-1.76405E+05 7.41362E-01-1.65930E+05 9.93738E-01
 -1       123-7.06533E-01-3.24415E+05-3.83798E+05-4.66869E-01-3.52263E+05-6.85762E-01
 -1       124 7.86730E-01 5.74877E+03-7.94021E+03 1.01442E-01 1.71063E+03 6.29265E-01
 -1       125 1.79114E+00-3.22781E+05-3.44884E+05 2.59198E-01-3.33574E+05 1.12161E+00
 -1       126-2.71317E-01 5.30569E+03-8.45611E+03 7.80866E-07 2.00287E+03-2.26120E-07
 -1       127 1.28237E+00-1.58518E+05-1.76407E+05-4.60701E-07-1.65931E+05-2.03017E-07
 -1       128-7.23383E-01-3.24416E+05-3.83797E+05-2.67639E-06-3.52262E+05-3.35971E-07
 -1       129 1.51862E+00 6.32426E+03-7.03471E+03 3.74085E-01 1.30071E+03 1.37042E+00
 -1       130 2.80285E+00-3.10566E+05-2.79584E+05 1.74986E+00-2.94593E+05 2.46729E+00
 -1       131 1.50008E+00 6.32222E+03-7.03783E+03 9.52062E-07 1.29895E+03-1.03440E-07
 -1       132 2.78038E+00-3.10562E+05-2.79588E+05 2.24236E-06-2.94595E+05-5.87972E-07
 -1       133-5.45317E-01 5.96984E+03-7.50093E+03-5.84775E-02 1.54812E+03-5.06660E-01
 -1       134 2.16281E+00-1.52124E+05-1.43305E+05 1.26477E+00-1.46645E+05 1.64007E+00
 -1       135-1.11637E+00-3.16707E+05-3.12268E+05-7.10750E-01-3.14021E+05-1.01228E+00
 -1       136 1.50935E+00 6.32324E+03-7.03627E+03 2.64033E-01 1.29983E+03 1.02099E+00
 -1       137 2.79161E+00-3.10564E+05-2.79586E+05 2.66521E-01-2.94594E+05 1.54542E+00
 -1       138-5.63039E-01 5.97070E+03-7.49958E+03 5.39190E-07 1.54883E+03-1.61903E-07
 -1       139 2.14231E+00-1.52121E+05-1.43308E+05 2.02377E-06-1.46647E+05 7.24492E-08
 -1       140-1.13729E+00-3.16709E+05-3.12267E+05-4.95146E-07-3.14020E+05-2.77366E-07
 -1       141 2.58066E+00 6.77795E+03-6.24121E+03 1.05303E+00 9.67254E+02 2.24998E+00
 -1       142 4.22166E+00-2.90766E+05-2.25045E+05 2.55424E+00-2.55736E+05 3.53366E+00
 -1       143 2.55850E+00 6.77559E+03-6.24524E+03 2.09232E-06 9.64846E+02 4.76051E-08
 -1       144 4.19161E+00-2.90758E+05-2.25049E+05-3.10046E-06-2.55738E+05-4.65417E-07
 -1       145-9.84976E-01 6.49521E+03-6.65389E+03-3.10671E-01 1.17545E+03-8.84716E-01
 -1       146 3.40947E+00-1.41997E+05-1.15640E+05 2.04097E+00-1.27382E+05 2.54428E+00
 -1       147-1.71862E+00-3.00684E+05-2.52359E+05-1.03325E+00-2.75115E+05-1.46366E+00
 -1       148 2.56958E+00 6.77677E+03-6.24323E+03 4.49650E-01 9.66050E+02 1.51126E+00
 -1       149 4.20663E+00-2.90762E+05-2.25047E+05 1.46105E-01-2.55737E+05 2.07902E+00
 -1       150-1.00532E+00 6.49631E+03-6.65209E+03-4.37581E-07 1.17651E+03-1.18236E-07
 -1       151 3.38336E+00-1.41993E+05-1.15644E+05-3.71651E-07-1.27385E+05 1.52154E-07
 -1       152-1.74487E+00-3.00688E+05-2.52357E+05 2.45261E-06-2.75114E+05-3.43250E-07
 -1       153 4.00841E+00 7.13472E+03-5.55664E+03 1.92755E+00 6.99413E+02 3.38873E+00
 -1       154 6.19057E+00-2.64789E+05-1.79559E+05 3.37684E+00-2.17993E+05 4.90428E+00
 -1       155 4.01025E+00 7.13290E+03-5.56149E+03-1.79237E-06 6.96621E+02 7.19048E-07
 -1       156 6.18635E+00-2.64774E+05-1.79565E+05 6.08253E-06-2.17994E+05-1.15684E-06
 -1       157-1.61596E+00 6.90850E+03-5.91556E+03-7.24653E-01 8.74519E+02-1.38604E+00
 -1       158 5.09104E+00-1.28830E+05-9.25565E+04 2.92194E+00-1.08644E+05 3.72652E+00
 -1       159-2.55245E+00-2.77784E+05-2.02352E+05-1.49758E+00-2.36826E+05-2.07288E+00
 -1       160 4.00933E+00 7.13381E+03-5.55906E+03 5.52368E-01 6.98017E+02 2.09622E+00
 -1       161 6.18846E+00-2.64782E+05-1.79562E+05-2.46055E-01-2.17994E+05 2.68617E+00
 -1       162-1.62613E+00 6.90962E+03-5.91331E+03 6.65176E-07 8.75850E+02 1.37424E-07
 -1       163 5.08984E+00-1.28822E+05-9.25616E+04 4.89034E-07-1.08647E+05 1.76518E-07
 -1       164-2.56959E+00-2.77790E+05-2.02349E+05-1.26873E-06-2.36826E+05-3.06665E-07
 -1       165 5.78606E+00 7.41455E+03-4.97736E+03 3.27113E+00 4.86542E+02 4.68852E+00
 -1       166 8.58391E+00-2.33904E+05-1.41534E+05 4.74842E+00-1.81908E+05 6.70121E+00
 -1       167 5.76458E+00 7.41507E+03-4.98263E+03 7.33372E-07 4.84232E+02-2.02417E-07
 -1       168 8.50993E+00-2.33877E+05-1.41540E+05-9.09568E-06-1.81906E+05 7.33795E-07
 -1       169-2.41890E+00 7.23168E+03-5.28354E+03-1.15883E+00 6.35349E+02-2.01908E+00
 -1       170 7.24763E+00-1.13249E+05-7.32553E+04 4.30072E+00-9.07068E+04 5.23058E+00
 -1       171-3.69861E+00-2.49342E+05-1.60598E+05-1.82872E+00-1.99920E+05-2.82675E+00
 -1       172 5.77532E+00 7.41481E+03-4.98000E+03 4.43889E-01 4.85387E+02 2.61894E+00
 -1       173 8.54692E+00-2.33891E+05-1.41537E+05-1.27938E+00-1.81907E+05 3.38256E+00
 -1       174-2.42872E+00 7.23209E+03-5.28094E+03 3.87350E-07 6.36730E+02 6.68342E-07
 -1       175 7.19986E+00-1.13233E+05-7.32613E+04-1.77575E-06-9.07087E+04-6.47835E-07
 -1       176-3.73772E+00-2.49352E+05-1.60595E+05 7.18440E-07-1.99920E+05-4.80673E-07
 -1       177 7.53488E+00 7.63203E+03-4.49652E+03 3.49218E+00 3.20445E+02 6.15797E+00
 -1       178 1.18402E+01-1.99217E+05-1.09524E+05 3.72551E+00-1.47686E+05 8.38480E+00
 -1       179 7.73057E+00 7.63923E+03-4.50170E+03 8.03008E-07 3.19994E+02-1.65142E-07
 -1       180 1.21521E+01-1.99169E+05-1.09530E+05 4.13893E-06-1.47680E+05-5.32001E-07
 -1       181-3.42037E+00 7.48091E+03-4.75361E+03-2.01820E+00 4.48894E+02-2.67051E+00
 -1       182 9.49765E+00-9.57976E+04-5.70113E+04 3.89071E+00-7.36778E+04 6.74914E+00
 -1       183-5.00640E+00-2.16540E+05-1.25580E+05-2.79212E+00-1.64770E+05-3.83474E+00
 -1       184 7.63273E+00 7.63563E+03-4.49911E+03-4.89263E-01 3.20219E+02 3.24065E+00
 -1       185 1.19961E+01-1.99193E+05-1.09527E+05-3.23468E+00-1.47683E+05 3.74746E+00
 -1       186-3.33328E+00 7.47943E+03-4.75097E+03 6.09511E-07 4.49645E+02-2.61597E-07
 -1       187 9.75148E+00-9.57675E+04-5.70171E+04 1.27818E-06-7.36771E+04-3.03471E-07
 -1       188-4.88738E+00-2.16557E+05-1.25577E+05-4.21129E-06-1.64772E+05-2.77945E-07
 -1       189 8.96868E+00 7.80776E+03-4.11411E+03 6.71174E+00 1.93302E+02 6.66800E+00
 -1       190 1.36084E+01-1.61655E+05-8.22449E+04 9.10469E+00-1.15300E+05 1.15490E+01
 -1       191 8.75798E+00 7.82664E+03-4.11697E+03-5.80514E-07 1.98698E+02-1.17311E-06
 -1       192 1.26439E+01-1.61578E+05-8.22498E+04-1.73076E-06-1.15281E+05-1.12412E-06
 -1       193-4.12599E+00 7.67089E+03-4.32329E+03-1.29138E+00 3.05512E+02-3.46951E+00
 -1       194 1.20585E+01-7.69388E+04-4.31761E+04 8.18570E+00-5.75427E+04 8.79616E+00
 -1       195-6.85742E+00-1.80387E+05-9.59305E+04-7.77410E-01-1.31460E+05-4.51561E+00
 -1       196 8.86333E+00 7.81720E+03-4.11554E+03-2.05636E+00 1.96000E+02 2.48516E+00
 -1       197 1.31261E+01-1.61616E+05-8.22473E+04-7.94497E+00-1.15290E+05 4.61176E+00
 -1       198-4.13345E+00 7.66423E+03-4.32080E+03 7.25737E-07 3.04862E+02-3.10433E-07
 -1       199 1.14707E+01-7.68844E+04-4.31832E+04 9.25665E-07-5.75344E+04-9.69270E-07
 -1       200-7.18395E+00-1.80418E+05-9.59281E+04 1.47081E-06-1.31465E+05-4.97784E-07
 -1       201 7.71178E+00 7.93514E+03-3.80243E+03-6.12062E+00 1.12561E+02 8.31645E+00
 -1       202 1.98319E+01-1.22044E+05-5.85546E+04-1.65994E+01-8.45189E+04 8.37501E+00
 -1       203 9.27353E+00 7.98433E+03-3.80525E+03 2.31628E-06 1.25216E+02-7.06608E-07
 -1       204 2.43714E+01-1.21901E+05-5.85517E+04-2.37495E-06-8.44939E+04 9.49155E-07
 -1       205-5.06285E+00 7.80061E+03-3.98140E+03-5.09914E+00 2.00470E+02-3.10483E+00
 -1       206 1.09820E+01-5.70627E+04-3.11813E+04-1.14804E+01-4.21948E+04 7.73770E+00
 -1       207-7.30007E+00-1.41739E+05-7.04358E+04-7.73331E+00-9.98568E+04-6.76918E+00
 -1       208 8.49266E+00 7.95974E+03-3.80384E+03-8.50979E+00 1.18889E+02 4.39334E+00
 -1       209 2.21017E+01-1.21973E+05-5.85531E+04-1.33438E+01-8.45064E+04 1.37685E+00
 -1       210-4.38749E+00 7.78676E+03-3.98121E+03 3.67350E-07 1.95192E+02-4.16616E-07
 -1       211 1.40328E+01-5.69661E+04-3.11780E+04 1.03602E-07-4.21777E+04 3.79993E-07
 -1       212-5.51185E+00-1.41786E+05-7.04342E+04 5.56249E-07-9.98724E+04-5.07226E-07
 -1       213 3.86524E+00 8.11360E+03-3.64382E+03 2.80521E+01 5.52121E+01-1.48177E+00
 -1       214 4.29915E+00-8.09342E+04-3.74462E+04 5.84903E+01-5.51096E+04 2.64044E+01
 -1       215 1.09099E+00 8.18483E+03-3.62478E+03-2.72525E-06 9.60123E+01 3.90843E-07
 -1       216-1.19002E+01-8.07542E+04-3.74561E+04 2.36463E-06-5.50122E+04-8.82047E-07
 -1       217-2.11781E+00 7.90506E+03-3.75011E+03 1.18157E+01 1.09399E+02-5.16380E+00
 -1       218 1.46602E+01-3.65023E+04-2.04938E+04 4.40980E+01-2.74770E+04 1.41273E+01
 -1       219-1.12981E+01-1.01240E+05-4.80209E+04 2.41333E+01-6.97266E+04-1.81180E+00
 -1       220 2.47811E+00 8.14921E+03-3.63430E+03-1.00783E+01 7.56122E+01-8.77260E+00
 -1       221-3.80051E+00-8.08442E+04-3.74512E+04-3.49515E+01-5.50609E+04 9.06486E+00
 -1       222-2.72348E+00 7.86747E+03-3.74731E+03-1.26656E-06 1.00931E+02-1.21595E-07
 -1       223 5.17298E+00-3.63422E+04-2.05169E+04-1.41104E-06-2.74236E+04-3.78485E-07
 -1       224-1.71309E+01-1.01343E+05-4.80253E+04-1.67210E-06-6.97360E+04-2.88729E-07
 -1       225-1.20384E+01 8.06588E+03-3.31457E+03-1.37430E+02 1.61732E+02 1.79518E+01
 -1       226 5.06494E+01-3.94092E+04-1.80025E+04-2.72427E+02-2.63304E+04-4.81277E+01
 -1       227-1.75112E+00 8.28617E+03-3.35209E+03 7.04796E-06 1.95123E+02-2.76649E-07
 -1       228 1.16945E+02-3.89164E+04-1.79105E+04-4.25899E-06-2.63481E+04-2.64425E-06
 -1       229-3.94206E+00 7.86333E+03-3.52298E+03-3.91530E+01 7.37465E+01 7.25052E+00
 -1       230-2.01799E+01-1.55588E+04-1.07397E+04-2.10384E+02-1.31333E+04-1.86558E+01
 -1       231 1.41630E+00-5.96381E+04-2.77093E+04-7.84361E+01-4.05623E+04-2.25322E+01
 -1       232-6.89474E+00 8.17602E+03-3.33333E+03-5.20910E+01 1.78427E+02 2.59913E+01
 -1       233 8.37974E+01-3.91628E+04-1.79565E+04-2.58336E+01-2.63393E+04-3.32744E+01
 -1       234-1.87845E-01 7.82513E+03-3.54582E+03 3.58766E-06 4.08812E+01-2.45837E-07
 -1       235 1.81120E+01-1.52809E+04-1.06331E+04 7.67775E-07-1.30967E+04-2.42112E-06
 -1       236 2.64752E+01-5.97135E+04-2.77003E+04-3.82916E-06-4.06590E+04-1.50618E-06
 -1       237-6.05590E+01 7.22304E+03-3.92911E+03 4.84225E+02-3.86196E+02-1.73490E+02
 -1       238-3.98078E+02 7.99754E+03 9.60395E+02 9.40914E+02 1.81434E+03-2.56983E+01
 -1       239-7.84628E+01 5.95311E+03-3.71499E+03-3.78237E-06-6.46360E+02-6.47836E-07
 -1       240-6.51347E+02 4.48748E+03 7.54015E+02 7.77032E-06 1.59776E+03 2.85731E-06
 -1       241 2.41334E+01 8.10759E+03-3.68004E+03 1.78915E+02-1.32692E+02-2.62721E+01
 -1       242-8.06015E+01 7.48034E+03-1.19604E+03 7.49368E+02 7.39972E+02-6.73553E+01
 -1       243-3.25329E+01-1.67256E+04-8.62313E+03 3.40257E+02-1.24754E+04 6.52856E+01
 -1       244-6.95109E+01 6.58808E+03-3.82205E+03 2.71206E+02-5.16278E+02-1.45642E+02
 -1       245-5.24713E+02 6.24251E+03 8.57205E+02 2.45528E+02 1.70605E+03 3.89178E+01
 -1       246 2.03269E+01 7.92306E+03-3.61568E+03 5.31383E-07-1.38130E+02-9.60437E-07
 -1       247-2.16188E+02 5.27547E+03-1.47142E+03 5.11096E-07 4.43184E+02 1.32552E-06
 -1       248-1.26028E+02-1.71784E+04-8.71196E+03 4.16798E-06-1.23414E+04 2.38992E-07
 -1       249-1.06738E-01-7.17880E+03-1.63597E+06 4.66407E-01-1.18236E+02-5.34239E-01
 -1       250-2.11302E-01-9.69479E+03-2.08496E+04-2.45982E-01 5.37747E+03 8.79819E-01
 -1       251-7.94175E-02-1.39247E+04-1.95224E+04 3.40329E-02 1.00987E+04 6.71320E-02
 -1       252 2.64197E-02-1.59195E+04-1.50917E+06-4.72609E-02-1.66302E+05-1.73222E-02
 -1       253-1.06738E-01-7.17837E+03-1.63597E+06 4.83939E-01-1.18617E+02-5.45868E-01
 -1       254-2.11302E-01-9.69480E+03-2.08493E+04-1.75208E-01 5.37758E+03 8.58488E-01
 -1       255-7.87687E-02-1.39247E+04-1.95221E+04 2.04478E-02 1.00988E+04 3.01067E-02
 -1       256 2.61023E-02-1.59195E+04-1.50917E+06-3.05477E-02-1.66302E+05-2.62009E-02
 -1       257-1.58592E-01-8.46457E+03-8.28259E+05 1.63359E-01 2.97631E+03 1.69126E-01
 -1       258 3.73392E-02-1.11859E+04-1.96631E+04-1.35891E-02 7.68703E+03-1.84900E-02
 -1       259-2.64889E-02-1.49399E+04-7.64275E+05-3.05990E-02-7.82028E+04 2.72331E-02
 -1       260-1.18203E-02-1.06185E+04-1.57365E+06 2.54275E-02-8.25297E+04 2.44777E-03
 -1       261-9.38277E-02-7.89850E+03-1.78814E+04 5.79451E-02 7.87231E+03 1.22157E-01
 -1       262 3.54741E-02-6.16520E+04-1.35789E+06-4.76796E-02-2.88739E+05-4.61607E-02
 -1       263-9.36058E-02-7.89852E+03-1.78811E+04 3.22696E-02 7.87239E+03 6.27981E-02
 -1       264 3.50997E-02-6.16519E+04-1.35789E+06-2.66237E-02-2.88739E+05-5.05734E-02
 -1       265 4.23879E-02-1.06072E+04-1.87336E+04-2.16652E-02 8.92118E+03-4.75819E-02
 -1       266-2.91534E-02-3.47778E+04-6.87856E+05-2.08346E-02-1.40474E+05 4.55176E-02
 -1       267-1.50211E-02-3.85544E+04-1.43333E+06 2.27677E-02-2.28250E+05 1.54952E-02
 -1       268-1.14259E-01-5.26371E+03-1.66217E+04 9.68194E-02 7.30247E+03 1.69981E-01
 -1       269 5.27333E-02-1.16616E+05-1.19629E+06-5.95562E-02-3.74228E+05-8.32145E-02
 -1       270-1.14223E-01-5.26373E+03-1.66215E+04 4.95385E-02 7.30259E+03 8.62383E-02
 -1       271 5.21241E-02-1.16616E+05-1.19629E+06-2.87041E-02-3.74228E+05-8.15175E-02
 -1       272 5.18809E-02-6.50423E+03-1.73093E+04-3.75055E-02 7.46629E+03-7.34090E-02
 -1       273-3.06658E-02-6.09468E+04-6.06428E+05-1.28598E-02-1.83469E+05 5.76886E-02
 -1       274-2.11079E-02-8.92249E+04-1.27677E+06 2.58385E-02-3.31900E+05 3.16915E-02
 -1       275-1.34489E-01-2.42481E+03-1.52298E+04 1.49058E-01 6.19087E+03 2.06566E-01
 -1       276 8.48285E-02-1.74124E+05-1.03581E+06-8.46728E-02-4.24867E+05-1.34329E-01
 -1       277-1.34829E-01-2.42483E+03-1.52296E+04 7.02230E-02 6.19101E+03 9.74499E-02
 -1       278 8.38719E-02-1.74124E+05-1.03581E+06-3.68357E-02-4.24867E+05-1.23255E-01
 -1       279 6.29416E-02-3.89902E+03-1.60103E+04-6.05305E-02 6.65402E+03-9.49349E-02
 -1       280-2.46552E-02-8.82773E+04-5.25504E+05-8.17813E-03-2.09337E+05 6.01660E-02
 -1       281-3.26240E-02-1.45563E+05-1.11567E+06 3.48202E-02-3.99736E+05 5.31190E-02
 -1       282-1.45533E-01-2.65117E+02-1.38945E+04 2.10719E-01 5.23763E+03 2.23308E-01
 -1       283 1.42538E-01-2.26189E+05-8.83873E+05-1.27964E-01-4.47259E+05-2.09058E-01
 -1       284-1.46416E-01-2.65152E+02-1.38944E+04 9.07632E-02 5.23779E+03 9.06826E-02
 -1       285 1.41032E-01-2.26189E+05-8.83873E+05-5.18903E-02-4.47259E+05-1.81883E-01
 -1       286 7.22022E-02-1.46645E+03-1.46071E+04-8.96329E-02 5.65965E+03-1.09095E-01
 -1       287-1.20579E-03-1.13229E+05-4.48872E+05-1.12185E-02-2.21008E+05 4.51199E-02
 -1       288-5.37581E-02-2.00365E+05-9.59558E+05 5.13190E-02-4.36099E+05 8.35571E-02
 -1       289-1.32760E-01 1.52868E+03-1.25604E+04 2.73000E-01 4.32093E+03 2.06017E-01
 -1       290 2.42896E-01-2.68784E+05-7.45154E+05-1.98684E-01-4.47563E+05-3.21774E-01
 -1       291-1.34464E-01 1.52861E+03-1.25604E+04 1.05353E-01 4.32107E+03 5.70738E-02
 -1       292 2.40566E-01-2.68784E+05-7.45155E+05-7.55839E-02-4.47564E+05-2.65884E-01
 -1       293 7.39826E-02 4.92105E+02-1.32487E+04-1.21894E-01 4.76279E+03-1.10275E-01
 -1       294 5.55303E-02-1.33630E+05-3.78848E+05-3.11240E-02-2.21619E+05-4.39189E-04
 -1       295-9.12232E-02-2.47669E+05-8.14327E+05 7.86800E-02-4.47367E+05 1.28829E-01
 -1       296-7.33485E-02 2.96059E+03-1.12797E+04 3.19605E-01 3.51211E+03 1.33921E-01
 -1       297 4.12083E-01-2.99766E+05-6.21876E+05-3.11946E-01-4.31742E+05-4.93108E-01
 -1       298-7.62129E-02 2.96045E+03-1.12799E+04 1.05322E-01 3.51219E+03-1.55424E-02
 -1       299 4.08570E-01-2.99766E+05-6.21876E+05-1.09963E-01-4.31742E+05-3.86522E-01
 -1       300 5.92344E-02 2.11102E+03-1.19285E+04-1.51372E-01 3.92826E+03-8.98357E-02
 -1       301 1.70067E-01-1.48405E+05-3.16569E+05-8.37956E-02-2.14114E+05-9.58724E-02
 -1       302-1.55528E-01-2.84419E+05-6.83410E+05 1.22791E-01-4.39573E+05 1.97501E-01
 -1       303 6.67723E-02 4.10915E+03-1.00702E+04 3.23582E-01 2.80781E+03-2.11909E-02
 -1       304 6.88670E-01-3.18646E+05-5.14581E+05-4.90700E-01-4.04879E+05-7.51475E-01
 -1       305 6.23366E-02 4.10888E+03-1.00707E+04 7.90973E-02 2.80775E+03-1.42444E-01
 -1       306 6.83529E-01-3.18645E+05-5.14582E+05-1.55990E-01-4.04879E+05-5.58030E-01
 -1       307 1.40273E-02 3.41770E+03-1.06807E+04-1.67737E-01 3.18923E+03-3.56107E-02
 -1       308 3.78796E-01-1.57271E+05-2.62318E+05-1.94377E-01-2.01034E+05-2.68167E-01
 -1       309-2.62608E-01-3.09313E+05-5.68183E+05 1.92772E-01-4.18222E+05 3.01616E-01
 -1       310 3.35357E-01 5.02341E+03-8.95298E+03 2.45793E-01 2.21019E+03-2.95176E-01
 -1       311 1.12757E+00-3.25944E+05-4.22675E+05-7.65113E-01-3.71102E+05-1.13422E+00
 -1       312 3.29078E-01 5.02294E+03-8.95371E+03 1.37801E-02 2.20993E+03-3.41285E-01
 -1       313 1.12041E+00-3.25943E+05-4.22676E+05-2.10511E-01-3.71102E+05-7.97049E-01
 -1       314-8.20230E-02 4.46776E+03-9.51922E+03-1.54564E-01 2.54734E+03 6.84013E-02
 -1       315 7.32927E-01-1.60463E+05-2.15807E+05-3.97643E-01-1.84445E+05-5.52761E-01
 -1       316-4.35498E-01-3.22371E+05-4.68622E+05 3.02128E-01-3.87906E+05 4.57417E-01
 -1       317 7.95183E-01 5.74951E+03-7.93909E+03 3.13871E-02 1.71117E+03-7.30046E-01
 -1       318 1.80083E+00-3.22783E+05-3.44882E+05-1.17644E+00-3.33573E+05-1.68854E+00
 -1       319 7.86730E-01 5.74877E+03-7.94021E+03-1.01441E-01 1.71063E+03-6.29265E-01
 -1       320 1.79114E+00-3.22781E+05-3.44884E+05-2.59201E-01-3.33574E+05-1.12161E+00
 -1       321-2.56585E-01 5.30511E+03-8.45703E+03-8.96685E-02 2.00248E+03 2.41867E-01
 -1       322 1.30051E+00-1.58519E+05-1.76405E+05-7.41363E-01-1.65930E+05-9.93738E-01
 -1       323-7.06533E-01-3.24415E+05-3.83798E+05 4.66868E-01-3.52263E+05 6.85762E-01
 -1       324 1.51862E+00 6.32426E+03-7.03471E+03-3.74089E-01 1.30071E+03-1.37042E+00
 -1       325 2.80285E+00-3.10566E+05-2.79584E+05-1.74986E+00-2.94593E+05-2.46729E+00
 -1       326 1.50935E+00 6.32324E+03-7.03627E+03-2.64034E-01 1.29983E+03-1.02099E+00
 -1       327 2.79162E+00-3.10564E+05-2.79586E+05-2.66520E-01-2.94594E+05-1.54542E+00
 -1       328-5.45317E-01 5.96984E+03-7.50093E+03 5.84732E-02 1.54812E+03 5.06661E-01
 -1       329 2.16281E+00-1.52124E+05-1.43305E+05-1.26477E+00-1.46645E+05-1.64007E+00
 -1       330-1.11637E+00-3.16707E+05-3.12268E+05 7.10752E-01-3.14021E+05 1.01228E+00
 -1       331 2.58066E+00 6.77795E+03-6.24121E+03-1.05303E+00 9.67254E+02-2.24998E+00
 -1       332 4.22166E+00-2.90766E+05-2.25045E+05-2.55423E+00-2.55736E+05-3.53366E+00
 -1       333 2.56958E+00 6.77677E+03-6.24323E+03-4.49647E-01 9.66050E+02-1.51126E+00
 -1       334 4.20663E+00-2.90762E+05-2.25047E+05-1.46105E-01-2.55737E+05-2.07902E+00
 -1       335-9.84976E-01 6.49521E+03-6.65389E+03 3.10671E-01 1.17545E+03 8.84716E-01
 -1       336 3.40947E+00-1.41997E+05-1.15640E+05-2.04097E+00-1.27382E+05-2.54428E+00
 -1       337-1.71862E+00-3.00684E+05-2.52359E+05 1.03325E+00-2.75115E+05 1.46366E+00
 -1       338 4.00841E+00 7.13472E+03-5.55664E+03-1.92755E+00 6.99413E+02-3.38873E+00
 -1       339 6.19057E+00-2.64789E+05-1.79559E+05-3.37685E+00-2.17993E+05-4.90428E+00
 -1       340 4.00933E+00 7.13381E+03-5.55906E+03-5.52371E-01 6.98017E+02-2.09622E+00
 -1       341 6.18846E+00-2.64782E+05-1.79562E+05 2.46061E-01-2.17994E+05-2.68617E+00
 -1       342-1.61597E+00 6.90850E+03-5.91556E+03 7.24655E-01 8.74519E+02 1.38604E+00
 -1       343 5.09104E+00-1.28830E+05-9.25565E+04-2.92194E+00-1.08644E+05-3.72652E+00
 -1       344-2.55245E+00-2.77784E+05-2.02352E+05 1.49758E+00-2.36826E+05 2.07288E+00
 -1       345 5.78606E+00 7.41455E+03-4.97736E+03-3.27113E+00 4.86542E+02-4.68851E+00
 -1       346 8.58391E+00-2.33904E+05-1.41534E+05-4.74841E+00-1.81908E+05-6.70121E+00
 -1       347 5.77532E+00 7.41481E+03-4.98000E+03-4.43889E-01 4.85387E+02-2.61894E+00
 -1       348 8.54692E+00-2.33891E+05-1.41537E+05 1.27937E+00-1.81907E+05-3.38256E+00
 -1       349-2.41890E+00 7.23168E+03-5.28354E+03 1.15883E+00 6.35349E+02 2.01908E+00
 -1       350 7.24763E+00-1.13249E+05-7.32553E+04-4.30072E+00-9.07068E+04-5.23058E+00
 -1       351-3.69861E+00-2.49342E+05-1.60598E+05 1.82873E+00-1.99920E+05 2.82675E+00
 -1       352 7.53488E+00 7.63203E+03-4.49652E+03-3.49218E+00 3.20445E+02-6.15797E+00
 -1       353 1.18402E+01-1.99217E+05-1.09524E+05-3.72552E+00-1.47686E+05-8.38480E+00
 -1       354 7.63273E+00 7.63563E+03-4.49911E+03 4.89264E-01 3.20219E+02-3.24065E+00
 -1       355 1.19961E+01-1.99193E+05-1.09527E+05 3.23468E+00-1.47683E+05-3.74746E+00
 -1       356-3.42037E+00 7.48091E+03-4.75361E+03 2.01820E+00 4.48894E+02 2.67051E+00
 -1       357 9.49765E+00-9.57976E+04-5.70113E+04-3.89071E+00-7.36778E+04-6.74914E+00
 -1       358-5.00640E+00-2.16540E+05-1.25580E+05 2.79212E+00-1.64770E+05 3.83474E+00
 -1       359 8.96868E+00 7.80776E+03-4.11411E+03-6.71174E+00 1.93302E+02-6.66800E+00
 -1       360 1.36084E+01-1.61655E+05-8.22449E+04-9.10470E+00-1.15300E+05-1.15490E+01
 -1       361 8.86333E+00 7.81720E+03-4.11554E+03 2.05636E+00 1.96000E+02-2.48516E+00
 -1       362 1.31261E+01-1.61616E+05-8.22473E+04 7.94496E+00-1.15290E+05-4.61176E+00
 -1       363-4.12599E+00 7.67089E+03-4.32329E+03 1.29138E+00 3.05512E+02 3.46951E+00
 -1       364 1.20585E+01-7.69388E+04-4.31761E+04-8.18570E+00-5.75427E+04-8.79617E+00
 -1       365-6.85742E+00-1.80387E+05-9.59305E+04 7.77402E-01-1.31460E+05 4.51562E+00
 -1       366 7.71178E+00 7.93514E+03-3.80243E+03 6.12062E+00 1.12561E+02-8.31646E+00
 -1       367 1.98319E+01-1.22044E+05-5.85546E+04 1.65994E+01-8.45189E+04-8.37500E+00
 -1       368 8.49266E+00 7.95974E+03-3.80384E+03 8.50979E+00 1.18889E+02-4.39334E+00
 -1       369 2.21017E+01-1.21973E+05-5.85531E+04 1.33438E+01-8.45064E+04-1.37685E+00
 -1       370-5.06285E+00 7.80061E+03-3.98140E+03 5.09914E+00 2.00470E+02 3.10483E+00
 -1       371 1.09820E+01-5.70627E+04-3.11813E+04 1.14804E+01-4.21948E+04-7.73770E+00
 -1       372-7.30007E+00-1.41739E+05-7.04358E+04 7.73331E+00-9.98568E+04 6.76918E+00
 -1       373 3.86524E+00 8.11360E+03-3.64382E+03-2.80521E+01 5.52121E+01 1.48177E+00
 -1       374 4.29915E+00-8.09342E+04-3.74462E+04-5.84903E+01-5.51096E+04-2.64043E+01
 -1       375 2.47811E+00 8.14921E+03-3.63430E+03 1.00783E+01 7.56122E+01 8.77260E+00
 -1       376-3.80051E+00-8.08442E+04-3.74512E+04 3.49515E+01-5.50609E+04-9.06486E+00
 -1       377-2.11781E+00 7.90506E+03-3.75011E+03-1.18157E+01 1.09399E+02 5.16380E+00
 -1       378 1.46602E+01-3.65023E+04-2.04938E+04-4.40980E+01-2.74770E+04-1.41273E+01
 -1       379-1.12981E+01-1.01240E+05-4.80209E+04-2.41333E+01-6.97266E+04 1.81180E+00
 -1       380-1.20384E+01 8.06588E+03-3.31457E+03 1.37430E+02 1.61732E+02-1.79518E+01
 -1       381 5.06494E+01-3.94092E+04-1.80025E+04 2.72427E+02-2.63304E+04 4.81277E+01
 -1       382-6.89474E+00 8.17602E+03-3.33333E+03 5.20910E+01 1.78427E+02-2.59913E+01
 -1       383 8.37974E+01-3.91628E+04-1.79565E+04 2.58336E+01-2.63393E+04 3.32744E+01
 -1       384-3.94206E+00 7.86333E+03-3.52298E+03 3.91530E+01 7.37465E+01-7.25052E+00
 -1       385-2.01799E+01-1.55588E+04-1.07397E+04 2.10384E+02-1.31333E+04 1.86558E+01
 -1       386 1.41630E+00-5.96381E+04-2.77093E+04 7.84361E+01-4.05623E+04 2.25322E+01
 -1       387-6.05590E+01 7.22304E+03-3.92911E+03-4.84225E+02-3.86196E+02 1.73490E+02
 -1       388-3.98078E+02 7.99754E+03 9.60395E+02-9.40914E+02 1.81434E+03 2.56983E+01
 -1       389-6.95109E+01 6.58808E+03-3.82205E+03-2.71206E+02-5.16278E+02 1.45642E+02
 -1       390-5.24713E+02 6.24251E+03 8.57205E+02-2.45528E+02 1.70605E+03-3.89178E+01
 -1       391 2.41334E+01 8.10759E+03-3.68004E+03-1.78915E+02-1.32692E+02 2.62721E+01
 -1       392-8.06015E+01 7.48034E+03-1.19604E+03-7.49368E+02 7.39972E+02 6.73553E+01
 -1       393-3.25329E+01-1.67256E+04-8.62313E+03-3.40257E+02-1.24754E+04-6.52856E+01
 -1       394-9.42794E-01-1.23233E+04 1.67770E+06-2.58981E-01 1.15239E+04 1.10079E+00
 -1       395 1.00245E-01 1.59867E+04 1.54546E+06-1.07710E-01 1.71451E+05-1.53486E-02
 -1       396-9.42794E-01-1.23241E+04 1.67770E+06 1.67224E-08 1.15256E+04 5.63078E-07
 -1       397 9.71275E-02 1.59868E+04 1.54546E+06 3.83003E-08 1.71451E+05 1.04445E-06
 -1       398-5.77475E-01-1.09813E+04 8.28274E+05 4.66467E-02 8.10401E+03 1.06822E-01
 -1       399-5.53020E-02 2.13436E+03 1.61166E+06 4.65052E-02 9.06155E+04 4.02262E-02
 -1       400 1.04037E-02 1.04885E+03 7.62900E+05-9.48563E-02 9.08761E+04-3.89123E-02
 -1       401-9.42794E-01-1.23237E+04 1.67770E+06-3.77623E-01 1.15248E+04 1.20574E+00
 -1       402 9.86862E-02 1.59868E+04 1.54546E+06-6.06705E-02 1.71451E+05 5.84026E-02
 -1       403-5.77475E-01-1.09821E+04 8.28274E+05 4.93242E-08 8.10555E+03 2.71584E-07
 -1       404-5.68603E-02 2.13434E+03 1.61166E+06 3.76275E-08 9.06154E+04 8.01672E-07
 -1       405 9.48975E-03 1.04888E+03 7.62900E+05-5.34709E-09 9.08762E+04 4.44383E-07
 -1       406 9.54909E-02 5.97230E+04 1.38798E+06-1.28243E-01 2.99490E+05 1.27772E-01
 -1       407 9.27948E-02 5.97232E+04 1.38798E+06 2.21657E-07 2.99490E+05 9.38934E-07
 -1       408-4.49393E-02 3.81852E+04 1.46672E+06 5.96104E-02 2.35844E+05-2.68992E-02
 -1       409 8.08118E-04 2.59148E+04 6.85021E+05-1.19062E-01 1.53722E+05 1.03263E-02
 -1       410 9.41429E-02 5.97231E+04 1.38798E+06-7.38596E-02 2.99490E+05 1.62598E-01
 -1       411-4.78462E-02 3.81851E+04 1.46672E+06 1.46777E-07 2.35844E+05 1.00428E-06
 -1       412-3.20566E-04 2.59149E+04 6.85020E+05 7.69841E-08 1.53722E+05 4.16879E-07
 -1       413 1.24192E-01 1.18317E+05 1.22131E+06-1.35529E-01 3.85659E+05 3.01495E-01
 -1       414 1.20575E-01 1.18317E+05 1.22131E+06 1.50166E-07 3.85659E+05 9.83214E-07
 -1       415-5.03789E-02 8.92703E+04 1.30465E+06 6.67543E-02 3.42782E+05-1.03966E-01
 -1       416 4.86914E-03 5.65337E+04 6.02319E+05-1.47666E-01 1.96486E+05 8.00627E-02
 -1       417 1.22383E-01 1.18317E+05 1.22131E+06-7.94709E-02 3.85659E+05 2.93624E-01
 -1       418-5.35354E-02 8.92702E+04 1.30465E+06 1.77515E-07 3.42782E+05 9.67895E-07
 -1       419 3.09421E-03 5.65338E+04 6.02318E+05 7.49478E-08 1.96487E+05 4.22606E-07
 -1       420 1.94422E-01 1.77659E+05 1.05611E+06-1.22678E-01 4.36989E+05 5.29130E-01
 -1       421 1.89763E-01 1.77659E+05 1.05611E+06 2.41217E-10 4.36989E+05 9.17383E-07
 -1       422-7.35808E-02 1.48079E+05 1.13874E+06 6.62319E-02 4.11404E+05-2.01935E-01
 -1       423 2.97912E-02 8.76197E+04 5.20425E+05-1.76240E-01 2.21589E+05 1.85329E-01
 -1       424 1.92092E-01 1.77659E+05 1.05611E+06-7.48239E-02 4.36989E+05 4.63885E-01
 -1       425-7.77188E-02 1.48079E+05 1.13874E+06 8.71258E-08 4.11404E+05 9.79594E-07
 -1       426 2.71192E-02 8.76198E+04 5.20424E+05-1.57327E-07 2.21589E+05 4.19276E-07
 -1       427 3.21699E-01 2.31534E+05 9.00229E+05-7.55814E-02 4.59137E+05 8.37528E-01
 -1       428 3.15463E-01 2.31534E+05 9.00226E+05 4.51324E-07 4.59136E+05 8.40547E-07
 -1       429-1.20678E-01 2.04587E+05 9.78181E+05 5.28798E-02 4.48083E+05-3.33074E-01
 -1       430 8.77917E-02 1.15636E+05 4.43156E+05-1.95746E-01 2.32185E+05 3.45105E-01
 -1       431 3.18581E-01 2.31534E+05 9.00227E+05-5.51059E-02 4.59137E+05 6.88106E-01
 -1       432-1.26125E-01 2.04587E+05 9.78183E+05-1.14395E-07 4.48083E+05 9.39123E-07
 -1       433 8.37879E-02 1.15636E+05 4.43154E+05 3.00296E-07 2.32184E+05 3.64514E-07
 -1       434 5.29471E-01 2.75415E+05 7.58185E+05 2.77124E-02 4.58844E+05 1.25800E+00
 -1       435 5.21205E-01 2.75415E+05 7.58180E+05 7.71503E-07 4.58842E+05 6.59738E-07
 -1       436-2.01137E-01 2.53402E+05 8.29208E+05 1.78276E-02 4.58986E+05-5.11851E-01
 -1       437 1.97894E-01 1.38473E+05 3.72802E+05-1.90925E-01 2.31580E+05 5.83432E-01
 -1       438 5.25338E-01 2.75415E+05 7.58182E+05-1.40414E-02 4.58843E+05 9.82768E-01
 -1       439-2.08388E-01 2.53402E+05 8.29210E+05 1.18021E-06 4.58987E+05 6.73852E-07
 -1       440 1.92054E-01 1.38474E+05 3.72800E+05-9.54757E-08 2.31580E+05 4.58246E-07
 -1       441 8.51032E-01 3.07325E+05 6.32201E+05 2.17306E-01 4.42167E+05 1.82624E+00
 -1       442 8.40310E-01 3.07325E+05 6.32195E+05 9.26069E-07 4.42165E+05 7.76328E-07
 -1       443-3.29064E-01 2.91269E+05 6.95186E+05-5.18017E-02 4.50496E+05-7.54934E-01
 -1       444 3.88142E-01 1.55145E+05 3.10452E+05-1.38773E-01 2.22838E+05 9.29879E-01
 -1       445 8.45671E-01 3.07325E+05 6.32198E+05 5.44813E-02 4.42166E+05 1.36509E+00
 -1       446-3.38559E-01 2.91269E+05 6.95189E+05 7.72184E-07 4.50497E+05 6.53456E-07
 -1       447 3.79914E-01 1.55145E+05 3.10448E+05 2.06626E-07 2.22837E+05 4.03643E-07
 -1       448 1.33041E+00 3.26801E+05 5.22741E+05 5.31269E-01 4.14351E+05 2.58138E+00
 -1       449 1.31724E+00 3.26802E+05 5.22733E+05 2.32097E-06 4.14348E+05 4.39102E-08
 -1       450-5.23831E-01 3.16955E+05 5.77458E+05-1.72816E-01 4.28254E+05-1.08102E+00
 -1       451 6.97519E-01 1.65458E+05 2.56327E+05-6.97618E-03 2.08578E+05 1.41945E+00
 -1       452 1.32383E+00 3.26802E+05 5.22737E+05 1.53051E-01 4.14350E+05 1.85104E+00
 -1       453-5.35781E-01 3.16955E+05 5.77462E+05 1.70132E-06 4.28255E+05 3.70973E-07
 -1       454 6.86493E-01 1.65458E+05 2.56323E+05 1.01922E-06 2.08577E+05 2.40956E-07
 -1       455 2.02117E+00 3.34441E+05 4.29132E+05 1.01090E+00 3.79612E+05 3.56224E+00
 -1       456 2.00587E+00 3.34442E+05 4.29122E+05-1.22153E-06 3.79608E+05 1.74753E-06
 -1       457-8.10373E-01 3.30518E+05 4.75918E+05-3.65672E-01 3.96982E+05-1.51002E+00
 -1       458 1.17680E+00 1.69735E+05 2.10082E+05 2.44571E-01 1.90910E+05 2.09065E+00
 -1       459 2.01352E+00 3.34441E+05 4.29127E+05 2.74588E-01 3.79610E+05 2.45119E+00
 -1       460-8.24615E-01 3.30518E+05 4.75923E+05-3.13777E-08 3.96983E+05 9.77889E-07
 -1       461 1.16287E+00 1.69735E+05 2.10076E+05-3.70601E-07 1.90908E+05 3.71264E-07
 -1       462 2.98106E+00 3.31428E+05 3.50019E+05 1.69686E+00 3.41173E+05 4.80152E+00
 -1       463 2.96698E+00 3.31430E+05 3.50008E+05 5.91636E-07 3.41168E+05 1.86247E-07
 -1       464-1.21758E+00 3.32843E+05 3.89552E+05-6.49686E-01 3.60398E+05-2.05984E+00
 -1       465 1.88562E+00 1.68592E+05 1.71034E+05 6.63900E-01 1.71441E+05 2.98134E+00
 -1       466 2.97402E+00 3.31429E+05 3.50013E+05 3.90023E-01 3.41170E+05 3.16448E+00
 -1       467-1.23228E+00 3.32842E+05 3.89557E+05 1.11387E-06 3.60400E+05 4.73784E-07
 -1       468 1.87013E+00 1.68591E+05 1.71027E+05-3.03744E-07 1.71438E+05-1.57624E-08
 -1       469 4.25533E+00 3.19224E+05 2.83710E+05 2.58932E+00 3.01366E+05 6.30538E+00
 -1       470 4.24323E+00 3.19228E+05 2.83697E+05 9.38157E-07 3.01361E+05 7.13786E-07
 -1       471-1.77491E+00 3.25248E+05 3.16834E+05-1.04382E+00 3.21278E+05-2.74390E+00
 -1       472 2.88490E+00 1.62777E+05 1.38333E+05 1.27891E+00 1.51332E+05 4.11669E+00
 -1       473 4.24928E+00 3.19226E+05 2.83703E+05 4.30909E-01 3.01364E+05 3.96372E+00
 -1       474-1.78800E+00 3.25247E+05 3.16840E+05-2.47352E-07 3.21281E+05 6.04181E-07
 -1       475 2.86958E+00 1.62777E+05 1.38325E+05 5.18546E-07 1.51329E+05-1.12983E-07
 -1       476 5.85026E+00 2.99345E+05 2.28406E+05 3.68462E+00 2.61783E+05 8.04981E+00
 -1       477 5.86590E+00 2.99353E+05 2.28391E+05-4.57945E-07 2.61778E+05 1.78559E-06
 -1       478-2.49760E+00 3.09222E+05 2.56018E+05-1.52447E+00 2.81586E+05-3.55185E+00
 -1       479 4.20715E+00 1.53064E+05 1.11079E+05 2.13149E+00 1.31373E+05 5.49743E+00
 -1       480 5.85808E+00 2.99349E+05 2.28399E+05 2.46986E-01 2.61780E+05 4.78679E+00
 -1       481-2.49583E+00 3.09220E+05 2.56025E+05-8.03514E-07 2.81588E+05 1.19778E-06
 -1       482 4.20390E+00 1.53066E+05 1.11070E+05 6.84772E-07 1.31370E+05 5.55539E-07
 -1       483 7.64891E+00 2.73234E+05 1.82349E+05 4.62128E+00 2.23417E+05 9.85345E+00
 -1       484 7.65499E+00 2.73249E+05 1.82333E+05-4.81553E-07 2.23415E+05-2.34783E-07
 -1       485-3.37999E+00 2.86245E+05 2.05326E+05-2.10707E+00 2.42613E+05-4.46837E+00
 -1       486 5.83711E+00 1.40187E+05 8.83944E+04 3.00467E+00 1.12056E+05 7.04107E+00
 -1       487 7.65195E+00 2.73241E+05 1.82341E+05-4.15348E-01 2.23416E+05 5.46725E+00
 -1       488-3.36912E+00 2.86240E+05 2.05333E+05 1.90467E-06 2.42615E+05 4.28143E-07
 -1       489 5.84107E+00 1.40192E+05 8.83844E+04 5.19087E-07 1.12054E+05-1.53281E-07
 -1       490 9.37951E+00 2.42183E+05 1.43902E+05 5.62739E+00 1.86809E+05 1.16032E+01
 -1       491 9.61151E+00 2.42211E+05 1.43888E+05-1.09193E-06 1.86812E+05-9.19283E-07
 -1       492-4.29702E+00 2.57686E+05 1.63058E+05-2.39628E+00 2.05129E+05-5.31351E+00
 -1       493 7.52014E+00 1.24803E+05 6.94619E+04 4.15831E+00 9.36441E+04 8.61011E+00
 -1       494 9.49551E+00 2.42197E+05 1.43895E+05-2.10482E+00 1.86810E+05 5.83819E+00
 -1       495-4.17800E+00 2.57676E+05 1.63066E+05-2.43349E-06 2.05129E+05 1.62519E-07
 -1       496 7.62544E+00 1.24815E+05 6.94524E+04-2.58468E-06 9.36456E+04 3.52674E-07
 -1       497 1.01022E+01 2.07315E+05 1.11584E+05 3.31938E+00 1.52153E+05 1.20330E+01
 -1       498 9.89304E+00 2.07363E+05 1.11574E+05-5.37970E-07 1.52167E+05 1.50483E-06
 -1       499-5.14916E+00 2.24758E+05 1.27656E+05-3.03032E+00 1.69503E+05-6.17422E+00
 -1       500 9.00842E+00 1.07479E+05 5.35448E+04 3.12391E+00 7.62318E+04 9.61773E+00
 -1       501 9.99763E+00 2.07339E+05 1.11579E+05-5.40655E+00 1.52160E+05 5.09937E+00
 -1       502-5.13767E+00 2.24739E+05 1.27662E+05 7.41180E-07 1.69500E+05 1.00109E-07
 -1       503 9.00165E+00 1.07504E+05 5.35372E+04 1.32531E-06 7.62405E+04 6.24745E-07
 -1       504 9.13754E+00 1.69543E+05 8.40926E+04 5.38889E+00 1.19412E+05 1.25048E+01
 -1       505 1.11556E+01 1.69637E+05 8.40874E+04-2.10879E-06 1.19438E+05-7.50144E-07
 -1       506-4.89921E+00 1.88486E+05 9.77278E+04 1.43969E-01 1.35820E+05-5.57809E+00
 -1       507 8.28320E+00 8.86907E+04 3.99858E+04 5.77283E+00 5.97922E+04 9.89876E+00
 -1       508 1.01466E+01 1.69590E+05 8.40900E+04-1.24463E+01 1.19425E+05 3.84748E+00
 -1       509-3.99498E+00 1.88456E+05 9.77314E+04-1.85701E-06 1.35808E+05-3.24432E-07
 -1       510 9.18705E+00 8.87405E+04 3.99850E+04-3.42596E-06 5.98118E+04-1.14097E-06
 -1       511 5.08714E-01 1.29728E+05 6.02121E+04-2.59186E+01 8.83139E+04 2.31475E+00
 -1       512-4.23909E+00 1.29847E+05 6.02276E+04 2.39489E-06 8.83921E+04 1.24861E-06
 -1       513-4.61966E+00 1.49769E+05 7.20221E+04-5.09172E+00 1.03934E+05-6.73432E+00
 -1       514 6.90010E+00 6.88394E+04 2.82077E+04-1.58992E+01 4.42048E+04 5.92364E+00
 -1       515-1.86519E+00 1.29787E+05 6.02199E+04-2.24621E+01 8.83530E+04-4.03444E+00
 -1       516-5.98368E+00 1.49705E+05 7.20227E+04-2.59665E-06 1.03918E+05 2.19651E-06
 -1       517 5.30686E+00 6.89237E+04 2.82107E+04 2.22265E-06 4.42520E+04 1.22823E-08
 -1       518-7.40633E+00 8.81770E+04 3.90655E+04 3.46446E+01 5.86886E+04 9.94311E+00
 -1       519 1.35377E+01 8.85093E+04 3.90711E+04 5.77908E-07 5.87348E+04 3.03652E-07
 -1       520 5.52512E+00 1.09218E+05 4.95219E+04 3.27455E+01 7.36392E+04 5.75864E+00
 -1       521-1.23486E+01 4.82373E+04 1.76596E+04 3.05216E+01 2.93217E+04 2.56463E+00
 -1       522 3.06571E+00 8.83432E+04 3.90683E+04-4.86176E+01 5.87117E+04-1.68869E+00
 -1       523 1.36204E+01 1.09156E+05 4.95052E+04 2.09332E-06 7.35762E+04-2.05113E-07
 -1       524-3.26320E+00 4.84046E+04 1.76997E+04 1.57053E-07 2.93809E+04 4.80130E-07
 -1       525-7.68310E+01 4.66163E+04 1.90163E+04-3.04468E+02 2.94401E+04-8.30884E+01
 -1       526-1.42988E+02 4.66304E+04 1.91867E+04-1.03732E-05 2.98558E+04-1.54321E-06
 -1       527-3.08652E+00 6.78449E+04 2.90002E+04-6.84234E+01 4.43465E+04-1.74340E+01
 -1       528-4.94924E+00 2.72282E+04 7.93204E+03-2.15493E+02 1.48499E+04-2.90004E+01
 -1       529-1.09910E+02 4.66233E+04 1.91015E+04-5.95246E+01 2.96480E+04-6.10512E+01
 -1       530-2.56838E+01 6.75798E+04 2.90074E+04-4.77492E-06 4.43550E+04-1.08314E-06
 -1       531-3.28847E+01 2.74241E+04 7.91909E+03-1.03594E-06 1.50457E+04 5.07443E-08
 -1       532 2.03073E+02 5.09372E+03 9.68487E+02 1.20169E+03 4.33317E+03 1.07101E+02
 -1       533 4.44737E+02 3.24483E+03 5.95035E+02-1.47503E-06 2.25645E+03-2.15232E-07
 -1       534 9.98651E+01 2.46585E+04 1.06031E+04 3.84775E+02 1.64903E+04 1.12213E+02
 -1       535-7.74602E+01 6.28833E+03-1.76863E+03 8.06158E+02 1.94759E+03-6.54337E+01
 -1       536 3.23905E+02 4.16927E+03 7.81761E+02 4.91369E+02 3.29481E+03 1.66141E+02
 -1       537 1.87611E+02 2.48639E+04 1.04303E+04-4.71641E-06 1.60808E+04-4.97823E-07
 -1       538 3.44201E+01 4.54380E+03-1.56904E+03-1.14582E-06 8.37560E+02-6.52318E-07
 -1       539-9.42794E-01-1.23233E+04 1.67770E+06 2.58981E-01 1.15239E+04-1.10079E+00
 -1       540 1.00245E-01 1.59867E+04 1.54546E+06 1.07710E-01 1.71451E+05 1.53491E-02
 -1       541-9.42794E-01-1.23237E+04 1.67770E+06 3.77623E-01 1.15248E+04-1.20574E+00
 -1       542 9.86862E-02 1.59868E+04 1.54546E+06 6.06706E-02 1.71451E+05-5.84013E-02
 -1       543-5.77475E-01-1.09813E+04 8.28274E+05-4.66468E-02 8.10401E+03-1.06822E-01
 -1       544-5.53019E-02 2.13436E+03 1.61166E+06-4.65052E-02 9.06155E+04-4.02254E-02
 -1       545 1.04037E-02 1.04885E+03 7.62900E+05 9.48564E-02 9.08761E+04 3.89124E-02
 -1       546 9.54909E-02 5.97230E+04 1.38798E+06 1.28244E-01 2.99490E+05-1.27771E-01
 -1       547 9.41428E-02 5.97231E+04 1.38798E+06 7.38600E-02 2.99490E+05-1.62596E-01
 -1       548-4.49394E-02 3.81852E+04 1.46672E+06-5.96102E-02 2.35844E+05 2.68998E-02
 -1       549 8.08126E-04 2.59148E+04 6.85021E+05 1.19062E-01 1.53722E+05-1.03260E-02
 -1       550 1.24192E-01 1.18317E+05 1.22131E+06 1.35530E-01 3.85659E+05-3.01495E-01
 -1       551 1.22383E-01 1.18317E+05 1.22131E+06 7.94712E-02 3.85659E+05-2.93623E-01
 -1       552-5.03789E-02 8.92703E+04 1.30465E+06-6.67539E-02 3.42782E+05 1.03967E-01
 -1       553 4.86912E-03 5.65337E+04 6.02319E+05 1.47666E-01 1.96486E+05-8.00623E-02
 -1       554 1.94422E-01 1.77659E+05 1.05611E+06 1.22679E-01 4.36989E+05-5.29129E-01
 -1       555 1.92092E-01 1.77659E+05 1.05611E+06 7.48244E-02 4.36989E+05-4.63883E-01
 -1       556-7.35808E-02 1.48079E+05 1.13874E+06-6.62315E-02 4.11404E+05 2.01936E-01
 -1       557 2.97912E-02 8.76197E+04 5.20425E+05 1.76240E-01 2.21589E+05-1.85329E-01
 -1       558 3.21699E-01 2.31534E+05 9.00229E+05 7.55820E-02 4.59137E+05-8.37527E-01
 -1       559 3.18581E-01 2.31534E+05 9.00227E+05 5.51066E-02 4.59137E+05-6.88104E-01
 -1       560-1.20678E-01 2.04587E+05 9.78181E+05-5.28789E-02 4.48083E+05 3.33075E-01
 -1       561 8.77917E-02 1.15636E+05 4.43156E+05 1.95747E-01 2.32185E+05-3.45104E-01
 -1       562 5.29471E-01 2.75415E+05 7.58185E+05-2.77129E-02 4.58844E+05-1.25800E+00
 -1       563 5.25338E-01 2.75415E+05 7.58182E+05 1.40419E-02 4.58843E+05-9.82766E-01
 -1       564-2.01137E-01 2.53402E+05 8.29208E+05-1.78272E-02 4.58986E+05 5.11852E-01
 -1       565 1.97894E-01 1.38473E+05 3.72802E+05 1.90926E-01 2.31580E+05-5.83431E-01
 -1       566 8.51032E-01 3.07325E+05 6.32201E+05-2.17307E-01 4.42167E+05-1.82624E+00
 -1       567 8.45671E-01 3.07325E+05 6.32198E+05-5.44807E-02 4.42166E+05-1.36509E+00
 -1       568-3.29064E-01 2.91269E+05 6.95186E+05 5.18011E-02 4.50496E+05 7.54935E-01
 -1       569 3.88142E-01 1.55145E+05 3.10452E+05 1.38775E-01 2.22838E+05-9.29879E-01
 -1       570 1.33042E+00 3.26801E+05 5.22741E+05-5.31268E-01 4.14351E+05-2.58138E+00
 -1       571 1.32383E+00 3.26802E+05 5.22737E+05-1.53048E-01 4.14350E+05-1.85104E+00
 -1       572-5.23830E-01 3.16955E+05 5.77458E+05 1.72815E-01 4.28254E+05 1.08102E+00
 -1       573 6.97519E-01 1.65458E+05 2.56327E+05 6.97524E-03 2.08578E+05-1.41945E+00
 -1       574 2.02117E+00 3.34441E+05 4.29132E+05-1.01090E+00 3.79612E+05-3.56224E+00
 -1       575 2.01352E+00 3.34441E+05 4.29127E+05-2.74589E-01 3.79610E+05-2.45119E+00
 -1       576-8.10374E-01 3.30518E+05 4.75918E+05 3.65674E-01 3.96982E+05 1.51002E+00
 -1       577 1.17680E+00 1.69735E+05 2.10082E+05-2.44569E-01 1.90910E+05-2.09065E+00
 -1       578 2.98106E+00 3.31428E+05 3.50019E+05-1.69686E+00 3.41173E+05-4.80152E+00
 -1       579 2.97402E+00 3.31429E+05 3.50013E+05-3.90024E-01 3.41170E+05-3.16447E+00
 -1       580-1.21758E+00 3.32843E+05 3.89552E+05 6.49685E-01 3.60398E+05 2.05984E+00
 -1       581 1.88562E+00 1.68592E+05 1.71034E+05-6.63899E-01 1.71441E+05-2.98134E+00
 -1       582 4.25533E+00 3.19224E+05 2.83710E+05-2.58932E+00 3.01366E+05-6.30538E+00
 -1       583 4.24928E+00 3.19226E+05 2.83703E+05-4.30909E-01 3.01364E+05-3.96372E+00
 -1       584-1.77491E+00 3.25248E+05 3.16834E+05 1.04382E+00 3.21278E+05 2.74390E+00
 -1       585 2.88490E+00 1.62777E+05 1.38333E+05-1.27891E+00 1.51332E+05-4.11669E+00
 -1       586 5.85026E+00 2.99345E+05 2.28406E+05-3.68462E+00 2.61783E+05-8.04981E+00
 -1       587 5.85808E+00 2.99349E+05 2.28399E+05-2.46986E-01 2.61780E+05-4.78679E+00
 -1       588-2.49760E+00 3.09222E+05 2.56018E+05 1.52447E+00 2.81586E+05 3.55186E+00
 -1       589 4.20715E+00 1.53064E+05 1.11079E+05-2.13149E+00 1.31373E+05-5.49743E+00
 -1       590 7.64891E+00 2.73234E+05 1.82349E+05-4.62128E+00 2.23417E+05-9.85345E+00
 -1       591 7.65195E+00 2.73241E+05 1.82341E+05 4.15350E-01 2.23416E+05-5.46725E+00
 -1       592-3.37999E+00 2.86245E+05 2.05326E+05 2.10707E+00 2.42613E+05 4.46837E+00
 -1       593 5.83711E+00 1.40187E+05 8.83944E+04-3.00467E+00 1.12056E+05-7.04107E+00
 -1       594 9.37951E+00 2.42183E+05 1.43902E+05-5.62739E+00 1.86809E+05-1.16032E+01
 -1       595 9.49551E+00 2.42197E+05 1.43895E+05 2.10482E+00 1.86810E+05-5.83819E+00
 -1       596-4.29702E+00 2.57686E+05 1.63058E+05 2.39629E+00 2.05129E+05 5.31351E+00
 -1       597 7.52014E+00 1.24803E+05 6.94619E+04-4.15831E+00 9.36441E+04-8.61012E+00
 -1       598 1.01022E+01 2.07315E+05 1.11584E+05-3.31937E+00 1.52153E+05-1.20330E+01
 -1       599 9.99763E+00 2.07339E+05 1.11579E+05 5.40655E+00 1.52160E+05-5.09937E+00
 -1       600-5.14916E+00 2.24758E+05 1.27656E+05 3.03033E+00 1.69503E+05 6.17422E+00
 -1       601 9.00842E+00 1.07479E+05 5.35448E+04-3.12391E+00 7.62318E+04-9.61773E+00
 -1       602 9.13754E+00 1.69543E+05 8.40926E+04-5.38889E+00 1.19412E+05-1.25048E+01
 -1       603 1.01466E+01 1.69590E+05 8.40900E+04 1.24463E+01 1.19425E+05-3.84748E+00
 -1       604-4.89921E+00 1.88486E+05 9.77278E+04-1.43963E-01 1.35820E+05 5.57809E+00
 -1       605 8.28320E+00 8.86907E+04 3.99858E+04-5.77283E+00 5.97922E+04-9.89876E+00
 -1       606 5.08714E-01 1.29728E+05 6.02121E+04 2.59187E+01 8.83139E+04-2.31475E+00
 -1       607-1.86519E+00 1.29787E+05 6.02199E+04 2.24621E+01 8.83530E+04 4.03444E+00
 -1       608-4.61966E+00 1.49769E+05 7.20221E+04 5.09173E+00 1.03934E+05 6.73432E+00
 -1       609 6.90010E+00 6.88394E+04 2.82077E+04 1.58992E+01 4.42048E+04-5.92364E+00
 -1       610-7.40633E+00 8.81770E+04 3.90655E+04-3.46446E+01 5.86886E+04-9.94310E+00
 -1       611 3.06571E+00 8.83432E+04 3.90683E+04 4.86176E+01 5.87117E+04 1.68869E+00
 -1       612 5.52512E+00 1.09218E+05 4.95219E+04-3.27455E+01 7.36392E+04-5.75865E+00
 -1       613-1.23486E+01 4.82373E+04 1.76596E+04-3.05216E+01 2.93217E+04-2.56463E+00
 -1       614-7.68310E+01 4.66163E+04 1.90163E+04 3.04468E+02 2.94401E+04 8.30884E+01
 -1       615-1.09910E+02 4.66233E+04 1.91015E+04 5.95246E+01 2.96480E+04 6.10512E+01
 -1       616-3.08652E+00 6.78449E+04 2.90002E+04 6.84234E+01 4.43465E+04 1.74340E+01
 -1       617-4.94924E+00 2.72282E+04 7.93204E+03 2.15493E+02 1.48499E+04 2.90004E+01
 -1       618 2.03073E+02 5.09372E+03 9.68487E+02-1.20169E+03 4.33317E+03-1.07101E+02
 -1       619 3.23905E+02 4.16927E+03 7.81761E+02-4.91369E+02 3.29481E+03-1.66141E+02
 -1       620 9.98651E+01 2.46585E+04 1.06031E+04-3.84775E+02 1.64903E+04-1.12213E+02
 -1       621-7.74602E+01 6.28833E+03-1.76863E+03-8.06158E+02 1.94759E+03 6.54337E+01
 -3
    1PSTEP                        13           7           1          
  100CL  107 3.50000E-01         621                     0    7           1
 -4  DISP        4    1
 -5  D1          1    2    1    0
 -5  D2          1    2    2    0
 -5  D3          1    2    3    0
 -5  ALL         1    2    0    0    1ALL
 -1         1 0.00000E+00 0.00000E+00 0.00000E+00
 -1         2 0.00000E+00 0.00000E+00 0.00000E+00
 -1         3 3.33691E-10 3.02224E-02-1.28619E-03
 -1         4-1.93706E-11 2.96930E-02-1.00871E-02
 -1         5 0.00000E+00 0.00000E+00 0.00000E+00
 -1         6 0.00000E+00 0.00000E+00 0.00000E+00
 -1         7 1.56827E-13 3.02224E-02-1.28620E-03
 -1         8 1.14776E-13 2.96930E-02-1.00871E-02
 -1         9 0.00000E+00 0.00000E+00 0.00000E+00
 -1        10-4.94998E-11 7.67027E-03-1.95125E-04
 -1        11 1.57491E-10 2.99562E-02-5.68423E-03
 -1        12-5.89978E-12 7.52352E-03-4.68100E-03
 -1        13 0.00000E+00 0.00000E+00 0.00000E+00
 -1        14 0.00000E+00 0.00000E+00 0.00000E+00
 -1        15 1.67021E-10 3.02224E-02-1.28619E-03
 -1        16-9.67509E-12 2.96930E-02-1.00871E-02
 -1        17 0.00000E+00 0.00000E+00 0.00000E+00
 -1        18 3.96966E-14 7.67027E-03-1.95124E-04
 -1        19 1.35770E-13 2.99562E-02-5.68423E-03
 -1        20 2.00454E-14 7.52352E-03-4.68100E-03
 -1        21 9.53196E-10 1.17465E-01-9.27722E-03
 -1        22-1.36429E-10 1.15515E-01-2.61231E-02
 -1        23 6.10495E-13 1.17465E-01-9.27722E-03
 -1        24 5.24298E-13 1.15515E-01-2.61231E-02
 -1        25-2.82615E-10 6.70405E-02-4.07866E-03
 -1        26 4.08684E-10 1.16489E-01-1.76983E-02
 -1        27 2.44255E-11 6.58952E-02-1.69959E-02
 -1        28 4.76936E-10 1.17465E-01-9.27722E-03
 -1        29-6.80113E-11 1.15515E-01-2.61231E-02
 -1        30 3.48261E-13 6.70405E-02-4.07866E-03
 -1        31 5.67443E-13 1.16489E-01-1.76983E-02
 -1        32 2.84086E-13 6.58952E-02-1.69959E-02
 -1        33 1.91177E-09 2.56445E-01-2.92570E-02
 -1        34-3.92959E-10 2.52403E-01-5.33467E-02
 -1        35 1.33330E-12 2.56445E-01-2.92571E-02
 -1        36 1.20549E-12 2.52403E-01-5.33467E-02
 -1        37-6.67903E-10 1.80829E-01-1.74965E-02
 -1        38 7.59827E-10 2.54424E-01-4.12999E-02
 -1        39 1.11878E-10 1.77904E-01-3.80623E-02
 -1        40 9.56555E-10 2.56445E-01-2.92570E-02
 -1        41-1.95972E-10 2.52403E-01-5.33467E-02
 -1        42 9.40166E-13 1.80829E-01-1.74965E-02
 -1        43 1.26931E-12 2.54424E-01-4.12999E-02
 -1        44 8.33268E-13 1.77904E-01-3.80623E-02
 -1        45 3.28320E-09 4.41701E-01-6.50799E-02
 -1        46-8.61819E-10 4.35097E-01-9.56059E-02
 -1        47 2.29366E-12 4.41701E-01-6.50799E-02
 -1        48 2.12680E-12 4.35097E-01-9.56059E-02
 -1        49-1.23938E-09 3.43631E-01-4.49987E-02
 -1        50 1.21127E-09 4.38399E-01-8.03410E-02
 -1        51 2.82165E-10 3.38356E-01-7.24045E-02
 -1        52 1.64270E-09 4.41701E-01-6.50799E-02
 -1        53-4.29995E-10 4.35097E-01-9.56059E-02
 -1        54 1.78552E-12 3.43631E-01-4.49987E-02
 -1        55 2.21032E-12 4.38399E-01-8.03410E-02
 -1        56 1.63780E-12 3.38356E-01-7.24045E-02
 -1        57 5.14050E-09 6.67845E-01-1.19345E-01
 -1        58-1.67400E-09 6.58377E-01-1.55526E-01
 -1        59 3.46085E-12 6.67845E-01-1.19345E-01
 -1        60 3.25642E-12 6.58377E-01-1.55526E-01
 -1        61-2.03705E-09 5.49992E-01-8.97882E-02
 -1        62 1.73406E-09 6.63111E-01-1.37434E-01
 -1        63 5.82172E-10 5.41985E-01-1.23236E-01
 -1        64 2.57185E-09 6.67845E-01-1.19345E-01
 -1        65-8.35605E-10 6.58377E-01-1.55526E-01
 -1        66 2.85328E-12 5.49992E-01-8.97882E-02
 -1        67 3.35870E-12 6.63111E-01-1.37434E-01
 -1        68 2.66721E-12 5.41985E-01-1.23236E-01
 -1        69 7.52264E-09 9.29738E-01-1.93589E-01
 -1        70-3.05984E-09 9.17249E-01-2.34692E-01
 -1        71 4.80184E-12 9.29738E-01-1.93589E-01
 -1        72 4.56336E-12 9.17249E-01-2.34692E-01
 -1        73-3.09417E-09 7.94631E-01-1.53909E-01
 -1        74 2.23255E-09 9.23494E-01-2.14139E-01
 -1        75 1.09568E-09 7.83666E-01-1.92639E-01
 -1        76 3.76346E-09 9.29738E-01-1.93589E-01
 -1        77-1.52800E-09 9.17249E-01-2.34692E-01
 -1        78 4.11180E-12 7.94631E-01-1.53909E-01
 -1        79 4.68238E-12 9.23494E-01-2.14139E-01
 -1        80 3.88991E-12 7.83666E-01-1.92639E-01
 -1        81 1.03812E-08 1.22261E+00-2.88481E-01
 -1        82-5.41375E-09 1.20706E+00-3.33830E-01
 -1        83 6.28844E-12 1.22261E+00-2.88481E-01
 -1        84 6.01900E-12 1.20706E+00-3.33830E-01
 -1        85-4.41676E-09 1.07258E+00-2.38441E-01
 -1        86 2.48530E-09 1.21483E+00-3.11154E-01
 -1        87 1.96886E-09 1.05856E+00-2.81748E-01
 -1        88 5.19329E-09 1.22261E+00-2.88481E-01
 -1        89-2.70441E-09 1.20706E+00-3.33830E-01
 -1        90 5.52808E-12 1.07258E+00-2.38441E-01
 -1        91 6.15394E-12 1.21483E+00-3.11154E-01
 -1        92 5.27313E-12 1.05856E+00-2.81748E-01
 -1        93 1.34967E-08 1.54211E+00-4.03995E-01
 -1        94-9.39274E-09 1.52354E+00-4.52981E-01
 -1        95 7.89694E-12 1.54211E+00-4.03995E-01
 -1        96 7.59846E-12 1.52354E+00-4.52981E-01
 -1        97-5.95066E-09 1.37929E+00-3.43684E-01
 -1        98 2.05423E-09 1.53283E+00-4.28487E-01
 -1        99 3.44952E-09 1.36222E+00-3.90924E-01
 -1       100 6.75161E-09 1.54211E+00-4.03995E-01
 -1       101-4.69335E-09 1.52354E+00-4.52981E-01
 -1       102 7.07904E-12 1.37929E+00-3.43684E-01
 -1       103 7.74773E-12 1.53283E+00-4.28487E-01
 -1       104 6.79400E-12 1.36222E+00-3.90924E-01
 -1       105 1.63543E-08 1.88435E+00-5.39566E-01
 -1       106-1.60598E-08 1.86288E+00-5.91646E-01
 -1       107 9.60034E-12 1.88435E+00-5.39566E-01
 -1       108 9.27703E-12 1.86288E+00-5.91646E-01
 -1       109-7.53094E-09 1.71062E+00-4.69325E-01
 -1       110 1.50241E-10 1.87362E+00-5.65605E-01
 -1       111 5.94633E-09 1.69058E+00-5.19923E-01
 -1       112 8.18100E-09 1.88435E+00-5.39566E-01
 -1       113-8.02635E-09 1.86288E+00-5.91646E-01
 -1       114 8.73764E-12 1.71062E+00-4.69325E-01
 -1       115 9.43835E-12 1.87362E+00-5.65605E-01
 -1       116 8.42442E-12 1.69058E+00-5.19923E-01
 -1       117 1.79690E-08 2.24587E+00-6.94222E-01
 -1       118-2.70872E-08 2.22166E+00-7.48917E-01
 -1       119 1.13788E-11 2.24587E+00-6.94222E-01
 -1       120 1.10318E-11 2.22166E+00-7.48917E-01
 -1       121-8.80780E-09 2.06290E+00-6.14581E-01
 -1       122-4.55450E-09 2.23376E+00-7.21569E-01
 -1       123 1.01132E-08 2.04004E+00-6.68026E-01
 -1       124 8.98889E-09 2.24587E+00-6.94222E-01
 -1       125-1.35395E-08 2.22166E+00-7.48917E-01
 -1       126 1.04824E-11 2.06290E+00-6.14581E-01
 -1       127 1.12053E-11 2.23376E+00-7.21569E-01
 -1       128 1.01460E-11 2.04004E+00-6.68026E-01
 -1       129 1.66560E-08 2.62361E+00-8.66691E-01
 -1       130-4.50148E-08 2.59688E+00-9.23580E-01
 -1       131 1.32109E-11 2.62361E+00-8.66691E-01
 -1       132 1.28432E-11 2.59688E+00-9.23580E-01
 -1       133-9.14588E-09 2.43289E+00-7.78319E-01
 -1       134-1.41751E-08 2.61025E+00-8.95135E-01
 -1       135 1.69682E-08 2.40739E+00-8.34160E-01
 -1       136 8.33319E-09 2.62361E+00-8.66691E-01
 -1       137-2.25026E-08 2.59688E+00-9.23580E-01
 -1       138 1.22901E-11 2.43289E+00-7.78319E-01
 -1       139 1.30269E-11 2.61025E+00-8.95135E-01
 -1       140 1.19316E-11 2.40739E+00-8.34160E-01
 -1       141 9.76540E-09 3.01494E+00-1.05549E+00
 -1       142-7.35992E-08 2.98591E+00-1.11420E+00
 -1       143 1.50780E-11 3.01494E+00-1.05549E+00
 -1       144 1.46939E-11 2.98591E+00-1.11420E+00
 -1       145-7.49470E-09 2.81773E+00-9.59147E-01
 -1       146-3.19041E-08 3.00042E+00-1.08484E+00
 -1       147 2.80340E-08 2.78982E+00-1.01699E+00
 -1       148 4.88855E-09 3.01494E+00-1.05549E+00
 -1       149-3.67943E-08 2.98591E+00-1.11420E+00
 -1       150 1.41384E-11 2.81773E+00-9.59147E-01
 -1       151 1.48862E-11 3.00042E+00-1.08484E+00
 -1       152 1.37631E-11 2.78982E+00-1.01699E+00
 -1       153-6.58996E-09 3.41752E+00-1.25897E+00
 -1       154-1.18065E-07 3.38645E+00-1.31919E+00
 -1       155 1.69792E-11 3.41752E+00-1.25897E+00
 -1       156 1.65822E-11 3.38645E+00-1.31919E+00
 -1       157-2.25375E-09 3.21495E+00-1.15550E+00
 -1       158-6.23369E-08 3.40198E+00-1.28908E+00
 -1       159 4.55438E-08 3.18487E+00-1.21500E+00
 -1       160-3.28635E-09 3.41752E+00-1.25897E+00
 -1       161-5.90246E-08 3.38645E+00-1.31919E+00
 -1       162 1.60254E-11 3.21495E+00-1.15550E+00
 -1       163 1.67806E-11 3.40198E+00-1.28908E+00
 -1       164 1.56368E-11 3.18487E+00-1.21500E+00
 -1       165-3.76429E-08 3.82934E+00-1.47540E+00
 -1       166-1.85723E-07 3.79648E+00-1.53686E+00
 -1       167 1.88905E-11 3.82934E+00-1.47540E+00
 -1       168 1.84782E-11 3.79648E+00-1.53686E+00
 -1       169 8.87228E-09 3.62239E+00-1.36568E+00
 -1       170-1.11596E-07 3.81291E+00-1.50613E+00
 -1       171 7.24998E-08 3.59039E+00-1.42655E+00
 -1       172-1.88137E-08 3.82934E+00-1.47540E+00
 -1       173-9.28563E-08 3.79648E+00-1.53686E+00
 -1       174 1.79318E-11 3.62239E+00-1.36568E+00
 -1       175 1.86844E-11 3.81291E+00-1.50613E+00
 -1       176 1.75295E-11 3.59039E+00-1.42655E+00
 -1       177-8.98865E-08 4.24863E+00-1.70299E+00
 -1       178-2.84722E-07 4.21426E+00-1.76543E+00
 -1       179 2.08126E-11 4.24863E+00-1.70299E+00
 -1       180 2.03914E-11 4.21426E+00-1.76543E+00
 -1       181 2.88133E-08 4.03815E+00-1.58792E+00
 -1       182-1.87567E-07 4.23144E+00-1.73421E+00
 -1       183 1.13190E-07 4.00450E+00-1.64989E+00
 -1       184-4.49179E-08 4.24863E+00-1.70299E+00
 -1       185-1.42330E-07 4.21426E+00-1.76543E+00
 -1       186 1.98494E-11 4.03815E+00-1.58792E+00
 -1       187 2.06014E-11 4.23144E+00-1.73421E+00
 -1       188 1.94366E-11 4.00450E+00-1.64989E+00
 -1       189-1.69774E-07 4.67383E+00-1.93990E+00
 -1       190-4.28142E-07 4.63822E+00-2.00310E+00
 -1       191 2.27391E-11 4.67383E+00-1.93990E+00
 -1       192 2.23212E-11 4.63822E+00-2.00310E+00
 -1       193 6.12055E-08 4.46058E+00-1.82039E+00
 -1       194-2.97864E-07 4.65603E+00-1.97150E+00
 -1       195 1.71584E-07 4.42556E+00-1.88324E+00
 -1       196-8.48917E-08 4.67383E+00-1.93990E+00
 -1       197-2.14116E-07 4.63822E+00-2.00310E+00
 -1       198 2.17739E-11 4.46058E+00-1.82039E+00
 -1       199 2.25300E-11 4.65603E+00-1.97150E+00
 -1       200 2.13593E-11 4.42556E+00-1.88324E+00
 -1       201-2.82422E-07 5.10357E+00-2.18426E+00
 -1       202-6.14759E-07 5.06699E+00-2.24805E+00
 -1       203 2.46599E-11 5.10357E+00-2.18426E+00
 -1       204 2.42426E-11 5.06699E+00-2.24805E+00
 -1       205 1.08668E-07 4.88821E+00-2.06126E+00
 -1       206-4.52631E-07 5.08528E+00-2.21615E+00
 -1       207 2.56446E-07 4.85209E+00-2.12478E+00
 -1       208-1.41079E-07 5.10357E+00-2.18426E+00
 -1       209-3.07076E-07 5.06699E+00-2.24805E+00
 -1       210 2.36955E-11 4.88821E+00-2.06126E+00
 -1       211 2.44514E-11 5.08528E+00-2.21615E+00
 -1       212 2.32825E-11 4.85209E+00-2.12478E+00
 -1       213-4.23525E-07 5.53659E+00-2.43423E+00
 -1       214-8.90255E-07 5.49933E+00-2.49841E+00
 -1       215 2.65563E-11 5.53659E+00-2.43423E+00
 -1       216 2.61358E-11 5.49932E+00-2.49841E+00
 -1       217 1.74558E-07 5.31974E+00-2.30866E+00
 -1       218-6.41283E-07 5.51796E+00-2.46632E+00
 -1       219 3.59157E-07 5.28279E+00-2.37267E+00
 -1       220-2.11961E-07 5.53659E+00-2.43423E+00
 -1       221-4.46130E-07 5.49932E+00-2.49841E+00
 -1       222 2.56123E-11 5.31974E+00-2.30866E+00
 -1       223 2.63464E-11 5.51796E+00-2.46632E+00
 -1       224 2.51899E-11 5.28279E+00-2.37267E+00
 -1       225-5.78583E-07 5.97175E+00-2.68793E+00
 -1       226-1.09543E-06 5.93407E+00-2.75234E+00
 -1       227 2.84367E-11 5.97175E+00-2.68793E+00
 -1       228 2.80005E-11 5.93407E+00-2.75234E+00
 -1       229 2.48189E-07 5.75397E+00-2.56073E+00
 -1       230-8.96424E-07 5.95291E+00-2.72014E+00
 -1       231 5.29129E-07 5.71646E+00-2.62505E+00
 -1       232-2.88492E-07 5.97175E+00-2.68793E+00
 -1       233-5.43423E-07 5.93407E+00-2.75234E+00
 -1       234 2.74937E-11 5.75397E+00-2.56073E+00
 -1       235 2.82196E-11 5.95291E+00-2.72014E+00
 -1       236 2.70655E-11 5.71646E+00-2.62505E+00
 -1       237-6.87759E-07 6.40796E+00-2.94350E+00
 -1       238-1.77201E-06 6.37015E+00-3.00799E+00
 -1       239 3.03416E-11 6.40796E+00-2.94350E+00
 -1       240 2.99173E-11 6.37014E+00-3.00799E+00
 -1       241 3.37282E-07 6.18979E+00-2.81560E+00
 -1       242-1.00187E-06 6.38905E+00-2.97574E+00
 -1       243 5.75720E-07 6.15200E+00-2.88007E+00
 -1       244-3.45231E-07 6.40796E+00-2.94350E+00
 -1       245-9.02404E-07 6.37014E+00-3.00799E+00
 -1       246 2.93860E-11 6.18979E+00-2.81560E+00
 -1       247 3.01277E-11 6.38905E+00-2.97574E+00
 -1       248 2.89513E-11 6.15201E+00-2.88007E+00
 -1       249 0.00000E+00 0.00000E+00 0.00000E+00
 -1       250 0.00000E+00 0.00000E+00 0.00000E+00
 -1       251-3.33378E-10 3.02224E-02-1.28619E-03
 -1       252 1.96001E-11 2.96930E-02-1.00871E-02
 -1       253 0.00000E+00 0.00000E+00 0.00000E+00
 -1       254 0.00000E+00 0.00000E+00 0.00000E+00
 -1       255-1.66708E-10 3.02224E-02-1.28619E-03
 -1       256 9.90461E-12 2.96930E-02-1.00871E-02
 -1       257 0.00000E+00 0.00000E+00 0.00000E+00
 -1       258 4.95792E-11 7.67027E-03-1.95125E-04
 -1       259-1.57220E-10 2.99562E-02-5.68423E-03
 -1       260 5.93994E-12 7.52352E-03-4.68100E-03
 -1       261-9.51975E-10 1.17465E-01-9.27722E-03
 -1       262 1.37478E-10 1.15515E-01-2.61231E-02
 -1       263-4.75716E-10 1.17465E-01-9.27722E-03
 -1       264 6.90598E-11 1.15515E-01-2.61231E-02
 -1       265 2.83312E-10 6.70405E-02-4.07866E-03
 -1       266-4.07549E-10 1.16489E-01-1.76983E-02
 -1       267-2.38573E-11 6.58952E-02-1.69959E-02
 -1       268-1.90910E-09 2.56445E-01-2.92570E-02
 -1       269 3.95370E-10 2.52403E-01-5.33467E-02
 -1       270-9.53888E-10 2.56445E-01-2.92570E-02
 -1       271 1.98383E-10 2.52403E-01-5.33467E-02
 -1       272 6.69784E-10 1.80829E-01-1.74965E-02
 -1       273-7.57288E-10 2.54424E-01-4.12999E-02
 -1       274-1.10211E-10 1.77904E-01-3.80623E-02
 -1       275-3.27862E-09 4.41701E-01-6.50799E-02
 -1       276 8.66072E-10 4.35097E-01-9.56059E-02
 -1       277-1.63811E-09 4.41701E-01-6.50799E-02
 -1       278 4.34249E-10 4.35097E-01-9.56059E-02
 -1       279 1.24295E-09 3.43631E-01-4.49987E-02
 -1       280-1.20685E-09 4.38399E-01-8.03410E-02
 -1       281-2.78889E-10 3.38356E-01-7.24045E-02
 -1       282-5.13358E-09 6.67845E-01-1.19345E-01
 -1       283 1.68051E-09 6.58377E-01-1.55526E-01
 -1       284-2.56492E-09 6.67845E-01-1.19345E-01
 -1       285 8.42117E-10 6.58377E-01-1.55526E-01
 -1       286 2.04275E-09 5.49992E-01-8.97882E-02
 -1       287-1.72734E-09 6.63111E-01-1.37434E-01
 -1       288-5.76837E-10 5.41985E-01-1.23236E-01
 -1       289-7.51304E-09 9.29738E-01-1.93589E-01
 -1       290 3.06896E-09 9.17249E-01-2.34692E-01
 -1       291-3.75386E-09 9.29738E-01-1.93589E-01
 -1       292 1.53712E-09 9.17249E-01-2.34692E-01
 -1       293 3.10239E-09 7.94631E-01-1.53909E-01
 -1       294-2.22318E-09 9.23494E-01-2.14139E-01
 -1       295-1.08790E-09 7.83666E-01-1.92639E-01
 -1       296-1.03686E-08 1.22261E+00-2.88481E-01
 -1       297 5.42579E-09 1.20706E+00-3.33830E-01
 -1       298-5.18071E-09 1.22261E+00-2.88481E-01
 -1       299 2.71644E-09 1.20706E+00-3.33830E-01
 -1       300 4.42781E-09 1.07258E+00-2.38441E-01
 -1       301-2.47299E-09 1.21483E+00-3.11154E-01
 -1       302-1.95831E-09 1.05856E+00-2.81748E-01
 -1       303-1.34809E-08 1.54211E+00-4.03995E-01
 -1       304 9.40794E-09 1.52354E+00-4.52981E-01
 -1       305-6.73582E-09 1.54211E+00-4.03995E-01
 -1       306 4.70855E-09 1.52354E+00-4.52981E-01
 -1       307 5.96482E-09 1.37929E+00-3.43684E-01
 -1       308-2.03874E-09 1.53283E+00-4.28487E-01
 -1       309-3.43593E-09 1.36222E+00-3.90924E-01
 -1       310-1.63351E-08 1.88435E+00-5.39566E-01
 -1       311 1.60784E-08 1.86288E+00-5.91646E-01
 -1       312-8.16179E-09 1.88435E+00-5.39566E-01
 -1       313 8.04490E-09 1.86288E+00-5.91646E-01
 -1       314 7.54842E-09 1.71062E+00-4.69325E-01
 -1       315-1.31365E-10 1.87362E+00-5.65605E-01
 -1       316-5.92948E-09 1.69058E+00-5.19923E-01
 -1       317-1.79462E-08 2.24587E+00-6.94222E-01
 -1       318 2.71092E-08 2.22166E+00-7.48917E-01
 -1       319-8.96613E-09 2.24587E+00-6.94222E-01
 -1       320 1.35616E-08 2.22166E+00-7.48917E-01
 -1       321 8.82877E-09 2.06290E+00-6.14581E-01
 -1       322 4.57691E-09 2.23376E+00-7.21569E-01
 -1       323-1.00930E-08 2.04004E+00-6.68026E-01
 -1       324-1.66296E-08 2.62361E+00-8.66691E-01
 -1       325 4.50405E-08 2.59688E+00-9.23580E-01
 -1       326-8.30676E-09 2.62361E+00-8.66691E-01
 -1       327 2.25283E-08 2.59688E+00-9.23580E-01
 -1       328 9.17046E-09 2.43289E+00-7.78319E-01
 -1       329 1.42011E-08 2.61025E+00-8.95135E-01
 -1       330-1.69443E-08 2.40739E+00-8.34160E-01
 -1       331-9.73525E-09 3.01494E+00-1.05549E+00
 -1       332 7.36286E-08 2.98591E+00-1.11420E+00
 -1       333-4.85839E-09 3.01494E+00-1.05549E+00
 -1       334 3.68237E-08 2.98591E+00-1.11420E+00
 -1       335 7.52298E-09 2.81773E+00-9.59147E-01
 -1       336 3.19338E-08 3.00042E+00-1.08484E+00
 -1       337-2.80065E-08 2.78982E+00-1.01699E+00
 -1       338 6.62392E-09 3.41752E+00-1.25897E+00
 -1       339 1.18098E-07 3.38645E+00-1.31919E+00
 -1       340 3.32031E-09 3.41752E+00-1.25897E+00
 -1       341 5.90578E-08 3.38645E+00-1.31919E+00
 -1       342 2.28581E-09 3.21495E+00-1.15550E+00
 -1       343 6.23705E-08 3.40198E+00-1.28908E+00
 -1       344-4.55125E-08 3.18487E+00-1.21500E+00
 -1       345 3.76807E-08 3.82934E+00-1.47540E+00
 -1       346 1.85760E-07 3.79648E+00-1.53686E+00
 -1       347 1.88515E-08 3.82934E+00-1.47540E+00
 -1       348 9.28932E-08 3.79648E+00-1.53686E+00
 -1       349-8.83642E-09 3.62239E+00-1.36568E+00
 -1       350 1.11633E-07 3.81291E+00-1.50613E+00
 -1       351-7.24648E-08 3.59039E+00-1.42655E+00
 -1       352 8.99281E-08 4.24863E+00-1.70299E+00
 -1       353 2.84762E-07 4.21426E+00-1.76543E+00
 -1       354 4.49595E-08 4.24863E+00-1.70299E+00
 -1       355 1.42371E-07 4.21426E+00-1.76543E+00
 -1       356-2.87736E-08 4.03815E+00-1.58792E+00
 -1       357 1.87608E-07 4.23144E+00-1.73421E+00
 -1       358-1.13151E-07 4.00450E+00-1.64989E+00
 -1       359 1.69819E-07 4.67383E+00-1.93990E+00
 -1       360 4.28187E-07 4.63822E+00-2.00310E+00
 -1       361 8.49371E-08 4.67383E+00-1.93990E+00
 -1       362 2.14160E-07 4.63822E+00-2.00310E+00
 -1       363-6.11620E-08 4.46058E+00-1.82039E+00
 -1       364 2.97909E-07 4.65603E+00-1.97150E+00
 -1       365-1.71541E-07 4.42556E+00-1.88324E+00
 -1       366 2.82471E-07 5.10357E+00-2.18426E+00
 -1       367 6.14807E-07 5.06699E+00-2.24805E+00
 -1       368 1.41129E-07 5.10357E+00-2.18426E+00
 -1       369 3.07125E-07 5.06699E+00-2.24805E+00
 -1       370-1.08621E-07 4.88821E+00-2.06126E+00
 -1       371 4.52679E-07 5.08528E+00-2.21615E+00
 -1       372-2.56399E-07 4.85209E+00-2.12478E+00
 -1       373 4.23578E-07 5.53659E+00-2.43423E+00
 -1       374 8.90307E-07 5.49933E+00-2.49841E+00
 -1       375 2.12014E-07 5.53659E+00-2.43423E+00
 -1       376 4.46183E-07 5.49932E+00-2.49841E+00
 -1       377-1.74507E-07 5.31974E+00-2.30866E+00
 -1       378 6.41335E-07 5.51796E+00-2.46632E+00
 -1       379-3.59107E-07 5.28279E+00-2.37267E+00
 -1       380 5.78640E-07 5.97175E+00-2.68793E+00
 -1       381 1.09548E-06 5.93407E+00-2.75234E+00
 -1       382 2.88549E-07 5.97175E+00-2.68793E+00
 -1       383 5.43479E-07 5.93407E+00-2.75234E+00
 -1       384-2.48134E-07 5.75397E+00-2.56073E+00
 -1       385 8.96481E-07 5.95291E+00-2.72014E+00
 -1       386-5.29075E-07 5.71646E+00-2.62505E+00
 -1       387 6.87820E-07 6.40796E+00-2.94350E+00
 -1       388 1.77207E-06 6.37015E+00-3.00799E+00
 -1       389 3.45291E-07 6.40796E+00-2.94350E+00
 -1       390 9.02464E-07 6.37014E+00-3.00799E+00
 -1       391-3.37223E-07 6.18979E+00-2.81560E+00
 -1       392 1.00193E-06 6.38905E+00-2.97574E+00
 -1       393-5.75662E-07 6.15200E+00-2.88007E+00
 -1       394 0.00000E+00 0.00000E+00 0.00000E+00
 -1       395 1.00238E-09 3.07516E-02 7.51030E-03
 -1       396 0.00000E+00 0.00000E+00 0.00000E+00
 -1       397 1.98999E-13 3.07516E-02 7.51031E-03
 -1       398 0.00000E+00 0.00000E+00 0.00000E+00
 -1       399-2.97245E-10 7.81684E-03 4.29280E-03
 -1       400 6.67708E-10 3.04885E-02 3.10973E-03
 -1       401 0.00000E+00 0.00000E+00 0.00000E+00
 -1       402 5.01069E-10 3.07516E-02 7.51030E-03
 -1       403 0.00000E+00 0.00000E+00 0.00000E+00
 -1       404 5.93207E-14 7.81684E-03 4.29280E-03
 -1       405 1.77932E-13 3.04885E-02 3.10973E-03
 -1       406 1.66665E-09 1.19416E-01 7.56432E-03
 -1       407 6.96835E-13 1.19416E-01 7.56432E-03
 -1       408-7.06029E-10 6.81861E-02 8.84036E-03
 -1       409 1.30958E-09 1.18441E-01-8.58259E-04
 -1       410 8.33479E-10 1.19416E-01 7.56432E-03
 -1       411 4.12402E-13 6.81861E-02 8.84036E-03
 -1       412 6.53735E-13 1.18441E-01-8.58257E-04
 -1       413 2.00022E-09 2.60487E-01-5.17055E-03
 -1       414 1.46123E-12 2.60487E-01-5.17054E-03
 -1       415-9.60184E-10 1.83755E-01 3.07073E-03
 -1       416 1.95549E-09 2.58466E-01-1.72157E-02
 -1       417 1.00057E-09 2.60487E-01-5.17054E-03
 -1       418 1.04702E-12 1.83755E-01 3.07073E-03
 -1       419 1.39722E-12 2.58466E-01-1.72157E-02
 -1       420 1.89686E-09 4.48306E-01-3.45557E-02
 -1       421 2.46099E-12 4.48306E-01-3.45557E-02
 -1       422-1.03769E-09 3.48905E-01-1.75920E-02
 -1       423 2.58933E-09 4.45004E-01-4.98196E-02
 -1       424 9.49315E-10 4.48306E-01-3.45557E-02
 -1       425 1.93332E-12 3.48905E-01-1.75920E-02
 -1       426 2.37747E-12 4.45004E-01-4.98196E-02
 -1       427 1.10461E-09 6.77313E-01-8.31644E-02
 -1       428 3.66529E-12 6.77313E-01-8.31644E-02
 -1       429-8.54508E-10 5.57998E-01-5.63398E-02
 -1       430 3.12158E-09 6.72579E-01-1.01256E-01
 -1       431 5.53675E-10 6.77313E-01-8.31644E-02
 -1       432 3.03916E-12 5.57998E-01-5.63398E-02
 -1       433 3.56297E-12 6.72579E-01-1.01256E-01
 -1       434-8.30006E-10 9.42228E-01-1.52487E-01
 -1       435 5.04148E-12 9.42228E-01-1.52487E-01
 -1       436-2.42884E-10 8.05596E-01-1.15179E-01
 -1       437 3.34494E-09 9.35983E-01-1.73040E-01
 -1       438-4.13101E-10 9.42228E-01-1.52487E-01
 -1       439 4.33325E-12 8.05596E-01-1.15179E-01
 -1       440 4.92161E-12 9.35983E-01-1.73040E-01
 -1       441-4.64657E-09 1.23817E+00-2.43132E-01
 -1       442 6.55832E-12 1.23817E+00-2.43132E-01
 -1       443 1.08277E-09 1.08661E+00-1.95135E-01
 -1       444 2.86542E-09 1.23039E+00-2.65808E-01
 -1       445-2.32081E-09 1.23817E+00-2.43132E-01
 -1       446 5.78219E-12 1.08661E+00-1.95135E-01
 -1       447 6.42354E-12 1.23039E+00-2.65808E-01
 -1       448-1.14904E-08 1.56069E+00-3.55009E-01
 -1       449 8.19574E-12 1.56069E+00-3.55009E-01
 -1       450 3.57636E-09 1.39636E+00-2.96444E-01
 -1       451 1.00053E-09 1.55140E+00-3.79503E-01
 -1       452-5.74210E-09 1.56069E+00-3.55009E-01
 -1       453 7.36371E-12 1.39636E+00-2.96444E-01
 -1       454 8.04626E-12 1.55140E+00-3.79503E-01
 -1       455-2.30723E-08 1.90583E+00-4.87486E-01
 -1       456 9.92486E-12 1.90583E+00-4.87486E-01
 -1       457 7.92940E-09 1.73066E+00-4.18728E-01
 -1       458-3.36228E-09 1.89509E+00-5.13527E-01
 -1       459-1.15323E-08 1.90583E+00-4.87486E-01
 -1       460 9.04919E-12 1.73066E+00-4.18728E-01
 -1       461 9.76237E-12 1.89509E+00-5.13527E-01
 -1       462-4.18616E-08 2.27007E+00-6.39528E-01
 -1       463 1.17272E-11 2.27007E+00-6.39527E-01
 -1       464 1.51617E-08 2.08576E+00-5.61137E-01
 -1       465-1.19514E-08 2.25797E+00-6.66876E-01
 -1       466-2.09261E-08 2.27007E+00-6.39528E-01
 -1       467 1.08177E-11 2.08576E+00-5.61137E-01
 -1       468 1.15533E-11 2.25797E+00-6.66876E-01
 -1       469-7.13074E-08 2.65035E+00-8.09803E-01
 -1       470 1.35804E-11 2.65035E+00-8.09802E-01
 -1       471 2.67239E-08 2.45838E+00-7.22477E-01
 -1       472-2.73297E-08 2.63698E+00-8.38248E-01
 -1       473-3.56479E-08 2.65035E+00-8.09802E-01
 -1       474 1.26479E-11 2.45838E+00-7.22477E-01
 -1       475 1.33956E-11 2.63698E+00-8.38248E-01
 -1       476-1.15988E-07 3.04397E+00-9.96769E-01
 -1       477 1.54624E-11 3.04397E+00-9.96769E-01
 -1       478 4.46171E-08 2.84564E+00-9.01301E-01
 -1       479-5.31262E-08 3.02945E+00-1.02613E+00
 -1       480-5.79853E-08 3.04397E+00-9.96769E-01
 -1       481 1.45126E-11 2.84564E+00-9.01301E-01
 -1       482 1.52701E-11 3.02945E+00-1.02613E+00
 -1       483-1.81749E-07 3.44859E+00-1.19874E+00
 -1       484 1.73724E-11 3.44859E+00-1.19874E+00
 -1       485 7.14221E-08 3.24504E+00-1.09599E+00
 -1       486-9.41537E-08 3.43306E+00-1.22886E+00
 -1       487-9.08655E-08 3.44859E+00-1.19874E+00
 -1       488 1.64128E-11 3.24504E+00-1.09599E+00
 -1       489 1.71758E-11 3.43306E+00-1.22886E+00
 -1       490-2.74995E-07 3.86219E+00-1.41395E+00
 -1       491 1.92989E-11 3.86219E+00-1.41395E+00
 -1       492 1.10418E-07 3.65439E+00-1.30481E+00
 -1       493-1.56428E-07 3.84577E+00-1.44468E+00
 -1       494-1.37472E-07 3.86219E+00-1.41395E+00
 -1       495 1.83366E-11 3.65439E+00-1.30481E+00
 -1       496 1.90948E-11 3.84577E+00-1.44468E+00
 -1       497-4.02987E-07 4.28300E+00-1.64055E+00
 -1       498 2.12312E-11 4.28300E+00-1.64055E+00
 -1       499 1.64725E-07 4.07180E+00-1.52594E+00
 -1       500-2.46108E-07 4.26581E+00-1.67177E+00
 -1       501-2.01496E-07 4.28300E+00-1.64055E+00
 -1       502 2.02655E-11 4.07180E+00-1.52594E+00
 -1       503 2.10221E-11 4.26581E+00-1.67177E+00
 -1       504-5.66233E-07 4.70944E+00-1.87669E+00
 -1       505 2.31530E-11 4.70944E+00-1.87669E+00
 -1       506 2.38587E-07 4.49560E+00-1.75755E+00
 -1       507-3.69303E-07 4.69163E+00-1.90829E+00
 -1       508-2.82968E-07 4.70944E+00-1.87669E+00
 -1       509 2.21908E-11 4.49560E+00-1.75755E+00
 -1       510 2.29455E-11 4.69163E+00-1.90829E+00
 -1       511-7.72012E-07 5.14014E+00-2.12048E+00
 -1       512 2.50775E-11 5.14014E+00-2.12048E+00
 -1       513 3.28007E-07 4.92434E+00-1.99775E+00
 -1       514-5.22589E-07 5.12185E+00-2.15237E+00
 -1       515-3.86302E-07 5.14014E+00-2.12048E+00
 -1       516 2.41120E-11 4.92434E+00-1.99775E+00
 -1       517 2.48688E-11 5.12185E+00-2.15237E+00
 -1       518-9.56163E-07 5.57386E+00-2.37005E+00
 -1       519 2.69794E-11 5.57385E+00-2.37005E+00
 -1       520 4.45493E-07 5.35670E+00-2.24466E+00
 -1       521-7.07046E-07 5.55522E+00-2.40214E+00
 -1       522-4.76687E-07 5.57386E+00-2.37005E+00
 -1       523 2.60330E-11 5.35670E+00-2.24466E+00
 -1       524 2.67679E-11 5.55522E+00-2.40214E+00
 -1       525-1.21998E-06 6.00943E+00-2.62352E+00
 -1       526 2.88697E-11 6.00943E+00-2.62352E+00
 -1       527 5.09992E-07 5.79148E+00-2.49641E+00
 -1       528-8.36301E-07 5.99059E+00-2.65572E+00
 -1       529-6.14247E-07 6.00943E+00-2.62352E+00
 -1       530 2.79212E-11 5.79148E+00-2.49641E+00
 -1       531 2.86549E-11 5.99059E+00-2.65572E+00
 -1       532-8.61511E-07 6.44578E+00-2.87901E+00
 -1       533 3.07687E-11 6.44578E+00-2.87901E+00
 -1       534 7.21217E-07 6.22757E+00-2.75112E+00
 -1       535-1.00746E-06 6.42687E+00-2.91125E+00
 -1       536-4.15205E-07 6.44578E+00-2.87901E+00
 -1       537 2.98219E-11 6.22757E+00-2.75112E+00
 -1       538 3.05534E-11 6.42687E+00-2.91125E+00
 -1       539 0.00000E+00 0.00000E+00 0.00000E+00
 -1       540-1.00198E-09 3.07516E-02 7.51030E-03
 -1       541 0.00000E+00 0.00000E+00 0.00000E+00
 -1       542-5.00672E-10 3.07516E-02 7.51030E-03
 -1       543 0.00000E+00 0.00000E+00 0.00000E+00
 -1       544 2.97363E-10 7.81684E-03 4.29280E-03
 -1       545-6.67352E-10 3.04885E-02 3.10973E-03
 -1       546-1.66526E-09 1.19416E-01 7.56432E-03
 -1       547-8.32085E-10 1.19416E-01 7.56432E-03
 -1       548 7.06855E-10 6.81861E-02 8.84036E-03
 -1       549-1.30827E-09 1.18441E-01-8.58259E-04
 -1       550-1.99730E-09 2.60487E-01-5.17055E-03
 -1       551-9.97652E-10 2.60487E-01-5.17054E-03
 -1       552 9.62278E-10 1.83755E-01 3.07073E-03
 -1       553-1.95270E-09 2.58466E-01-1.72157E-02
 -1       554-1.89194E-09 4.48306E-01-3.45557E-02
 -1       555-9.44394E-10 4.48306E-01-3.45557E-02
 -1       556 1.04156E-09 3.48905E-01-1.75920E-02
 -1       557-2.58458E-09 4.45004E-01-4.98196E-02
 -1       558-1.09729E-09 6.77313E-01-8.31644E-02
 -1       559-5.46345E-10 6.77313E-01-8.31644E-02
 -1       560 8.60587E-10 5.57998E-01-5.63398E-02
 -1       561-3.11445E-09 6.72579E-01-1.01256E-01
 -1       562 8.40085E-10 9.42228E-01-1.52487E-01
 -1       563 4.23182E-10 9.42228E-01-1.52487E-01
 -1       564 2.51551E-10 8.05596E-01-1.15179E-01
 -1       565-3.33510E-09 9.35983E-01-1.73040E-01
 -1       566 4.65969E-09 1.23817E+00-2.43132E-01
 -1       567 2.33393E-09 1.23817E+00-2.43132E-01
 -1       568-1.07120E-09 1.08661E+00-1.95135E-01
 -1       569-2.85257E-09 1.23039E+00-2.65808E-01
 -1       570 1.15068E-08 1.56069E+00-3.55009E-01
 -1       571 5.75849E-09 1.56069E+00-3.55009E-01
 -1       572-3.56163E-09 1.39636E+00-2.96444E-01
 -1       573-9.84438E-10 1.55140E+00-3.79503E-01
 -1       574 2.30921E-08 1.90583E+00-4.87486E-01
 -1       575 1.15522E-08 1.90583E+00-4.87486E-01
 -1       576-7.91130E-09 1.73066E+00-4.18728E-01
 -1       577 3.38181E-09 1.89509E+00-5.13527E-01
 -1       578 4.18851E-08 2.27007E+00-6.39528E-01
 -1       579 2.09495E-08 2.27007E+00-6.39528E-01
 -1       580-1.51400E-08 2.08576E+00-5.61137E-01
 -1       581 1.19745E-08 2.25797E+00-6.66876E-01
 -1       582 7.13345E-08 2.65035E+00-8.09803E-01
 -1       583 3.56750E-08 2.65035E+00-8.09802E-01
 -1       584-2.66986E-08 2.45838E+00-7.22477E-01
 -1       585 2.73565E-08 2.63698E+00-8.38248E-01
 -1       586 1.16019E-07 3.04397E+00-9.96769E-01
 -1       587 5.80162E-08 3.04397E+00-9.96769E-01
 -1       588-4.45880E-08 2.84564E+00-9.01301E-01
 -1       589 5.31568E-08 3.02945E+00-1.02613E+00
 -1       590 1.81784E-07 3.44859E+00-1.19874E+00
 -1       591 9.09002E-08 3.44859E+00-1.19874E+00
 -1       592-7.13893E-08 3.24504E+00-1.09599E+00
 -1       593 9.41881E-08 3.43306E+00-1.22886E+00
 -1       594 2.75034E-07 3.86219E+00-1.41395E+00
 -1       595 1.37510E-07 3.86219E+00-1.41395E+00
 -1       596-1.10381E-07 3.65439E+00-1.30481E+00
 -1       597 1.56466E-07 3.84577E+00-1.44468E+00
 -1       598 4.03030E-07 4.28300E+00-1.64055E+00
 -1       599 2.01538E-07 4.28300E+00-1.64055E+00
 -1       600-1.64684E-07 4.07180E+00-1.52594E+00
 -1       601 2.46150E-07 4.26581E+00-1.67177E+00
 -1       602 5.66280E-07 4.70944E+00-1.87669E+00
 -1       603 2.83015E-07 4.70944E+00-1.87669E+00
 -1       604-2.38542E-07 4.49560E+00-1.75755E+00
 -1       605 3.69348E-07 4.69163E+00-1.90829E+00
 -1       606 7.72062E-07 5.14014E+00-2.12048E+00
 -1       607 3.86352E-07 5.14014E+00-2.12048E+00
 -1       608-3.27959E-07 4.92434E+00-1.99775E+00
 -1       609 5.22638E-07 5.12185E+00-2.15237E+00
 -1       610 9.56217E-07 5.57386E+00-2.37005E+00
 -1       611 4.76741E-07 5.57386E+00-2.37005E+00
 -1       612-4.45441E-07 5.35670E+00-2.24466E+00
 -1       613 7.07100E-07 5.55522E+00-2.40214E+00
 -1       614 1.22004E-06 6.00943E+00-2.62352E+00
 -1       615 6.14305E-07 6.00943E+00-2.62352E+00
 -1       616-5.09936E-07 5.79148E+00-2.49641E+00
 -1       617 8.36358E-07 5.99059E+00-2.65572E+00
 -1       618 8.61572E-07 6.44578E+00-2.87901E+00
 -1       619 4.15266E-07 6.44578E+00-2.87901E+00
 -1       620-7.21158E-07 6.22757E+00-2.75112E+00
 -1       621 1.00752E-06 6.42687E+00-2.91125E+00
 -3
    1PSTEP                        14           7           1          
  100CL  107 3.50000E-01         621                     0    7           1
 -4  STRESS      6    1
 -5  SXX         1    4    1    1
 -5  SYY         1    4    2    2
 -5  SZZ         1    4    3    3
 -5  SXY         1    4    1    2
 -5  SYZ         1    4    2    3
 -5  SZX         1    4    3    1
 -1         1 4.30045E-03-8.61817E+03-1.80555E+06-7.59711E-02-6.24873E+02 6.26328E-01
 -1         2-2.90061E-01-1.20004E+04-2.54405E+04 1.49508E-01 6.25873E+03-1.03418E+00
 -1         3-9.51410E-02-1.67230E+04-2.37504E+04-4.29740E-02 1.16778E+04-8.38300E-02
 -1         4 3.28504E-02-2.12441E+04-1.65481E+06 6.92489E-02-2.01492E+05 2.56566E-02
 -1         5 4.30028E-03-8.61796E+03-1.80555E+06 1.08360E-07-6.25891E+02-2.62357E-06
 -1         6-2.90061E-01-1.20005E+04-2.54397E+04 1.52921E-07 6.25904E+03-6.50836E-08
 -1         7-9.35890E-02-1.67230E+04-2.37497E+04-1.68187E-07 1.16780E+04-7.38545E-08
 -1         8 3.20887E-02-2.12441E+04-1.65481E+06-6.09680E-07-2.01492E+05-5.33310E-06
 -1         9-1.42528E-01-1.03313E+04-9.15322E+05-3.43627E-03 3.24422E+03-2.00051E-01
 -1        10 4.46662E-02-1.35251E+04-2.39478E+04 1.63931E-02 8.89337E+03 2.42347E-02
 -1        11-3.11595E-02-1.90042E+04-8.39199E+05 4.11586E-02-9.50331E+04-3.28937E-02
 -1        12-1.40671E-02-1.36693E+04-1.73159E+06-3.33424E-02-1.00279E+05-6.04640E-03
 -1        13 4.30040E-03-8.61807E+03-1.80555E+06-1.26466E-01-6.25382E+02 6.28827E-01
 -1        14-2.90061E-01-1.20004E+04-2.54401E+04 6.08892E-02 6.25888E+03-1.00452E+00
 -1        15-9.43650E-02-1.67230E+04-2.37500E+04-2.57717E-02 1.16779E+04-3.56256E-02
 -1        16 3.24696E-02-2.12441E+04-1.65481E+06 4.64208E-02-2.01492E+05 2.52906E-02
 -1        17-1.42528E-01-1.03310E+04-9.15322E+05 1.19699E-07 3.24318E+03-1.34686E-06
 -1        18 4.54421E-02-1.35250E+04-2.39481E+04-3.36766E-08 8.89332E+03-6.56976E-08
 -1        19-3.07592E-02-1.90042E+04-8.39199E+05-3.30089E-07-9.50330E+04-2.37630E-06
 -1        20-1.44480E-02-1.36693E+04-1.73159E+06-2.74407E-07-1.00279E+05-3.89563E-06
 -1        21-1.12621E-01-9.20172E+03-2.16173E+04-7.57052E-02 8.90817E+03-1.48112E-01
 -1        22 4.65850E-02-8.13167E+04-1.47228E+06 8.43879E-02-3.45892E+05 5.68935E-02
 -1        23-1.12089E-01-9.20172E+03-2.16166E+04-9.80757E-08 8.90842E+03-2.82097E-08
 -1        24 4.56327E-02-8.13167E+04-1.47228E+06-1.24880E-06-3.45892E+05-4.78331E-06
 -1        25 5.08297E-02-1.26113E+04-2.27193E+04 2.80094E-02 1.02022E+04 5.83518E-02
 -1        26-3.30309E-02-4.52649E+04-7.46910E+05 3.49892E-02-1.68543E+05-5.61843E-02
 -1        27-1.92374E-02-5.10588E+04-1.56326E+06-3.70923E-02-2.74636E+05-2.02144E-02
 -1        28-1.12355E-01-9.20172E+03-2.16169E+04-4.17205E-02 8.90829E+03-7.38940E-02
 -1        29 4.61088E-02-8.13167E+04-1.47228E+06 5.32065E-02-3.45892E+05 5.16934E-02
 -1        30 5.18718E-02-1.26113E+04-2.27196E+04-5.89542E-08 1.02021E+04-4.57958E-08
 -1        31-3.32377E-02-4.52649E+04-7.46910E+05-6.09199E-07-1.68543E+05-2.22350E-06
 -1        32-2.00944E-02-5.10588E+04-1.56326E+06-9.09569E-07-2.74636E+05-5.11493E-06
 -1        33-1.37264E-01-5.91557E+03-1.99474E+04-1.26222E-01 8.07022E+03-2.03169E-01
 -1        34 7.09435E-02-1.52237E+05-1.27792E+06 1.15757E-01-4.42205E+05 9.66837E-02
 -1        35-1.37190E-01-5.91555E+03-1.99469E+04-1.00096E-07 8.07055E+03-3.85581E-08
 -1        36 6.93974E-02-1.52237E+05-1.27792E+06-1.75124E-06-4.42206E+05-4.92225E-06
 -1        37 6.23041E-02-7.49510E+03-2.08427E+04 4.90223E-02 8.32986E+03 8.83568E-02
 -1        38-3.31043E-02-7.90863E+04-6.48901E+05 3.19368E-02-2.17074E+05-7.27163E-02
 -1        39-2.80643E-02-1.16953E+05-1.37464E+06-4.85643E-02-3.94568E+05-3.76865E-02
 -1        40-1.37227E-01-5.91556E+03-1.99471E+04-6.38006E-02 8.07039E+03-1.01156E-01
 -1        41 7.01705E-02-1.52237E+05-1.27792E+06 6.92417E-02-4.42206E+05 8.46261E-02
 -1        42 6.26073E-02-7.49511E+03-2.08430E+04-5.73224E-08 8.32971E+03-2.54052E-08
 -1        43-3.38366E-02-7.90863E+04-6.48901E+05-9.33088E-07-2.17074E+05-2.27157E-06
 -1        44-2.93135E-02-1.16953E+05-1.37464E+06-1.42455E-06-3.94568E+05-4.87380E-06
 -1        45-1.61534E-01-2.46852E+03-1.80995E+04-1.91729E-01 6.61198E+03-2.44074E-01
 -1        46 1.14676E-01-2.24443E+05-1.08724E+06 1.67287E-01-4.94390E+05 1.51342E-01
 -1        47-1.62381E-01-2.46849E+03-1.80991E+04 1.11345E-07 6.61237E+03 2.84469E-08
 -1        48 1.12257E-01-2.24443E+05-1.08724E+06-2.20717E-06-4.94390E+05-4.63465E-06
 -1        49 7.56196E-02-4.28915E+03-1.91170E+04 7.83742E-02 7.22470E+03 1.12858E-01
 -1        50-2.33025E-02-1.13460E+05-5.52653E+05 3.51338E-02-2.43887E+05-7.85643E-02
 -1        51-4.39870E-02-1.88630E+05-1.18207E+06-6.87702E-02-4.68509E+05-6.06082E-02
 -1        52-1.61957E-01-2.46851E+03-1.80993E+04-8.88458E-02 6.61217E+03-1.13906E-01
 -1        53 1.13466E-01-2.24443E+05-1.08724E+06 9.57858E-02-4.94390E+05 1.28506E-01
 -1        54 7.52332E-02-4.28916E+03-1.91172E+04-6.27370E-08 7.22451E+03-3.37814E-08
 -1        55-2.49318E-02-1.13460E+05-5.52653E+05-8.31007E-07-2.43887E+05-2.21560E-06
 -1        56-4.59692E-02-1.88630E+05-1.18207E+06-1.69189E-06-4.68508E+05-4.73509E-06
 -1        57-1.74504E-01 8.51314E+01-1.63247E+04-2.66191E-01 5.37486E+03-2.60908E-01
 -1        58 1.91636E-01-2.87714E+05-9.09814E+05 2.47309E-01-5.11919E+05 2.31441E-01
 -1        59-1.76681E-01 8.51392E+01-1.63245E+04 5.15996E-07 5.37526E+03-5.34418E-08
 -1        60 1.87854E-01-2.87714E+05-9.09815E+05-2.11807E-06-5.11919E+05-4.30570E-06
 -1        61 8.66837E-02-1.36571E+03-1.72601E+04 1.14211E-01 5.93132E+03 1.28247E-01
 -1        62 8.80406E-03-1.43817E+05-4.63057E+05 5.16795E-02-2.53268E+05-6.50425E-02
 -1        63-7.24438E-02-2.56367E+05-9.98155E+05-1.00654E-01-5.03165E+05-9.31472E-02
 -1        64-1.75593E-01 8.51353E+01-1.63246E+04-1.11605E-01 5.37506E+03-1.05686E-01
 -1        65 1.89745E-01-2.87714E+05-9.09814E+05 1.35402E-01-5.11919E+05 1.89870E-01
 -1        66 8.51712E-02-1.36572E+03-1.72602E+04 1.71793E-07 5.93112E+03-7.94042E-09
 -1        67 5.82743E-03-1.43817E+05-4.63057E+05-8.95218E-07-2.53269E+05-2.00174E-06
 -1        68-7.55441E-02-2.56367E+05-9.98154E+05-2.43716E-06-5.03165E+05-4.39770E-06
 -1        69-1.58379E-01 2.14986E+03-1.45652E+04-3.37130E-01 4.22058E+03-2.37727E-01
 -1        70 3.23415E-01-3.37342E+05-7.51147E+05 3.70248E-01-5.03515E+05 3.52825E-01
 -1        71-1.62562E-01 2.14977E+03-1.45653E+04-4.45089E-07 4.22092E+03 2.35441E-07
 -1        72 3.17605E-01-3.37342E+05-7.51148E+05-8.04652E-07-5.03516E+05-4.03973E-06
 -1        73 8.85872E-02 9.28965E+02-1.54683E+04 1.52237E-01 4.78721E+03 1.28135E-01
 -1        74 8.29257E-02-1.67598E+05-3.82846E+05 9.50672E-02-2.49645E+05-1.78623E-02
 -1        75-1.22003E-01-3.12765E+05-8.30245E+05-1.49635E-01-5.07627E+05-1.41748E-01
 -1        76-1.60470E-01 2.14981E+03-1.45653E+04-1.23796E-01 4.22075E+03-6.67398E-02
 -1        77 3.20510E-01-3.37342E+05-7.51148E+05 1.92090E-01-5.03515E+05 2.77811E-01
 -1        78 8.54068E-02 9.28972E+02-1.54684E+04-1.02976E-07 4.78701E+03 4.22125E-08
 -1        79 7.79325E-02-1.67598E+05-3.82846E+05-1.03934E-06-2.49645E+05-1.63501E-06
 -1        80-1.26799E-01-3.12765E+05-8.30244E+05-1.54396E-06-5.07627E+05-4.07919E-06
 -1        81-8.54038E-02 3.75092E+03-1.28932E+04-3.82285E-01 3.23166E+03-1.51640E-01
 -1        82 5.42834E-01-3.71286E+05-6.13353E+05 5.58687E-01-4.77262E+05 5.37968E-01
 -1        83-9.24195E-02 3.75063E+03-1.28937E+04 9.01687E-07 3.23181E+03 1.47182E-07
 -1        84 5.34137E-01-3.71286E+05-6.13354E+05-3.59235E-06-4.77263E+05-3.86037E-06
 -1        85 7.03245E-02 2.77707E+03-1.37414E+04 1.84182E-01 3.75199E+03 1.02903E-01
 -1        86 2.29365E-01-1.83771E+05-3.13113E+05 1.87838E-01-2.37014E+05 8.39968E-02
 -1        87-2.05915E-01-3.54491E+05-6.82128E+05-2.24685E-01-4.90261E+05-2.15810E-01
 -1        88-8.89117E-02 3.75078E+03-1.28934E+04-1.13289E-01 3.23173E+03 1.61299E-02
 -1        89 5.38486E-01-3.71286E+05-6.13353E+05 2.70694E-01-4.77263E+05 4.04287E-01
 -1        90 6.47252E-02 2.77714E+03-1.37413E+04 8.52880E-07 3.75186E+03 2.04522E-07
 -1        91 2.21512E-01-1.83771E+05-3.13114E+05-1.82298E-06-2.37014E+05-1.71153E-06
 -1        92-2.13168E-01-3.54491E+05-6.82128E+05-2.62487E-06-4.90261E+05-4.08230E-06
 -1        93 8.58549E-02 4.99931E+03-1.13341E+04-3.65670E-01 2.39777E+03 2.78929E-02
 -1        94 8.97753E-01-3.89658E+05-4.96349E+05 8.45786E-01-4.39776E+05 8.17376E-01
 -1        95 7.50099E-02 4.99864E+03-1.13351E+04 1.59473E-06 2.39760E+03 6.55884E-08
 -1        96 8.85147E-01-3.89658E+05-4.96351E+05-2.70082E-06-4.39777E+05-3.17739E-06
 -1        97 1.49563E-02 4.22850E+03-1.21257E+04 1.96069E-01 2.86156E+03 3.92532E-02
 -1        98 4.92844E-01-1.92333E+05-2.53833E+05 3.64682E-01-2.18688E+05 2.69411E-01
 -1        99-3.44071E-01-3.80596E+05-5.54810E+05-3.39258E-01-4.58389E+05-3.28363E-01
 -1       100 8.04324E-02 4.99898E+03-1.13346E+04-6.40422E-02 2.39769E+03 1.59255E-01
 -1       101 8.91450E-01-3.89658E+05-4.96350E+05 3.75115E-01-4.39777E+05 5.84185E-01
 -1       102 6.02600E-03 4.22872E+03-1.21253E+04 1.08858E-06 2.86156E+03-1.35111E-08
 -1       103 4.81121E-01-1.92333E+05-2.53834E+05-5.49017E-07-2.18689E+05-1.23157E-06
 -1       104-3.54723E-01-3.80596E+05-5.54809E+05-1.91050E-06-4.58388E+05-3.58503E-06
 -1       105 4.13478E-01 5.96560E+03-9.91365E+03-2.35641E-01 1.71379E+03 3.39013E-01
 -1       106 1.45548E+00-3.93764E+05-3.98685E+05 1.27443E+00-3.96180E+05 1.23051E+00
 -1       107 3.98143E-01 5.96433E+03-9.91532E+03-1.58125E-06 1.71310E+03-2.70739E-07
 -1       108 1.43808E+00-3.93764E+05-3.98687E+05-7.39764E-07-3.96182E+05-2.31103E-06
 -1       109-1.02308E-01 5.36357E+03-1.06402E+04 1.66127E-01 2.11193E+03-7.99931E-02
 -1       110 9.35931E-01-1.93902E+05-2.04292E+05 6.72912E-01-1.97232E+05 5.75741E-01
 -1       111-5.64921E-01-3.91793E+05-4.47527E+05-5.12645E-01-4.17861E+05-4.96719E-01
 -1       112 4.05811E-01 5.96496E+03-9.91448E+03 4.20075E-02 1.71345E+03 3.81208E-01
 -1       113 1.44678E+00-3.93764E+05-3.98686E+05 5.04353E-01-3.96181E+05 8.34550E-01
 -1       114-1.15397E-01 5.36403E+03-1.06395E+04 1.13701E-06 2.11213E+03-8.77558E-08
 -1       115 9.19564E-01-1.93902E+05-2.04293E+05-1.97059E-06-1.97234E+05-1.19228E-06
 -1       116-5.79925E-01-3.91793E+05-4.47526E+05-2.54957E-06-4.17860E+05-2.98610E-06
 -1       117 9.73851E-01 6.71273E+03-8.64303E+03 7.90807E-02 1.16244E+03 8.25561E-01
 -1       118 2.30311E+00-3.85523E+05-3.18199E+05 1.90115E+00-3.50195E+05 1.82640E+00
 -1       119 9.53220E-01 6.71067E+03-8.64549E+03 3.41216E-06 1.16107E+03 2.97238E-07
 -1       120 2.28004E+00-3.85521E+05-3.18202E+05-2.28275E-06-3.50197E+05-2.24143E-06
 -1       121-3.15123E-01 6.24467E+03-9.29954E+03 6.51219E-02 1.49618E+03-2.75583E-01
 -1       122 1.64103E+00-1.89408E+05-1.63415E+05 1.17605E+00-1.74515E+05 1.04878E+00
 -1       123-9.07868E-01-3.89694E+05-3.58483E+05-7.67524E-01-3.73089E+05-7.42731E-01
 -1       124 9.63536E-01 6.71170E+03-8.64426E+03 2.20541E-01 1.16176E+03 6.99635E-01
 -1       125 2.29158E+00-3.85522E+05-3.18201E+05 6.43462E-01-3.50196E+05 1.17333E+00
 -1       126-3.33105E-01 6.24547E+03-9.29850E+03 2.37266E-07 1.49669E+03-1.76340E-07
 -1       127 1.61918E+00-1.89408E+05-1.63417E+05 1.05754E-06-1.74517E+05-8.72927E-07
 -1       128-9.28102E-01-3.89695E+05-3.58482E+05-1.67875E-06-3.73088E+05-2.24439E-06
 -1       129 1.85508E+00 7.28932E+03-7.52583E+03 6.50283E-01 7.25147E+02 1.53315E+00
 -1       130 3.55203E+00-3.67040E+05-2.52468E+05 2.76187E+00-3.04354E+05 2.65863E+00
 -1       131 1.83248E+00 7.28639E+03-7.52917E+03 7.79324E-07 7.22974E+02-1.15977E-07
 -1       132 3.52553E+00-3.67036E+05-2.52471E+05-4.35504E-06-3.04356E+05-1.18975E-06
 -1       133-6.66891E-01 6.92623E+03-8.10940E+03-1.47598E-01 1.00001E+03-5.70101E-01
 -1       134 2.70566E+00-1.79878E+05-1.29992E+05 1.92730E+00-1.51813E+05 1.73844E+00
 -1       135-1.42171E+00-3.76310E+05-2.85392E+05-1.13583E+00-3.27196E+05-1.09277E+00
 -1       136 1.84378E+00 7.28786E+03-7.52750E+03 4.71460E-01 7.24060E+02 1.12902E+00
 -1       137 3.53878E+00-3.67038E+05-2.52470E+05 7.49819E-01-3.04355E+05 1.61297E+00
 -1       138-6.88507E-01 6.92747E+03-8.10794E+03 2.75352E-06 1.00090E+03 4.77701E-07
 -1       139 2.68111E+00-1.79877E+05-1.29995E+05-1.13823E-06-1.51816E+05-9.92186E-07
 -1       140-1.44649E+00-3.76311E+05-2.85390E+05-4.90977E-06-3.27195E+05-1.65240E-06
 -1       141 3.14856E+00 7.73386E+03-6.55914E+03 1.58086E+00 3.82798E+02 2.49425E+00
 -1       142 5.30203E+00-3.40350E+05-1.99083E+05 3.94102E+00-2.60251E+05 3.78989E+00
 -1       143 3.12151E+00 7.73031E+03-6.56336E+03 3.67781E-06 3.79841E+02-4.35241E-07
 -1       144 5.26947E+00-3.40342E+05-1.99087E+05-9.83257E-07-2.60253E+05-3.21467E-06
 -1       145-1.20237E+00 7.45192E+03-7.06954E+03-5.00553E-01 6.07244E+02-9.85697E-01
 -1       146 4.23395E+00-1.66311E+05-1.02818E+05 3.01753E+00-1.29932E+05 2.69740E+00
 -1       147-2.16880E+00-3.53708E+05-2.25841E+05-1.61886E+00-2.82243E+05-1.57341E+00
 -1       148 3.13504E+00 7.73209E+03-6.56125E+03 7.66045E-01 3.81320E+02 1.66192E+00
 -1       149 5.28575E+00-3.40346E+05-1.99085E+05 7.17361E-01-2.60252E+05 2.16167E+00
 -1       150-1.22720E+00 7.45355E+03-7.06763E+03 6.90439E-07 6.08546E+02-8.41175E-08
 -1       151 4.20414E+00-1.66307E+05-1.02822E+05 2.41590E-06-1.29935E+05-1.54130E-06
 -1       152-2.19834E+00-3.53711E+05-2.25839E+05-1.01654E-06-2.82242E+05-1.94909E-06
 -1       153 4.88749E+00 8.07594E+03-5.73596E+03 2.78560E+00 1.17782E+02 3.72671E+00
 -1       154 7.69414E+00-3.07275E+05-1.55807E+05 5.17346E+00-2.18763E+05 5.23010E+00
 -1       155 4.88979E+00 8.07283E+03-5.74094E+03-2.55160E-06 1.14333E+02 1.16185E-06
 -1       156 7.68945E+00-3.07259E+05-1.55812E+05-1.93937E-06-2.18765E+05-1.30818E-06
 -1       157-1.97086E+00 7.85629E+03-6.17529E+03-1.06329E+00 3.01450E+02-1.53088E+00
 -1       158 6.28196E+00-1.49602E+05-8.07701E+04 4.26891E+00-1.09320E+05 3.94231E+00
 -1       159-3.19239E+00-3.23814E+05-1.77513E+05-2.29206E+00-2.39464E+05-2.21706E+00
 -1       160 4.88864E+00 8.07438E+03-5.73845E+03 9.81054E-01 1.16058E+02 2.29301E+00
 -1       161 7.69179E+00-3.07267E+05-1.55810E+05 3.57636E-01-2.18764E+05 2.77542E+00
 -1       162-1.98324E+00 7.85804E+03-6.17296E+03 8.64909E-07 3.03087E+02 2.56965E-07
 -1       163 6.28076E+00-1.49594E+05-8.07749E+04-2.87194E-06-1.09324E+05-3.91573E-07
 -1       164-3.21101E+00-3.23820E+05-1.77511E+05-2.90955E-06-2.39463E+05-1.12242E-06
 -1       165 7.05308E+00 8.33914E+03-5.04744E+03 4.56798E+00-8.55363E+01 5.11887E+00
 -1       166 1.05560E+01-2.69365E+05-1.20654E+05 7.07165E+00-1.80252E+05 7.09854E+00
 -1       167 7.02662E+00 8.33874E+03-5.05280E+03 2.98200E-06-8.85144E+01 4.61503E-07
 -1       168 1.04942E+01-2.69336E+05-1.20659E+05-4.48709E-06-1.80250E+05 7.01969E-08
 -1       169-2.94883E+00 8.16618E+03-5.41955E+03-1.67389E+00 6.72830E+01-2.21320E+00
 -1       170 8.86981E+00-1.30517E+05-6.28502E+04 6.12929E+00-9.01646E+04 5.51533E+00
 -1       171-4.57318E+00-2.88311E+05-1.38297E+05-2.81424E+00-1.99475E+05-3.00406E+00
 -1       172 7.03985E+00 8.33894E+03-5.05012E+03 9.40953E-01-8.70253E+01 2.85002E+00
 -1       173 1.05251E+01-2.69350E+05-1.20656E+05-7.79065E-01-1.80251E+05 3.46666E+00
 -1       174-2.96091E+00 8.16720E+03-5.41691E+03-5.64444E-07 6.90135E+01 6.78990E-07
 -1       175 8.82564E+00-1.30500E+05-6.28558E+04 2.56619E-07-9.01675E+04-2.19470E-07
 -1       176-4.60644E+00-2.88322E+05-1.38295E+05-2.41795E-06-1.99475E+05-1.87843E-06
 -1       177 9.18436E+00 8.54062E+03-4.48195E+03 5.07801E+00-2.38809E+02 6.68348E+00
 -1       178 1.43036E+01-2.27894E+05-9.18974E+04 6.02549E+00-1.44708E+05 8.80155E+00
 -1       179 9.42348E+00 8.54826E+03-4.48707E+03-3.89812E-07-2.39882E+02 1.66434E-06
 -1       180 1.46339E+01-2.27839E+05-9.19020E+04 2.78334E-06-1.44702E+05-2.44760E-06
 -1       181-4.16916E+00 8.40094E+03-4.79348E+03-2.78479E+00-1.08460E+02-2.90684E+00
 -1       182 1.15467E+01-1.09682E+05-4.81908E+04 5.84965E+00-7.24681E+04 7.08170E+00
 -1       183-6.12720E+00-2.48605E+05-1.06338E+05-4.09330E+00-1.62451E+05-4.04750E+00
 -1       184 9.30392E+00 8.54444E+03-4.48451E+03-4.09660E-02-2.39345E+02 3.51182E+00
 -1       185 1.44688E+01-2.27866E+05-9.18997E+04-3.13863E+00-1.44705E+05 3.76904E+00
 -1       186-4.06284E+00 8.39966E+03-4.79081E+03 3.18554E-06-1.07396E+02 1.39764E-06
 -1       187 1.18315E+01-1.09648E+05-4.81961E+04-8.59607E-07-7.24683E+04-3.12642E-07
 -1       188-5.99285E+00-2.48624E+05-1.06335E+05-3.22347E-07-1.62453E+05-1.27896E-06
 -1       189 1.09332E+01 8.70302E+03-4.03519E+03 8.92714E+00-3.53354E+02 7.19147E+00
 -1       190 1.61900E+01-1.83865E+05-6.80692E+04 1.25094E+01-1.11890E+05 1.20136E+01
 -1       191 1.06746E+01 8.72556E+03-4.03815E+03 1.89788E-06-3.47982E+02-1.94842E-07
 -1       192 1.52942E+01-1.83773E+05-6.80726E+04 3.90422E-06-1.11871E+05 1.52877E-06
 -1       193-5.02918E+00 8.57690E+03-4.29012E+03-2.07753E+00-2.39083E+02-3.75641E+00
 -1       194 1.43601E+01-8.75972E+04-3.60485E+04 1.10083E+01-5.61088E+04 9.18474E+00
 -1       195-8.19604E+00-2.05821E+05-8.00388E+04-1.71337E+00-1.28264E+05-4.70526E+00
 -1       196 1.08039E+01 8.71429E+03-4.03667E+03-1.99197E+00-3.50668E+02 2.67426E+00
 -1       197 1.57421E+01-1.83819E+05-6.80709E+04-8.75106E+00-1.11880E+05 4.58440E+00
 -1       198-5.03888E+00 8.56939E+03-4.28771E+03 3.18775E-07-2.39444E+02 8.25052E-07
 -1       199 1.37827E+01-8.75326E+04-3.60553E+04 1.24594E-06-5.61015E+04 1.19917E-06
 -1       200-8.47892E+00-2.05859E+05-8.00368E+04 3.70766E-06-1.28268E+05-9.07997E-07
 -1       201 9.40408E+00 8.82358E+03-3.67739E+03-5.74447E+00-4.19723E+02 8.95055E+00
 -1       202 2.24169E+01-1.38122E+05-4.79090E+04-1.88256E+01-8.13539E+04 8.34888E+00
 -1       203 1.13123E+01 8.88244E+03-3.67968E+03 4.41771E-06-4.07238E+02-2.33425E-06
 -1       204 2.70806E+01-1.37947E+05-4.79061E+04 3.30870E-06-8.13291E+04-1.19931E-06
 -1       205-6.17297E+00 8.69385E+03-3.89504E+03-6.45950E+00-3.30490E+02-3.33690E+00
 -1       206 1.30224E+01-6.46569E+04-2.57967E+04-1.24223E+01-4.08776E+04 7.95570E+00
 -1       207-8.65531E+00-1.60861E+05-5.80336E+04-1.00701E+01-9.65639E+04-7.03029E+00
 -1       208 1.03582E+01 8.85301E+03-3.67853E+03-9.19179E+00-4.13481E+02 4.73582E+00
 -1       209 2.47487E+01-1.38034E+05-4.79076E+04-1.61751E+01-8.13415E+04 8.75180E-01
 -1       210-5.34833E+00 8.67682E+03-3.89470E+03 2.89199E-06-3.36052E+02-8.98795E-07
 -1       211 1.63086E+01-6.45404E+04-2.57925E+04 4.28735E-06-4.08605E+04-2.13044E-06
 -1       212-6.77052E+00-1.60918E+05-5.80329E+04 4.79646E-06-9.65808E+04 6.95259E-07
 -1       213 4.71790E+00 9.00330E+03-3.48815E+03 3.24948E+01-4.73868E+02-1.68102E+00
 -1       214 4.09257E+00-9.11562E+04-3.03668E+04 7.03620E+01-5.27023E+04 2.71301E+01
 -1       215 1.32668E+00 9.09598E+03-3.47072E+03-5.86192E-06-4.28513E+02 2.77612E-07
 -1       216-1.21826E+01-9.09278E+04-3.03721E+04 8.90106E-06-5.25944E+04 4.49682E-07
 -1       217-2.58288E+00 8.78451E+03-3.62426E+03 1.29077E+01-4.14330E+02-5.55647E+00
 -1       218 1.53433E+01-4.11761E+04-1.68701E+04 5.23092E+01-2.65181E+04 1.45213E+01
 -1       219-1.22200E+01-1.14338E+05-3.91651E+04 2.88378E+01-6.69336E+04-1.45744E+00
 -1       220 3.02229E+00 9.04964E+03-3.47943E+03-1.32163E+01-4.51190E+02-9.51984E+00
 -1       221-4.04503E+00-9.10420E+04-3.03694E+04-4.07393E+01-5.26483E+04 9.06147E+00
 -1       222-3.32375E+00 8.73986E+03-3.62203E+03-9.92818E-07-4.22422E+02-1.10380E-06
 -1       223 5.50952E+00-4.09770E+04-1.68955E+04-1.28777E-06-2.64657E+04-1.11029E-07
 -1       224-1.80287E+01-1.14461E+05-3.91690E+04 4.56184E-06-6.69412E+04 3.09366E-07
 -1       225-1.46771E+01 8.98681E+03-3.15524E+03-1.57319E+02-3.25219E+02 1.93691E+01
 -1       226 4.98688E+01-4.40645E+04-1.44377E+04-3.30253E+02-2.49039E+04-5.33867E+01
 -1       227-2.11323E+00 9.24301E+03-3.18851E+03 5.80133E-06-2.97761E+02 5.05708E-07
 -1       228 1.18332E+02-4.34691E+04-1.43566E+04-4.43863E-06-2.49401E+04-1.06036E-06
 -1       229-4.81477E+00 8.73048E+03-3.37584E+03-4.44683E+01-4.32118E+02 7.87203E+00
 -1       230-2.31996E+01-1.74135E+04-8.88888E+03-2.49671E+02-1.26898E+04-2.02527E+01
 -1       231 1.33133E+00-6.69612E+04-2.23957E+04-9.45031E+01-3.86404E+04-2.36948E+01
 -1       232-8.39514E+00 9.11491E+03-3.17188E+03-5.64217E+01-3.11490E+02 2.80851E+01
 -1       233 8.41003E+01-4.37668E+04-1.43971E+04-3.94926E+01-2.49220E+04-3.76616E+01
 -1       234-2.30918E-01 8.67706E+03-3.39687E+03 1.60464E-06-4.69822E+02-3.78161E-07
 -1       235 1.73142E+01-1.70773E+04-8.77475E+03 1.57153E-06-1.26446E+04-1.13430E-06
 -1       236 2.74364E+01-6.70658E+04-2.23899E+04 1.96053E-07-3.87512E+04-2.68533E-06
 -1       237-7.38942E+01 7.86399E+03-3.78491E+03 5.35932E+02-9.40518E+02-1.87525E+02
 -1       238-4.29518E+02 9.78420E+03 8.90111E+02 1.11561E+03 1.81564E+03-1.18506E+01
 -1       239-9.57485E+01 6.37060E+03-3.57962E+03-3.27105E-06-1.17778E+03 7.97580E-07
 -1       240-6.92161E+02 5.58927E+03 6.85594E+02 6.44471E-06 1.67748E+03-2.28816E-06
 -1       241 2.94443E+01 8.93850E+03-3.49297E+03 2.04336E+02-6.84224E+02-2.83725E+01
 -1       242-9.81015E+01 8.66212E+03-1.12184E+03 8.65480E+02 5.16800E+02-6.82417E+01
 -1       243-2.72557E+01-1.83332E+04-6.89223E+03 4.13853E+02-1.17938E+04 7.23652E+01
 -1       244-8.48214E+01 7.11730E+03-3.68226E+03 2.92056E+02-1.05915E+03-1.57424E+02
 -1       245-5.60840E+02 7.68674E+03 7.87853E+02 3.14265E+02 1.74656E+03 5.71317E+01
 -1       246 2.48011E+01 8.73204E+03-3.43311E+03-5.87535E-07-6.79454E+02 7.04067E-07
 -1       247-2.40351E+02 6.03549E+03-1.43622E+03 1.85933E-06 2.10784E+02 1.83714E-06
 -1       248-1.24355E+02-1.88596E+04-6.97337E+03 3.27454E-06-1.16220E+04 2.81152E-08
 -1       249 4.30030E-03-8.61817E+03-1.80555E+06 7.59714E-02-6.24873E+02-6.26333E-01
 -1       250-2.90061E-01-1.20004E+04-2.54405E+04-1.49508E-01 6.25873E+03 1.03418E+00
 -1       251-9.51410E-02-1.67230E+04-2.37504E+04 4.29740E-02 1.16778E+04 8.38299E-02
 -1       252 3.28504E-02-2.12441E+04-1.65481E+06-6.92493E-02-2.01492E+05-2.56592E-02
 -1       253 4.30026E-03-8.61807E+03-1.80555E+06 1.26466E-01-6.25382E+02-6.28832E-01
 -1       254-2.90061E-01-1.20004E+04-2.54401E+04-6.08890E-02 6.25888E+03 1.00452E+00
 -1       255-9.43650E-02-1.67230E+04-2.37500E+04 2.57715E-02 1.16779E+04 3.56255E-02
 -1       256 3.24695E-02-2.12441E+04-1.65481E+06-4.64216E-02-2.01492E+05-2.52972E-02
 -1       257-1.42529E-01-1.03313E+04-9.15322E+05 3.43649E-03 3.24422E+03 2.00048E-01
 -1       258 4.46662E-02-1.35251E+04-2.39478E+04-1.63931E-02 8.89337E+03-2.42348E-02
 -1       259-3.11595E-02-1.90042E+04-8.39199E+05-4.11588E-02-9.50331E+04 3.28930E-02
 -1       260-1.40671E-02-1.36693E+04-1.73159E+06 3.33422E-02-1.00279E+05 6.04262E-03
 -1       261-1.12621E-01-9.20172E+03-2.16173E+04 7.57053E-02 8.90817E+03 1.48112E-01
 -1       262 4.65850E-02-8.13167E+04-1.47228E+06-8.43893E-02-3.45892E+05-5.68985E-02
 -1       263-1.12355E-01-9.20172E+03-2.16169E+04 4.17205E-02 8.90829E+03 7.38939E-02
 -1       264 4.61089E-02-8.13167E+04-1.47228E+06-5.32084E-02-3.45892E+05-5.17007E-02
 -1       265 5.08297E-02-1.26113E+04-2.27193E+04-2.80093E-02 1.02022E+04-5.83519E-02
 -1       266-3.30309E-02-4.52649E+04-7.46910E+05-3.49898E-02-1.68543E+05 5.61821E-02
 -1       267-1.92374E-02-5.10588E+04-1.56326E+06 3.70915E-02-2.74636E+05 2.02105E-02
 -1       268-1.37264E-01-5.91557E+03-1.99474E+04 1.26223E-01 8.07022E+03 2.03169E-01
 -1       269 7.09435E-02-1.52237E+05-1.27792E+06-1.15759E-01-4.42205E+05-9.66894E-02
 -1       270-1.37227E-01-5.91556E+03-1.99471E+04 6.38006E-02 8.07039E+03 1.01156E-01
 -1       271 7.01704E-02-1.52237E+05-1.27792E+06-6.92442E-02-4.42206E+05-8.46338E-02
 -1       272 6.23042E-02-7.49510E+03-2.08427E+04-4.90222E-02 8.32986E+03-8.83569E-02
 -1       273-3.31043E-02-7.90863E+04-6.48901E+05-3.19373E-02-2.17074E+05 7.27138E-02
 -1       274-2.80643E-02-1.16953E+05-1.37464E+06 4.85629E-02-3.94568E+05 3.76812E-02
 -1       275-1.61534E-01-2.46852E+03-1.80995E+04 1.91729E-01 6.61198E+03 2.44074E-01
 -1       276 1.14676E-01-2.24443E+05-1.08724E+06-1.67290E-01-4.94390E+05-1.51347E-01
 -1       277-1.61957E-01-2.46851E+03-1.80993E+04 8.88458E-02 6.61217E+03 1.13906E-01
 -1       278 1.13466E-01-2.24443E+05-1.08724E+06-9.57891E-02-4.94390E+05-1.28514E-01
 -1       279 7.56196E-02-4.28915E+03-1.91170E+04-7.83743E-02 7.22470E+03-1.12858E-01
 -1       280-2.33025E-02-1.13460E+05-5.52653E+05-3.51348E-02-2.43887E+05 7.85617E-02
 -1       281-4.39870E-02-1.88630E+05-1.18207E+06 6.87680E-02-4.68509E+05 6.06024E-02
 -1       282-1.74504E-01 8.51314E+01-1.63247E+04 2.66191E-01 5.37486E+03 2.60908E-01
 -1       283 1.91636E-01-2.87714E+05-9.09814E+05-2.47312E-01-5.11919E+05-2.31447E-01
 -1       284-1.75593E-01 8.51353E+01-1.63246E+04 1.11605E-01 5.37506E+03 1.05686E-01
 -1       285 1.89745E-01-2.87714E+05-9.09814E+05-1.35406E-01-5.11919E+05-1.89877E-01
 -1       286 8.66837E-02-1.36571E+03-1.72601E+04-1.14210E-01 5.93132E+03-1.28247E-01
 -1       287 8.80404E-03-1.43817E+05-4.63057E+05-5.16816E-02-2.53268E+05 6.50398E-02
 -1       288-7.24438E-02-2.56367E+05-9.98155E+05 1.00652E-01-5.03165E+05 9.31414E-02
 -1       289-1.58379E-01 2.14986E+03-1.45652E+04 3.37131E-01 4.22058E+03 2.37727E-01
 -1       290 3.23415E-01-3.37342E+05-7.51147E+05-3.70254E-01-5.03515E+05-3.52831E-01
 -1       291-1.60470E-01 2.14981E+03-1.45653E+04 1.23796E-01 4.22075E+03 6.67400E-02
 -1       292 3.20510E-01-3.37342E+05-7.51148E+05-1.92094E-01-5.03515E+05-2.77818E-01
 -1       293 8.85871E-02 9.28965E+02-1.54683E+04-1.52237E-01 4.78721E+03-1.28135E-01
 -1       294 8.29257E-02-1.67598E+05-3.82846E+05-9.50692E-02-2.49645E+05 1.78592E-02
 -1       295-1.22002E-01-3.12765E+05-8.30245E+05 1.49630E-01-5.07627E+05 1.41743E-01
 -1       296-8.54037E-02 3.75092E+03-1.28932E+04 3.82283E-01 3.23166E+03 1.51640E-01
 -1       297 5.42834E-01-3.71286E+05-6.13353E+05-5.58688E-01-4.77262E+05-5.37973E-01
 -1       298-8.89116E-02 3.75078E+03-1.28934E+04 1.13289E-01 3.23173E+03-1.61299E-02
 -1       299 5.38486E-01-3.71286E+05-6.13353E+05-2.70698E-01-4.77263E+05-4.04293E-01
 -1       300 7.03246E-02 2.77707E+03-1.37414E+04-1.84183E-01 3.75199E+03-1.02903E-01
 -1       301 2.29365E-01-1.83771E+05-3.13113E+05-1.87838E-01-2.37014E+05-8.39989E-02
 -1       302-2.05915E-01-3.54491E+05-6.82128E+05 2.24682E-01-4.90261E+05 2.15806E-01
 -1       303 8.58546E-02 4.99931E+03-1.13341E+04 3.65668E-01 2.39777E+03-2.78926E-02
 -1       304 8.97753E-01-3.89658E+05-4.96349E+05-8.45793E-01-4.39776E+05-8.17380E-01
 -1       305 8.04322E-02 4.99898E+03-1.13346E+04 6.40431E-02 2.39769E+03-1.59255E-01
 -1       306 8.91450E-01-3.89658E+05-4.96350E+05-3.75121E-01-4.39777E+05-5.84191E-01
 -1       307 1.49563E-02 4.22850E+03-1.21257E+04-1.96070E-01 2.86156E+03-3.92532E-02
 -1       308 4.92844E-01-1.92333E+05-2.53833E+05-3.64686E-01-2.18688E+05-2.69414E-01
 -1       309-3.44071E-01-3.80596E+05-5.54810E+05 3.39255E-01-4.58389E+05 3.28359E-01
 -1       310 4.13478E-01 5.96560E+03-9.91365E+03 2.35645E-01 1.71379E+03-3.39012E-01
 -1       311 1.45548E+00-3.93764E+05-3.98685E+05-1.27443E+00-3.96180E+05-1.23052E+00
 -1       312 4.05811E-01 5.96496E+03-9.91448E+03-4.20068E-02 1.71345E+03-3.81208E-01
 -1       313 1.44678E+00-3.93764E+05-3.98686E+05-5.04355E-01-3.96181E+05-8.34555E-01
 -1       314-1.02308E-01 5.36357E+03-1.06402E+04-1.66126E-01 2.11193E+03 7.99933E-02
 -1       315 9.35931E-01-1.93902E+05-2.04292E+05-6.72910E-01-1.97232E+05-5.75742E-01
 -1       316-5.64921E-01-3.91793E+05-4.47527E+05 5.12642E-01-4.17861E+05 4.96714E-01
 -1       317 9.73851E-01 6.71273E+03-8.64303E+03-7.90846E-02 1.16244E+03-8.25559E-01
 -1       318 2.30311E+00-3.85523E+05-3.18199E+05-1.90115E+00-3.50195E+05-1.82640E+00
 -1       319 9.63536E-01 6.71170E+03-8.64426E+03-2.20540E-01 1.16176E+03-6.99634E-01
 -1       320 2.29158E+00-3.85522E+05-3.18201E+05-6.43465E-01-3.50196E+05-1.17334E+00
 -1       321-3.15123E-01 6.24467E+03-9.29954E+03-6.51204E-02 1.49618E+03 2.75584E-01
 -1       322 1.64103E+00-1.89408E+05-1.63415E+05-1.17605E+00-1.74515E+05-1.04878E+00
 -1       323-9.07868E-01-3.89694E+05-3.58483E+05 7.67519E-01-3.73089E+05 7.42727E-01
 -1       324 1.85508E+00 7.28932E+03-7.52583E+03-6.50286E-01 7.25147E+02-1.53315E+00
 -1       325 3.55203E+00-3.67040E+05-2.52468E+05-2.76187E+00-3.04354E+05-2.65863E+00
 -1       326 1.84378E+00 7.28786E+03-7.52750E+03-4.71461E-01 7.24060E+02-1.12902E+00
 -1       327 3.53878E+00-3.67038E+05-2.52470E+05-7.49822E-01-3.04355E+05-1.61297E+00
 -1       328-6.66891E-01 6.92623E+03-8.10940E+03 1.47595E-01 1.00001E+03 5.70101E-01
 -1       329 2.70566E+00-1.79878E+05-1.29992E+05-1.92730E+00-1.51813E+05-1.73844E+00
 -1       330-1.42171E+00-3.76310E+05-2.85392E+05 1.13583E+00-3.27196E+05 1.09277E+00
 -1       331 3.14856E+00 7.73386E+03-6.55914E+03-1.58086E+00 3.82798E+02-2.49424E+00
 -1       332 5.30203E+00-3.40350E+05-1.99083E+05-3.94103E+00-2.60251E+05-3.78989E+00
 -1       333 3.13504E+00 7.73209E+03-6.56125E+03-7.66041E-01 3.81320E+02-1.66192E+00
 -1       334 5.28575E+00-3.40346E+05-1.99085E+05-7.17364E-01-2.60252E+05-2.16167E+00
 -1       335-1.20237E+00 7.45192E+03-7.06954E+03 5.00550E-01 6.07244E+02 9.85698E-01
 -1       336 4.23395E+00-1.66311E+05-1.02818E+05-3.01753E+00-1.29932E+05-2.69740E+00
 -1       337-2.16880E+00-3.53708E+05-2.25841E+05 1.61885E+00-2.82243E+05 1.57341E+00
 -1       338 4.88749E+00 8.07594E+03-5.73596E+03-2.78559E+00 1.17782E+02-3.72671E+00
 -1       339 7.69414E+00-3.07275E+05-1.55807E+05-5.17345E+00-2.18763E+05-5.23010E+00
 -1       340 4.88864E+00 8.07438E+03-5.73845E+03-9.81055E-01 1.16058E+02-2.29301E+00
 -1       341 7.69179E+00-3.07267E+05-1.55810E+05-3.57636E-01-2.18764E+05-2.77542E+00
 -1       342-1.97086E+00 7.85629E+03-6.17529E+03 1.06330E+00 3.01450E+02 1.53088E+00
 -1       343 6.28196E+00-1.49602E+05-8.07701E+04-4.26891E+00-1.09320E+05-3.94231E+00
 -1       344-3.19239E+00-3.23814E+05-1.77513E+05 2.29206E+00-2.39464E+05 2.21706E+00
 -1       345 7.05308E+00 8.33914E+03-5.04744E+03-4.56798E+00-8.55363E+01-5.11887E+00
 -1       346 1.05560E+01-2.69365E+05-1.20654E+05-7.07166E+00-1.80252E+05-7.09854E+00
 -1       347 7.03985E+00 8.33894E+03-5.05012E+03-9.40951E-01-8.70253E+01-2.85002E+00
 -1       348 1.05251E+01-2.69350E+05-1.20656E+05 7.79058E-01-1.80251E+05-3.46666E+00
 -1       349-2.94883E+00 8.16618E+03-5.41955E+03 1.67389E+00 6.72830E+01 2.21320E+00
 -1       350 8.86981E+00-1.30517E+05-6.28502E+04-6.12929E+00-9.01646E+04-5.51534E+00
 -1       351-4.57318E+00-2.88311E+05-1.38297E+05 2.81424E+00-1.99475E+05 3.00406E+00
 -1       352 9.18436E+00 8.54062E+03-4.48195E+03-5.07801E+00-2.38809E+02-6.68348E+00
 -1       353 1.43036E+01-2.27894E+05-9.18974E+04-6.02549E+00-1.44708E+05-8.80155E+00
 -1       354 9.30392E+00 8.54444E+03-4.48451E+03 4.09661E-02-2.39345E+02-3.51182E+00
 -1       355 1.44688E+01-2.27866E+05-9.18997E+04 3.13864E+00-1.44705E+05-3.76905E+00
 -1       356-4.16916E+00 8.40094E+03-4.79348E+03 2.78479E+00-1.08460E+02 2.90684E+00
 -1       357 1.15467E+01-1.09682E+05-4.81908E+04-5.84965E+00-7.24681E+04-7.08170E+00
 -1       358-6.12720E+00-2.48605E+05-1.06338E+05 4.09330E+00-1.62451E+05 4.04750E+00
 -1       359 1.09332E+01 8.70302E+03-4.03519E+03-8.92713E+00-3.53354E+02-7.19147E+00
 -1       360 1.61900E+01-1.83865E+05-6.80692E+04-1.25094E+01-1.11890E+05-1.20136E+01
 -1       361 1.08039E+01 8.71429E+03-4.03667E+03 1.99197E+00-3.50668E+02-2.67426E+00
 -1       362 1.57421E+01-1.83819E+05-6.80709E+04 8.75106E+00-1.11880E+05-4.58440E+00
 -1       363-5.02918E+00 8.57690E+03-4.29012E+03 2.07754E+00-2.39083E+02 3.75641E+00
 -1       364 1.43601E+01-8.75972E+04-3.60485E+04-1.10083E+01-5.61088E+04-9.18474E+00
 -1       365-8.19604E+00-2.05821E+05-8.00388E+04 1.71337E+00-1.28264E+05 4.70526E+00
 -1       366 9.40408E+00 8.82358E+03-3.67739E+03 5.74447E+00-4.19723E+02-8.95054E+00
 -1       367 2.24169E+01-1.38122E+05-4.79090E+04 1.88256E+01-8.13539E+04-8.34888E+00
 -1       368 1.03582E+01 8.85301E+03-3.67853E+03 9.19179E+00-4.13481E+02-4.73582E+00
 -1       369 2.47487E+01-1.38034E+05-4.79076E+04 1.61751E+01-8.13415E+04-8.75179E-01
 -1       370-6.17297E+00 8.69385E+03-3.89504E+03 6.45950E+00-3.30490E+02 3.33690E+00
 -1       371 1.30224E+01-6.46569E+04-2.57967E+04 1.24223E+01-4.08776E+04-7.95569E+00
 -1       372-8.65531E+00-1.60861E+05-5.80336E+04 1.00700E+01-9.65639E+04 7.03029E+00
 -1       373 4.71790E+00 9.00330E+03-3.48815E+03-3.24948E+01-4.73868E+02 1.68101E+00
 -1       374 4.09257E+00-9.11562E+04-3.03668E+04-7.03620E+01-5.27023E+04-2.71301E+01
 -1       375 3.02229E+00 9.04964E+03-3.47943E+03 1.32163E+01-4.51190E+02 9.51984E+00
 -1       376-4.04503E+00-9.10420E+04-3.03694E+04 4.07393E+01-5.26483E+04-9.06147E+00
 -1       377-2.58288E+00 8.78451E+03-3.62426E+03-1.29077E+01-4.14330E+02 5.55647E+00
 -1       378 1.53433E+01-4.11761E+04-1.68701E+04-5.23092E+01-2.65181E+04-1.45213E+01
 -1       379-1.22200E+01-1.14338E+05-3.91651E+04-2.88378E+01-6.69336E+04 1.45745E+00
 -1       380-1.46771E+01 8.98681E+03-3.15524E+03 1.57319E+02-3.25219E+02-1.93691E+01
 -1       381 4.98688E+01-4.40645E+04-1.44377E+04 3.30253E+02-2.49039E+04 5.33867E+01
 -1       382-8.39514E+00 9.11491E+03-3.17188E+03 5.64217E+01-3.11490E+02-2.80851E+01
 -1       383 8.41003E+01-4.37668E+04-1.43971E+04 3.94926E+01-2.49220E+04 3.76616E+01
 -1       384-4.81477E+00 8.73048E+03-3.37584E+03 4.44683E+01-4.32118E+02-7.87203E+00
 -1       385-2.31996E+01-1.74135E+04-8.88888E+03 2.49671E+02-1.26898E+04 2.02527E+01
 -1       386 1.33133E+00-6.69612E+04-2.23957E+04 9.45031E+01-3.86404E+04 2.36948E+01
 -1       387-7.38942E+01 7.86399E+03-3.78491E+03-5.35932E+02-9.40518E+02 1.87525E+02
 -1       388-4.29518E+02 9.78420E+03 8.90111E+02-1.11561E+03 1.81564E+03 1.18506E+01
 -1       389-8.48214E+01 7.11730E+03-3.68226E+03-2.92056E+02-1.05915E+03 1.57424E+02
 -1       390-5.60840E+02 7.68674E+03 7.87853E+02-3.14265E+02 1.74656E+03-5.71317E+01
 -1       391 2.94443E+01 8.93850E+03-3.49297E+03-2.04336E+02-6.84224E+02 2.83725E+01
 -1       392-9.81015E+01 8.66212E+03-1.12184E+03-8.65480E+02 5.16800E+02 6.82417E+01
 -1       393-2.72557E+01-1.83332E+04-6.89223E+03-4.13853E+02-1.17938E+04-7.23652E+01
 -1       394-1.04829E+00-1.55454E+04 1.85648E+06-1.15160E-01 1.40555E+04 1.22532E+00
 -1       395 1.11462E-01 2.15381E+04 1.69870E+06-1.17920E-01 2.08288E+05-1.31227E-02
 -1       396-1.04829E+00-1.55459E+04 1.85648E+06 1.65628E-08 1.40573E+04 2.76754E-06
 -1       397 1.08021E-01 2.15382E+04 1.69870E+06 5.68105E-07 2.08288E+05 5.44766E-06
 -1       398-6.69529E-01-1.37509E+04 9.15345E+05 5.73791E-02 9.72982E+03 9.16944E-02
 -1       399-6.07758E-02 3.38432E+03 1.77778E+06 5.16140E-02 1.10113E+05 4.34697E-02
 -1       400 8.17486E-03 2.42829E+03 8.37392E+05-1.08468E-01 1.10109E+05-4.46693E-02
 -1       401-1.04829E+00-1.55457E+04 1.85648E+06-2.37359E-01 1.40564E+04 1.34252E+00
 -1       402 1.09741E-01 2.15382E+04 1.69870E+06-6.25878E-02 2.08288E+05 6.83353E-02
 -1       403-6.69528E-01-1.37513E+04 9.15345E+05 9.56832E-08 9.73155E+03 1.35375E-06
 -1       404-6.24963E-02 3.38430E+03 1.77778E+06 2.55046E-07 1.10113E+05 4.06401E-06
 -1       405 7.22475E-03 2.42833E+03 8.37392E+05 1.41115E-07 1.10109E+05 2.35973E-06
 -1       406 1.08953E-01 7.94986E+04 1.50806E+06-1.34409E-01 3.59552E+05 1.50596E-01
 -1       407 1.05850E-01 7.94988E+04 1.50806E+06 1.18595E-06 3.59552E+05 4.98151E-06
 -1       408-5.06549E-02 5.09278E+04 1.60337E+06 6.41886E-02 2.84380E+05-3.28266E-02
 -1       409-1.82117E-03 3.51542E+04 7.43185E+05-1.35705E-01 1.84281E+05 1.18168E-02
 -1       410 1.07402E-01 7.94987E+04 1.50806E+06-6.99998E-02 3.59552E+05 1.86584E-01
 -1       411-5.39277E-02 5.09278E+04 1.60337E+06 9.84942E-07 2.84380E+05 5.27908E-06
 -1       412-3.11025E-03 3.51542E+04 7.43184E+05 4.79695E-07 1.84281E+05 2.29439E-06
 -1       413 1.44274E-01 1.55124E+05 1.30711E+06-1.30544E-01 4.56655E+05 3.50266E-01
 -1       414 1.40067E-01 1.55124E+05 1.30711E+06 1.86613E-06 4.56655E+05 5.20512E-06
 -1       415-5.81286E-02 1.17622E+05 1.40757E+06 6.76746E-02 4.08351E+05-1.21354E-01
 -1       416 3.44876E-03 7.46140E+04 6.43553E+05-1.65552E-01 2.32370E+05 9.30223E-02
 -1       417 1.42171E-01 1.55124E+05 1.30711E+06-6.53130E-02 4.56655E+05 3.35752E-01
 -1       418-6.17838E-02 1.17621E+05 1.40757E+06 1.46424E-06 4.08351E+05 5.11311E-06
 -1       419 1.37879E-03 7.46141E+04 6.43552E+05 8.90437E-07 2.32370E+05 2.37445E-06
 -1       420 2.27587E-01 2.29744E+05 1.11041E+06-9.66319E-02 5.09474E+05 6.11099E-01
 -1       421 2.22115E-01 2.29744E+05 1.11041E+06 2.04623E-06 5.09473E+05 4.72283E-06
 -1       422-8.59573E-02 1.92542E+05 1.20878E+06 5.94364E-02 4.83151E+05-2.33884E-01
 -1       423 3.29000E-02 1.13642E+05 5.46139E+05-1.91535E-01 2.58041E+05 2.15711E-01
 -1       424 2.24851E-01 2.29744E+05 1.11041E+06-4.41523E-02 5.09474E+05 5.29145E-01
 -1       425-9.07968E-02 1.92542E+05 1.20878E+06 1.97722E-06 4.83151E+05 4.99085E-06
 -1       426 2.97369E-02 1.13642E+05 5.46138E+05 8.61883E-07 2.58041E+05 2.28814E-06
 -1       427 3.77571E-01 2.95294E+05 9.28061E+05-1.37906E-02 5.26461E+05 9.62199E-01
 -1       428 3.70212E-01 2.95294E+05 9.28057E+05 3.63871E-06 5.26460E+05 4.60468E-06
 -1       429-1.41573E-01 2.62497E+05 1.01924E+06 3.24257E-02 5.17983E+05-3.83749E-01
 -1       430 1.01296E-01 1.47692E+05 4.55856E+05-2.01112E-01 2.65914E+05 4.00954E-01
 -1       431 3.73891E-01 2.95294E+05 9.28059E+05 6.49951E-04 5.26461E+05 7.82638E-01
 -1       432-1.47989E-01 2.62497E+05 1.01924E+06 2.93224E-06 5.17983E+05 4.80792E-06
 -1       433 9.65237E-02 1.47692E+05 4.55853E+05 2.17153E-06 2.65914E+05 2.09779E-06
 -1       434 6.22266E-01 3.46476E+05 7.65345E+05 1.46830E-01 5.17094E+05 1.43719E+00
 -1       435 6.12468E-01 3.46476E+05 7.65340E+05 2.27750E-06 5.17092E+05 4.15131E-06
 -1       436-2.36325E-01 3.20783E+05 8.46700E+05-2.51010E-02 5.21768E+05-5.86569E-01
 -1       437 2.31536E-01 1.74315E+05 3.75380E+05-1.73658E-01 2.60655E+05 6.75141E-01
 -1       438 6.17367E-01 3.46476E+05 7.65343E+05 7.83280E-02 5.17093E+05 1.11392E+00
 -1       439-2.44903E-01 3.20783E+05 8.46702E+05 2.67761E-06 5.21768E+05 4.35724E-06
 -1       440 2.24542E-01 1.74315E+05 3.75377E+05 1.33067E-06 2.60654E+05 1.92624E-06
 -1       441 1.00149E+00 3.81482E+05 6.24346E+05 4.24520E-01 4.89606E+05 2.07391E+00
 -1       442 9.88726E-01 3.81482E+05 6.24340E+05 9.61183E-07 4.89603E+05 3.96708E-06
 -1       443-3.87059E-01 3.63841E+05 6.94837E+05-1.30005E-01 5.03338E+05-8.60145E-01
 -1       444 4.57395E-01 1.92619E+05 3.05717E+05-7.85187E-02 2.46417E+05 1.07030E+00
 -1       445 9.95109E-01 3.81482E+05 6.24343E+05 1.98272E-01 4.89604E+05 1.54131E+00
 -1       446-3.98341E-01 3.63841E+05 6.94840E+05 1.34951E-06 5.03339E+05 3.92134E-06
 -1       447 4.47500E-01 1.92619E+05 3.05713E+05 1.40908E-06 2.46416E+05 1.91207E-06
 -1       448 1.56819E+00 4.00483E+05 5.04847E+05 8.68826E-01 4.50818E+05 2.91327E+00
 -1       449 1.55238E+00 4.00483E+05 5.04838E+05 2.12554E-06 4.50814E+05 3.40783E-06
 -1       450-6.16977E-01 3.90837E+05 5.64582E+05-3.04200E-01 4.70207E+05-1.22417E+00
 -1       451 8.25980E-01 2.02744E+05 2.46748E+05 1.26954E-01 2.26607E+05 1.62381E+00
 -1       452 1.56028E+00 4.00483E+05 5.04843E+05 3.66004E-01 4.50816E+05 2.08153E+00
 -1       453-6.31262E-01 3.90837E+05 5.64586E+05 1.94002E-06 4.70209E+05 3.65439E-06
 -1       454 8.12654E-01 2.02744E+05 2.46743E+05 1.85611E-06 2.26605E+05 1.41238E-06
 -1       455 2.38735E+00 4.04899E+05 4.05274E+05 1.53397E+00 4.05960E+05 3.99510E+00
 -1       456 2.36883E+00 4.04899E+05 4.05264E+05 3.73886E-06 4.05955E+05 2.62422E-06
 -1       457-9.56151E-01 4.02555E+05 4.55040E+05-5.74357E-01 4.28393E+05-1.69929E+00
 -1       458 1.39897E+00 2.05435E+05 1.97672E+05 4.95647E-01 2.03836E+05 2.37608E+00
 -1       459 2.37809E+00 4.04899E+05 4.05269E+05 5.75772E-01 4.05958E+05 2.74533E+00
 -1       460-9.73313E-01 4.02555E+05 4.55045E+05 2.71751E-06 4.28395E+05 3.12662E-06
 -1       461 1.38204E+00 2.05435E+05 1.97666E+05 1.88889E-06 2.03833E+05 1.07814E-06
 -1       462 3.53031E+00 3.96740E+05 3.23349E+05 2.47431E+00 3.58819E+05 5.35204E+00
 -1       463 3.51277E+00 3.96741E+05 3.23337E+05 3.49714E-06 3.58812E+05 2.66125E-06
 -1       464-1.43987E+00 4.00700E+05 3.64285E+05-9.66172E-01 3.82400E+05-2.30364E+00
 -1       465 2.24954E+00 2.01730E+05 1.57347E+05 1.09076E+00 1.79989E+05 3.36600E+00
 -1       466 3.52154E+00 3.96741E+05 3.23343E+05 7.95756E-01 3.58815E+05 3.53084E+00
 -1       467-1.45790E+00 4.00700E+05 3.64290E+05 3.82667E-06 3.82402E+05 2.18379E-06
 -1       468 2.23045E+00 2.01729E+05 1.57339E+05 2.96181E-06 1.79986E+05 1.38007E-06
 -1       469 5.05614E+00 3.78189E+05 2.56545E+05 3.69617E+00 3.11958E+05 6.98768E+00
 -1       470 5.04062E+00 3.78192E+05 2.56532E+05 1.40980E-06 3.11951E+05 1.09472E-06
 -1       471-2.10490E+00 3.87365E+05 2.89913E+05-1.50536E+00 3.35402E+05-3.05030E+00
 -1       472 3.45350E+00 1.92742E+05 1.24505E+05 1.95200E+00 1.56340E+05 4.61787E+00
 -1       473 5.04838E+00 3.78190E+05 2.56539E+05 9.46433E-01 3.11955E+05 4.40821E+00
 -1       474-2.12142E+00 3.87364E+05 2.89919E+05 3.68985E-06 3.35406E+05 2.31512E-06
 -1       475 3.43444E+00 1.92741E+05 1.24496E+05 4.44935E-07 1.56336E+05 8.28696E-07
 -1       476 6.98033E+00 3.51338E+05 2.02370E+05 5.20209E+00 2.66981E+05 8.87475E+00
 -1       477 6.99545E+00 3.51345E+05 2.02355E+05 2.53252E-06 2.66974E+05 2.59033E-06
 -1       478-2.97293E+00 3.64684E+05 2.29413E+05-2.16674E+00 2.89485E+05-3.92660E+00
 -1       479 5.05579E+00 1.79539E+05 9.79021E+04 3.13488E+00 1.33680E+05 6.12916E+00
 -1       480 6.98789E+00 3.51341E+05 2.02362E+05 8.51017E-01 2.66977E+05 5.31111E+00
 -1       481-2.97313E+00 3.64682E+05 2.29420E+05 1.98470E-06 2.89488E+05 1.66508E-06
 -1       482 5.04983E+00 1.79539E+05 9.78925E+04 2.03653E-06 1.33676E+05 7.93885E-07
 -1       483 9.18250E+00 3.18053E+05 1.58518E+05 6.56287E+00 2.24760E+05 1.08164E+01
 -1       484 9.18925E+00 3.18068E+05 1.58503E+05 4.56746E-07 2.24755E+05 5.33021E-07
 -1       485-4.04189E+00 3.34639E+05 1.80387E+05-2.97237E+00 2.45886E+05-4.91609E+00
 -1       486 7.04385E+00 1.63067E+05 7.63896E+04 4.38485E+00 1.12436E+05 7.80765E+00
 -1       487 9.18587E+00 3.18061E+05 1.58510E+05 2.01492E-01 2.24758E+05 6.06149E+00
 -1       488-4.03094E+00 3.34634E+05 1.80394E+05 1.21826E-06 2.45889E+05 9.73579E-07
 -1       489 7.04838E+00 1.63072E+05 7.63795E+04-4.20977E-07 1.12433E+05 1.16584E-06
 -1       490 1.13503E+01 2.79910E+05 1.22951E+05 8.06003E+00 1.85644E+05 1.27047E+01
 -1       491 1.16051E+01 2.79942E+05 1.22937E+05 1.72016E-07 1.85644E+05 3.48133E-07
 -1       492-5.17699E+00 2.98952E+05 1.40660E+05-3.44913E+00 2.05217E+05-5.82449E+00
 -1       493 9.13643E+00 1.44129E+05 5.89514E+04 6.00453E+00 9.27751E+04 9.50515E+00
 -1       494 1.14777E+01 2.79926E+05 1.22944E+05-1.64696E+00 1.85644E+05 6.48719E+00
 -1       495-5.04624E+00 2.98941E+05 1.40667E+05 1.37679E-07 2.05218E+05 1.18341E-06
 -1       496 9.25064E+00 1.44142E+05 5.89420E+04 5.67844E-07 9.27758E+04 8.90139E-07
 -1       497 1.24586E+01 2.38199E+05 9.39008E+04 5.61092E+00 1.49606E+05 1.31722E+01
 -1       498 1.22519E+01 2.38256E+05 9.38900E+04 3.59731E-06 1.49619E+05 4.06658E-07
 -1       499-6.25822E+00 2.59063E+05 1.08328E+05-4.36681E+00 1.67644E+05-6.75686E+00
 -1       500 1.10187E+01 1.23375E+05 4.47106E+04 5.04656E+00 7.46782E+04 1.05887E+01
 -1       501 1.23552E+01 2.38228E+05 9.38954E+04-5.46619E+00 1.49613E+05 5.73026E+00
 -1       502-6.23409E+00 2.59041E+05 1.08335E+05 2.14309E-06 1.67641E+05 8.29713E-07
 -1       503 1.10349E+01 1.23404E+05 4.47030E+04 3.66012E-06 7.46868E+04 9.56511E-07
 -1       504 1.15542E+01 1.93906E+05 6.98756E+04 8.49028E+00 1.16392E+05 1.37925E+01
 -1       505 1.37377E+01 1.94017E+05 6.98703E+04-3.23284E-06 1.16417E+05 2.26815E-06
 -1       506-6.14219E+00 2.16120E+05 8.17643E+04-7.23474E-01 1.33030E+05-6.12452E+00
 -1       507 1.04452E+01 1.01320E+05 3.29165E+04 8.41873E+00 5.80063E+04 1.09098E+01
 -1       508 1.26460E+01 1.93961E+05 6.98729E+04-1.36034E+01 1.16405E+05 4.46416E+00
 -1       509-5.15406E+00 2.16083E+05 8.17681E+04-7.19441E-07 1.33017E+05-1.11065E-07
 -1       510 1.14079E+01 1.01380E+05 3.29160E+04 9.87632E-07 5.80269E+04 5.04446E-07
 -1       511 2.40364E+00 1.47896E+05 4.95426E+04-2.88997E+01 8.55014E+04 2.88582E+00
 -1       512-2.52209E+00 1.48048E+05 4.95565E+04 2.47332E-06 8.55868E+04 1.77273E-06
 -1       513-5.88794E+00 1.71064E+05 5.95611E+04-7.20873E+00 1.01010E+05-7.44827E+00
 -1       514 8.79195E+00 7.83677E+04 2.29361E+04-1.71849E+01 4.25316E+04 6.61220E+00
 -1       515-5.92216E-02 1.47972E+05 4.95496E+04-2.60107E+01 8.55441E+04-3.89435E+00
 -1       516-7.25816E+00 1.70987E+05 5.95617E+04-3.03555E-06 1.00995E+05 2.44252E-06
 -1       517 7.28293E+00 7.84734E+04 2.29380E+04 3.02137E-06 4.25821E+04 8.29009E-08
 -1       518-7.88439E+00 1.00418E+05 3.19635E+04 4.45260E+01 5.66282E+04 1.18855E+01
 -1       519 1.41939E+01 1.00808E+05 3.19697E+04-7.82137E-06 5.66652E+04-7.50365E-07
 -1       520 5.18080E+00 1.24485E+05 4.06167E+04 3.81471E+01 7.11986E+04 5.90856E+00
 -1       521-1.25213E+01 5.48100E+04 1.41803E+04 3.76296E+01 2.80072E+04 3.30542E+00
 -1       522 3.15474E+00 1.00613E+05 3.19666E+04-5.54887E+01 5.66467E+04-1.18994E+00
 -1       523 1.37540E+01 1.24402E+05 4.06012E+04-1.11686E-06 7.11278E+04 3.80358E-07
 -1       524-3.17721E+00 5.50131E+04 1.42237E+04-4.03431E-06 2.80726E+04 2.38299E-07
 -1       525-8.17947E+01 5.31513E+04 1.54519E+04-3.64696E+02 2.82651E+04-8.87050E+01
 -1       526-1.50106E+02 5.32525E+04 1.56130E+04 5.63848E-06 2.87556E+04-1.74188E-06
 -1       527-3.38442E+00 7.73544E+04 2.36484E+04-8.36336E+01 4.27439E+04-1.93841E+01
 -1       528-7.44041E+00 3.09437E+04 6.24076E+03-2.55122E+02 1.40452E+04-3.14240E+01
 -1       529-1.15951E+02 5.32019E+04 1.55325E+04-7.58257E+01 2.85104E+04-6.44066E+01
 -1       530-2.64915E+01 7.70505E+04 2.36555E+04-1.64682E-06 4.27675E+04-1.09621E-06
 -1       531-3.53148E+01 3.12120E+04 6.21446E+03 4.82973E-06 1.42546E+04 2.38889E-07
 -1       532 1.91499E+02 6.78459E+03 8.88986E+02 1.39742E+03 4.84806E+03 9.95853E+01
 -1       533 4.39990E+02 4.26466E+03 5.56502E+02-5.40612E-06 2.51835E+03 2.40178E-06
 -1       534 1.09433E+02 2.85401E+04 8.84515E+03 4.61766E+02 1.62138E+04 1.19577E+02
 -1       535-9.48023E+01 7.48626E+03-1.77351E+03 9.26969E+02 1.87453E+03-7.54163E+01
 -1       536 3.15744E+02 5.52463E+03 7.22744E+02 5.79704E+02 3.68320E+03 1.64446E+02
 -1       537 1.99516E+02 2.86957E+04 8.67556E+03 1.65663E-06 1.57194E+04 7.98784E-07
 -1       538 1.85163E+01 5.26208E+03-1.52235E+03-4.61108E-06 7.09352E+02-9.82755E-07
 -1       539-1.04829E+00-1.55454E+04 1.85648E+06 1.15160E-01 1.40555E+04-1.22531E+00
 -1       540 1.11462E-01 2.15381E+04 1.69870E+06 1.17920E-01 2.08288E+05 1.31258E-02
 -1       541-1.04829E+00-1.55457E+04 1.85648E+06 2.37359E-01 1.40564E+04-1.34252E+00
 -1       542 1.09741E-01 2.15382E+04 1.69870E+06 6.25885E-02 2.08288E+05-6.83282E-02
 -1       543-6.69529E-01-1.37509E+04 9.15345E+05-5.73791E-02 9.72982E+03-9.16917E-02
 -1       544-6.07758E-02 3.38432E+03 1.77778E+06-5.16138E-02 1.10113E+05-4.34656E-02
 -1       545 8.17486E-03 2.42829E+03 8.37392E+05 1.08468E-01 1.10109E+05 4.46702E-02
 -1       546 1.08953E-01 7.94986E+04 1.50806E+06 1.34410E-01 3.59552E+05-1.50591E-01
 -1       547 1.07402E-01 7.94987E+04 1.50806E+06 7.00017E-02 3.59552E+05-1.86576E-01
 -1       548-5.06550E-02 5.09278E+04 1.60337E+06-6.41877E-02 2.84380E+05 3.28309E-02
 -1       549-1.82118E-03 3.51542E+04 7.43185E+05 1.35705E-01 1.84281E+05-1.18145E-02
 -1       550 1.44274E-01 1.55124E+05 1.30711E+06 1.30546E-01 4.56655E+05-3.50260E-01
 -1       551 1.42171E-01 1.55124E+05 1.30711E+06 6.53159E-02 4.56655E+05-3.35744E-01
 -1       552-5.81286E-02 1.17622E+05 1.40757E+06-6.76728E-02 4.08351E+05 1.21360E-01
 -1       553 3.44872E-03 7.46140E+04 6.43553E+05 1.65553E-01 2.32370E+05-9.30196E-02
 -1       554 2.27587E-01 2.29744E+05 1.11041E+06 9.66368E-02 5.09474E+05-6.11093E-01
 -1       555 2.24851E-01 2.29744E+05 1.11041E+06 4.41569E-02 5.09474E+05-5.29137E-01
 -1       556-8.59573E-02 1.92542E+05 1.20878E+06-5.94329E-02 4.83151E+05 2.33890E-01
 -1       557 3.28999E-02 1.13642E+05 5.46139E+05 1.91537E-01 2.58041E+05-2.15708E-01
 -1       558 3.77571E-01 2.95294E+05 9.28061E+05 1.37918E-02 5.26461E+05-9.62193E-01
 -1       559 3.73891E-01 2.95294E+05 9.28059E+05-6.45724E-04 5.26461E+05-7.82630E-01
 -1       560-1.41573E-01 2.62497E+05 1.01924E+06-3.24239E-02 5.17983E+05 3.83755E-01
 -1       561 1.01296E-01 1.47692E+05 4.55856E+05 2.01112E-01 2.65914E+05-4.00951E-01
 -1       562 6.22266E-01 3.46476E+05 7.65345E+05-1.46827E-01 5.17094E+05-1.43718E+00
 -1       563 6.17367E-01 3.46476E+05 7.65343E+05-7.83244E-02 5.17093E+05-1.11391E+00
 -1       564-2.36325E-01 3.20783E+05 8.46700E+05 2.51045E-02 5.21768E+05 5.86575E-01
 -1       565 2.31536E-01 1.74315E+05 3.75380E+05 1.73660E-01 2.60655E+05-6.75138E-01
 -1       566 1.00149E+00 3.81482E+05 6.24346E+05-4.24510E-01 4.89606E+05-2.07390E+00
 -1       567 9.95109E-01 3.81482E+05 6.24343E+05-1.98265E-01 4.89604E+05-1.54130E+00
 -1       568-3.87059E-01 3.63841E+05 6.94837E+05 1.30012E-01 5.03338E+05 8.60150E-01
 -1       569 4.57395E-01 1.92619E+05 3.05717E+05 7.85228E-02 2.46417E+05-1.07030E+00
 -1       570 1.56819E+00 4.00483E+05 5.04847E+05-8.68823E-01 4.50818E+05-2.91327E+00
 -1       571 1.56028E+00 4.00483E+05 5.04843E+05-3.66000E-01 4.50816E+05-2.08153E+00
 -1       572-6.16977E-01 3.90837E+05 5.64582E+05 3.04207E-01 4.70207E+05 1.22418E+00
 -1       573 8.25980E-01 2.02744E+05 2.46748E+05-1.26954E-01 2.26607E+05-1.62380E+00
 -1       574 2.38735E+00 4.04899E+05 4.05274E+05-1.53397E+00 4.05960E+05-3.99510E+00
 -1       575 2.37809E+00 4.04899E+05 4.05269E+05-5.75768E-01 4.05958E+05-2.74533E+00
 -1       576-9.56151E-01 4.02555E+05 4.55040E+05 5.74359E-01 4.28393E+05 1.69930E+00
 -1       577 1.39897E+00 2.05435E+05 1.97672E+05-4.95645E-01 2.03836E+05-2.37608E+00
 -1       578 3.53031E+00 3.96740E+05 3.23349E+05-2.47429E+00 3.58819E+05-5.35204E+00
 -1       579 3.52154E+00 3.96741E+05 3.23343E+05-7.95746E-01 3.58815E+05-3.53084E+00
 -1       580-1.43987E+00 4.00700E+05 3.64285E+05 9.66180E-01 3.82400E+05 2.30365E+00
 -1       581 2.24954E+00 2.01730E+05 1.57347E+05-1.09075E+00 1.79989E+05-3.36600E+00
 -1       582 5.05614E+00 3.78189E+05 2.56545E+05-3.69616E+00 3.11958E+05-6.98768E+00
 -1       583 5.04838E+00 3.78190E+05 2.56539E+05-9.46429E-01 3.11955E+05-4.40821E+00
 -1       584-2.10490E+00 3.87365E+05 2.89913E+05 1.50537E+00 3.35402E+05 3.05031E+00
 -1       585 3.45350E+00 1.92742E+05 1.24505E+05-1.95200E+00 1.56340E+05-4.61787E+00
 -1       586 6.98033E+00 3.51338E+05 2.02370E+05-5.20208E+00 2.66981E+05-8.87474E+00
 -1       587 6.98789E+00 3.51341E+05 2.02362E+05-8.51010E-01 2.66977E+05-5.31110E+00
 -1       588-2.97293E+00 3.64684E+05 2.29413E+05 2.16675E+00 2.89485E+05 3.92661E+00
 -1       589 5.05579E+00 1.79539E+05 9.79021E+04-3.13488E+00 1.33680E+05-6.12916E+00
 -1       590 9.18250E+00 3.18053E+05 1.58518E+05-6.56287E+00 2.24760E+05-1.08164E+01
 -1       591 9.18587E+00 3.18061E+05 1.58510E+05-2.01489E-01 2.24758E+05-6.06148E+00
 -1       592-4.04189E+00 3.34639E+05 1.80387E+05 2.97238E+00 2.45886E+05 4.91609E+00
 -1       593 7.04385E+00 1.63067E+05 7.63896E+04-4.38484E+00 1.12436E+05-7.80765E+00
 -1       594 1.13503E+01 2.79910E+05 1.22951E+05-8.06001E+00 1.85644E+05-1.27047E+01
 -1       595 1.14777E+01 2.79926E+05 1.22944E+05 1.64698E+00 1.85644E+05-6.48719E+00
 -1       596-5.17699E+00 2.98952E+05 1.40660E+05 3.44914E+00 2.05217E+05 5.82450E+00
 -1       597 9.13643E+00 1.44129E+05 5.89514E+04-6.00453E+00 9.27751E+04-9.50515E+00
 -1       598 1.24586E+01 2.38199E+05 9.39008E+04-5.61092E+00 1.49606E+05-1.31722E+01
 -1       599 1.23552E+01 2.38228E+05 9.38954E+04 5.46619E+00 1.49613E+05-5.73026E+00
 -1       600-6.25822E+00 2.59063E+05 1.08328E+05 4.36683E+00 1.67644E+05 6.75686E+00
 -1       601 1.10187E+01 1.23375E+05 4.47106E+04-5.04656E+00 7.46782E+04-1.05887E+01
 -1       602 1.15542E+01 1.93906E+05 6.98756E+04-8.49027E+00 1.16392E+05-1.37925E+01
 -1       603 1.26460E+01 1.93961E+05 6.98729E+04 1.36034E+01 1.16405E+05-4.46416E+00
 -1       604-6.14219E+00 2.16120E+05 8.17643E+04 7.23478E-01 1.33030E+05 6.12451E+00
 -1       605 1.04452E+01 1.01320E+05 3.29165E+04-8.41872E+00 5.80063E+04-1.09098E+01
 -1       606 2.40364E+00 1.47896E+05 4.95426E+04 2.88997E+01 8.55014E+04-2.88582E+00
 -1       607-5.92221E-02 1.47972E+05 4.95496E+04 2.60107E+01 8.55441E+04 3.89435E+00
 -1       608-5.88794E+00 1.71064E+05 5.95611E+04 7.20874E+00 1.01010E+05 7.44827E+00
 -1       609 8.79195E+00 7.83677E+04 2.29361E+04 1.71849E+01 4.25316E+04-6.61220E+00
 -1       610-7.88439E+00 1.00418E+05 3.19635E+04-4.45260E+01 5.66282E+04-1.18855E+01
 -1       611 3.15474E+00 1.00613E+05 3.19666E+04 5.54887E+01 5.66467E+04 1.18994E+00
 -1       612 5.18080E+00 1.24485E+05 4.06167E+04-3.81471E+01 7.11986E+04-5.90856E+00
 -1       613-1.25213E+01 5.48100E+04 1.41803E+04-3.76296E+01 2.80072E+04-3.30542E+00
 -1       614-8.17947E+01 5.31513E+04 1.54519E+04 3.64696E+02 2.82651E+04 8.87050E+01
 -1       615-1.15951E+02 5.32019E+04 1.55325E+04 7.58257E+01 2.85104E+04 6.44066E+01
 -1       616-3.38442E+00 7.73544E+04 2.36484E+04 8.36336E+01 4.27439E+04 1.93841E+01
 -1       617-7.44041E+00 3.09437E+04 6.24076E+03 2.55122E+02 1.40452E+04 3.14240E+01
 -1       618 1.91499E+02 6.78459E+03 8.88986E+02-1.39742E+03 4.84806E+03-9.95853E+01
 -1       619 3.15744E+02 5.52463E+03 7.22744E+02-5.79704E+02 3.68320E+03-1.64446E+02
 -1       620 1.09433E+02 2.85401E+04 8.84515E+03-4.61766E+02 1.62138E+04-1.19577E+02
 -1       621-9.48023E+01 7.48626E+03-1.77351E+03-9.26969E+02 1.87453E+03 7.54163E+01
 -3
    1PSTEP                        15           8           1          
  100CL  108 4.00000E-01         621                     0    8           1
 -4  DISP        4    1
 -5  D1          1    2    1    0
 -5  D2          1    2    2    0
 -5  D3          1    2    3    0
 -5  ALL         1    2    0    0    1ALL
 -1         1 0.00000E+00 0.00000E+00 0.00000E+00
 -1         2 0.00000E+00 0.00000E+00 0.00000E+00
 -1         3 4.26825E-10 3.27830E-02-1.51306E-03
 -1         4-1.68554E-10 3.21609E-02-1.10510E-02
 -1         5 0.00000E+00 0.00000E+00 0.00000E+00
 -1         6 0.00000E+00 0.00000E+00 0.00000E+00
 -1         7 1.71432E-14 3.27830E-02-1.51306E-03
 -1         8 1.35782E-14 3.21609E-02-1.10510E-02
 -1         9 0.00000E+00 0.00000E+00 0.00000E+00
 -1        10-6.75862E-11 8.32771E-03-2.29815E-04
 -1        11 1.29477E-10 3.24702E-02-6.27928E-03
 -1        12 3.09337E-11 8.15495E-03-5.09713E-03
 -1        13 0.00000E+00 0.00000E+00 0.00000E+00
 -1        14 0.00000E+00 0.00000E+00 0.00000E+00
 -1        15 2.13533E-10 3.27830E-02-1.51306E-03
 -1        16-8.43188E-11 3.21609E-02-1.10510E-02
 -1        17 0.00000E+00 0.00000E+00 0.00000E+00
 -1        18 4.37647E-15 8.32771E-03-2.29814E-04
 -1        19 1.53522E-14 3.24702E-02-6.27928E-03
 -1        20 2.68790E-15 8.15495E-03-5.09713E-03
 -1        21 1.18434E-09 1.27175E-01-1.08783E-02
 -1        22-4.46883E-10 1.24893E-01-2.90781E-02
 -1        23 6.60840E-14 1.27175E-01-1.08783E-02
 -1        24 5.88214E-14 1.24893E-01-2.90781E-02
 -1        25-3.57977E-10 7.26541E-02-4.79049E-03
 -1        26 3.69038E-10 1.26033E-01-1.99761E-02
 -1        27 1.36359E-10 7.13112E-02-1.87682E-02
 -1        28 5.92244E-10 1.27175E-01-1.08783E-02
 -1        29-2.23482E-10 1.24893E-01-2.90781E-02
 -1        30 3.79403E-14 7.26541E-02-4.79049E-03
 -1        31 6.24878E-14 1.26033E-01-1.99761E-02
 -1        32 3.24818E-14 7.13112E-02-1.87682E-02
 -1        33 2.33546E-09 2.77043E-01-3.41878E-02
 -1        34-8.94733E-10 2.72337E-01-6.01195E-02
 -1        35 1.42819E-13 2.77043E-01-3.41878E-02
 -1        36 1.32114E-13 2.72337E-01-6.01195E-02
 -1        37-8.25256E-10 1.95571E-01-2.04810E-02
 -1        38 7.20794E-10 2.74690E-01-4.71514E-02
 -1        39 3.08777E-10 1.92157E-01-4.26603E-02
 -1        40 1.16781E-09 2.77043E-01-3.41878E-02
 -1        41-4.47415E-10 2.72337E-01-6.01195E-02
 -1        42 1.01366E-13 1.95571E-01-2.04810E-02
 -1        43 1.37438E-13 2.74690E-01-4.71514E-02
 -1        44 9.22788E-14 1.92157E-01-4.26603E-02
 -1        45 3.96651E-09 4.76065E-01-7.57777E-02
 -1        46-1.60851E-09 4.68414E-01-1.08509E-01
 -1        47 2.42762E-13 4.76065E-01-7.57777E-02
 -1        48 2.29177E-13 4.68414E-01-1.08509E-01
 -1        49-1.50929E-09 3.70804E-01-5.24893E-02
 -1        50 1.17958E-09 4.72240E-01-9.21415E-02
 -1        51 5.83469E-10 3.64680E-01-8.19337E-02
 -1        52 1.98331E-09 4.76065E-01-7.57777E-02
 -1        53-8.04321E-10 4.68414E-01-1.08509E-01
 -1        54 1.90129E-13 3.70804E-01-5.24893E-02
 -1        55 2.36034E-13 4.72240E-01-9.21415E-02
 -1        56 1.77579E-13 3.64680E-01-8.19337E-02
 -1        57 6.16234E-09 7.18049E-01-1.38465E-01
 -1        58-2.75568E-09 7.07137E-01-1.77104E-01
 -1        59 3.62655E-13 7.18049E-01-1.38465E-01
 -1        60 3.45213E-13 7.07137E-01-1.77104E-01
 -1        61-2.45669E-09 5.92063E-01-1.04360E-01
 -1        62 1.70415E-09 7.12593E-01-1.57783E-01
 -1        63 1.02133E-09 5.82812E-01-1.40153E-01
 -1        64 3.08119E-09 7.18049E-01-1.38465E-01
 -1        65-1.37795E-09 7.07137E-01-1.77104E-01
 -1        66 3.00552E-13 5.92063E-01-1.04360E-01
 -1        67 3.53997E-13 7.12593E-01-1.57783E-01
 -1        68 2.84488E-13 5.82812E-01-1.40153E-01
 -1        69 8.96736E-09 9.97156E-01-2.23810E-01
 -1        70-4.62577E-09 9.82832E-01-2.67527E-01
 -1        71 4.97516E-13 9.97156E-01-2.23810E-01
 -1        72 4.77081E-13 9.82832E-01-2.67527E-01
 -1        73-3.70593E-09 8.53309E-01-1.78250E-01
 -1        74 2.17196E-09 9.89994E-01-2.45667E-01
 -1        75 1.72864E-09 8.40703E-01-2.19527E-01
 -1        76 4.48362E-09 9.97156E-01-2.23810E-01
 -1        77-2.31308E-09 9.82832E-01-2.67527E-01
 -1        78 4.29127E-13 8.53309E-01-1.78250E-01
 -1        79 4.87334E-13 9.89994E-01-2.45667E-01
 -1        80 4.10070E-13 8.40703E-01-2.19527E-01
 -1        81 1.23227E-08 1.30803E+00-3.32362E-01
 -1        82-7.70916E-09 1.29028E+00-3.80406E-01
 -1        83 6.43664E-13 1.30803E+00-3.32362E-01
 -1        84 6.22839E-13 1.29028E+00-3.80406E-01
 -1        85-5.26319E-09 1.14894E+00-2.75183E-01
 -1        86 2.30842E-09 1.29916E+00-3.56383E-01
 -1        87 2.88830E-09 1.13290E+00-3.21153E-01
 -1        88 6.16116E-09 1.30803E+00-3.32362E-01
 -1        89-3.85491E-09 1.29028E+00-3.80406E-01
 -1        90 5.68368E-13 1.14894E+00-2.75183E-01
 -1        91 6.33760E-13 1.29916E+00-3.56383E-01
 -1        92 5.46499E-13 1.13290E+00-3.21153E-01
 -1        93 1.59681E-08 1.64588E+00-4.63895E-01
 -1        94-1.28157E-08 1.62477E+00-5.15597E-01
 -1        95 8.01631E-13 1.64588E+00-4.63895E-01
 -1        96 7.79042E-13 1.62477E+00-5.15597E-01
 -1        97-7.06370E-09 1.47386E+00-3.95295E-01
 -1        98 1.57855E-09 1.63533E+00-4.89744E-01
 -1        99 4.80737E-09 1.45442E+00-4.45247E-01
 -1       100 7.98365E-09 1.64588E+00-4.63895E-01
 -1       101-6.40838E-09 1.62477E+00-5.15597E-01
 -1       102 7.22094E-13 1.47386E+00-3.95295E-01
 -1       103 7.90384E-13 1.63533E+00-4.89744E-01
 -1       104 6.98369E-13 1.45442E+00-4.45247E-01
 -1       105 1.92954E-08 2.00644E+00-6.17592E-01
 -1       106-2.12460E-08 1.98214E+00-6.72366E-01
 -1       107 9.63755E-13 2.00644E+00-6.17592E-01
 -1       108 9.39915E-13 1.98214E+00-6.72366E-01
 -1       109-8.91223E-09 1.82356E+00-5.38041E-01
 -1       110-9.72210E-10 1.99429E+00-6.44978E-01
 -1       111 7.98815E-09 1.80084E+00-5.91349E-01
 -1       112 9.64704E-09 2.00644E+00-6.17592E-01
 -1       113-1.06238E-08 1.98214E+00-6.72366E-01
 -1       114 8.83365E-13 1.82356E+00-5.38041E-01
 -1       115 9.51509E-13 1.99429E+00-6.44978E-01
 -1       116 8.56407E-13 1.80084E+00-5.91349E-01
 -1       117 2.11430E-08 2.38602E+00-7.92215E-01
 -1       118-3.50320E-08 2.35874E+00-8.49552E-01
 -1       119 1.12913E-12 2.38602E+00-7.92215E-01
 -1       120 1.10150E-12 2.35874E+00-8.49552E-01
 -1       121-1.03959E-08 2.19407E+00-7.02378E-01
 -1       122-6.93969E-09 2.37238E+00-8.20882E-01
 -1       123 1.32287E-08 2.16825E+00-7.58493E-01
 -1       124 1.05706E-08 2.38602E+00-7.92215E-01
 -1       125-1.75171E-08 2.35874E+00-8.49552E-01
 -1       126 1.04930E-12 2.19407E+00-7.02378E-01
 -1       127 1.11575E-12 2.37238E+00-8.20882E-01
 -1       128 1.02115E-12 2.16825E+00-7.58493E-01
 -1       129 1.95263E-08 2.78142E+00-9.86224E-01
 -1       130-5.72398E-08 2.75140E+00-1.04568E+00
 -1       131 1.29348E-12 2.78142E+00-9.86224E-01
 -1       132 1.26124E-12 2.75140E+00-1.04568E+00
 -1       133-1.07660E-08 2.58193E+00-8.86901E-01
 -1       134-1.88522E-08 2.76641E+00-1.01595E+00
 -1       135 2.17625E-08 2.55324E+00-9.45351E-01
 -1       136 9.76214E-09 2.78142E+00-9.86224E-01
 -1       137-2.86212E-08 2.75140E+00-1.04568E+00
 -1       138 1.21226E-12 2.58193E+00-8.86901E-01
 -1       139 1.27683E-12 2.76641E+00-1.01595E+00
 -1       140 1.18000E-12 2.55324E+00-9.45351E-01
 -1       141 1.13245E-08 3.18989E+00-1.19788E+00
 -1       142-9.23683E-08 3.15739E+00-1.25909E+00
 -1       143 1.45682E-12 3.18989E+00-1.19788E+00
 -1       144 1.42781E-12 3.15739E+00-1.25909E+00
 -1       145-8.78506E-09 2.98418E+00-1.08996E+00
 -1       146-4.05087E-08 3.17364E+00-1.22848E+00
 -1       147 3.54236E-08 2.95288E+00-1.15034E+00
 -1       148 5.66100E-09 3.18989E+00-1.19788E+00
 -1       149-4.61856E-08 3.15739E+00-1.25909E+00
 -1       150 1.37661E-12 2.98418E+00-1.08996E+00
 -1       151 1.44232E-12 3.17364E+00-1.22848E+00
 -1       152 1.34442E-12 2.95288E+00-1.15034E+00
 -1       153-8.03944E-09 3.60906E+00-1.42531E+00
 -1       154-1.46637E-07 3.57437E+00-1.48795E+00
 -1       155 1.62415E-12 3.60906E+00-1.42531E+00
 -1       156 1.59320E-12 3.57437E+00-1.48795E+00
 -1       157-2.56849E-09 3.39827E+00-1.30974E+00
 -1       158-7.73470E-08 3.59172E+00-1.45663E+00
 -1       159 5.68764E-08 3.36464E+00-1.37170E+00
 -1       160-4.01874E-09 3.60906E+00-1.42531E+00
 -1       161-7.33178E-08 3.57437E+00-1.48795E+00
 -1       162 1.54430E-12 3.39827E+00-1.30974E+00
 -1       163 1.60897E-12 3.59172E+00-1.45663E+00
 -1       164 1.51251E-12 3.36464E+00-1.37170E+00
 -1       165-4.47276E-08 4.03692E+00-1.66659E+00
 -1       166-2.28611E-07 4.00034E+00-1.73037E+00
 -1       167 1.78869E-12 4.03692E+00-1.66659E+00
 -1       168 1.75776E-12 4.00034E+00-1.73037E+00
 -1       169 1.05864E-08 3.82202E+00-1.54434E+00
 -1       170-1.36581E-07 4.01863E+00-1.69848E+00
 -1       171 8.96887E-08 3.78635E+00-1.60759E+00
 -1       172-2.23649E-08 4.03692E+00-1.66659E+00
 -1       173-1.14307E-07 4.00034E+00-1.73037E+00
 -1       174 1.70784E-12 3.82202E+00-1.54434E+00
 -1       175 1.77256E-12 4.01863E+00-1.69848E+00
 -1       176 1.67368E-12 3.78635E+00-1.60759E+00
 -1       177-1.06387E-07 4.47174E+00-1.91972E+00
 -1       178-3.47840E-07 4.43356E+00-1.98442E+00
 -1       179 1.93649E-12 4.47174E+00-1.91972E+00
 -1       180 1.90859E-12 4.43356E+00-1.98442E+00
 -1       181 3.41299E-08 4.25356E+00-1.79179E+00
 -1       182-2.27377E-07 4.45265E+00-1.95207E+00
 -1       183 1.38835E-07 4.21614E+00-1.85606E+00
 -1       184-5.31748E-08 4.47174E+00-1.91972E+00
 -1       185-1.73897E-07 4.43356E+00-1.98442E+00
 -1       186 1.86349E-12 4.25356E+00-1.79179E+00
 -1       187 1.92242E-12 4.45265E+00-1.95207E+00
 -1       188 1.83559E-12 4.21614E+00-1.85606E+00
 -1       189-2.00621E-07 4.91203E+00-2.18271E+00
 -1       190-5.18770E-07 4.87253E+00-2.24812E+00
 -1       191 2.08822E-12 4.91203E+00-2.18271E+00
 -1       192 2.06029E-12 4.87253E+00-2.24812E+00
 -1       193 7.23451E-08 4.69129E+00-2.05011E+00
 -1       194-3.58596E-07 4.89228E+00-2.21542E+00
 -1       195 2.09023E-07 4.65241E+00-2.11518E+00
 -1       196-1.00329E-07 4.91203E+00-2.18271E+00
 -1       197-2.59434E-07 4.87253E+00-2.24812E+00
 -1       198 2.01699E-12 4.69129E+00-2.05011E+00
 -1       199 2.07381E-12 4.89228E+00-2.21542E+00
 -1       200 1.98532E-12 4.65241E+00-2.11518E+00
 -1       201-3.33462E-07 5.35647E+00-2.45359E+00
 -1       202-7.40606E-07 5.31595E+00-2.51952E+00
 -1       203 2.23698E-12 5.35647E+00-2.45359E+00
 -1       204 2.21390E-12 5.31595E+00-2.51952E+00
 -1       205 1.28319E-07 5.13381E+00-2.31729E+00
 -1       206-5.41101E-07 5.33621E+00-2.48655E+00
 -1       207 3.09575E-07 5.09376E+00-2.38298E+00
 -1       208-1.66589E-07 5.35647E+00-2.45359E+00
 -1       209-3.70008E-07 5.31595E+00-2.51952E+00
 -1       210 2.16466E-12 5.13381E+00-2.31729E+00
 -1       211 2.22578E-12 5.33621E+00-2.48655E+00
 -1       212 2.13647E-12 5.09376E+00-2.38298E+00
 -1       213-4.99847E-07 5.80390E+00-2.73035E+00
 -1       214-1.05835E-06 5.76266E+00-2.79664E+00
 -1       215 2.36647E-12 5.80390E+00-2.73035E+00
 -1       216 2.34737E-12 5.76266E+00-2.79664E+00
 -1       217 2.06012E-07 5.57988E+00-2.59136E+00
 -1       218-7.63353E-07 5.78328E+00-2.76350E+00
 -1       219 4.32015E-07 5.53896E+00-2.65749E+00
 -1       220-2.50173E-07 5.80390E+00-2.73035E+00
 -1       221-5.30176E-07 5.76266E+00-2.79664E+00
 -1       222 2.30520E-12 5.57988E+00-2.59136E+00
 -1       223 2.35773E-12 5.78328E+00-2.76350E+00
 -1       224 2.28078E-12 5.53896E+00-2.65749E+00
 -1       225-6.82695E-07 6.25327E+00-3.01104E+00
 -1       226-1.30527E-06 6.21160E+00-3.07754E+00
 -1       227 2.50302E-12 6.25327E+00-3.01104E+00
 -1       228 2.47725E-12 6.21159E+00-3.07754E+00
 -1       229 2.92830E-07 6.02841E+00-2.87033E+00
 -1       230-1.05408E-06 6.23243E+00-3.04429E+00
 -1       231 6.23999E-07 5.98691E+00-2.93675E+00
 -1       232-3.40419E-07 6.25327E+00-3.01104E+00
 -1       233-6.48290E-07 6.21160E+00-3.07754E+00
 -1       234 2.43756E-12 6.02841E+00-2.87033E+00
 -1       235 2.49039E-12 6.23243E+00-3.04429E+00
 -1       236 2.41038E-12 5.98691E+00-2.93675E+00
 -1       237-8.11468E-07 6.70359E+00-3.29368E+00
 -1       238-2.01883E-06 6.66178E+00-3.36026E+00
 -1       239 2.65761E-12 6.70359E+00-3.29368E+00
 -1       240 2.63853E-12 6.66177E+00-3.36026E+00
 -1       241 3.97900E-07 6.47837E+00-3.15224E+00
 -1       242-1.18386E-06 6.68268E+00-3.32697E+00
 -1       243 6.92490E-07 6.43659E+00-3.21880E+00
 -1       244-4.07344E-07 6.70359E+00-3.29368E+00
 -1       245-1.02616E-06 6.66177E+00-3.36026E+00
 -1       246 2.57823E-12 6.47837E+00-3.15224E+00
 -1       247 2.64668E-12 6.68268E+00-3.32697E+00
 -1       248 2.55496E-12 6.43659E+00-3.21880E+00
 -1       249 0.00000E+00 0.00000E+00 0.00000E+00
 -1       250 0.00000E+00 0.00000E+00 0.00000E+00
 -1       251-4.26790E-10 3.27830E-02-1.51306E-03
 -1       252 1.68581E-10 3.21609E-02-1.10510E-02
 -1       253 0.00000E+00 0.00000E+00 0.00000E+00
 -1       254 0.00000E+00 0.00000E+00 0.00000E+00
 -1       255-2.13498E-10 3.27830E-02-1.51306E-03
 -1       256 8.43459E-11 3.21609E-02-1.10510E-02
 -1       257 0.00000E+00 0.00000E+00 0.00000E+00
 -1       258 6.75950E-11 8.32771E-03-2.29815E-04
 -1       259-1.29446E-10 3.24702E-02-6.27928E-03
 -1       260-3.09283E-11 8.15495E-03-5.09713E-03
 -1       261-1.18421E-09 1.27175E-01-1.08783E-02
 -1       262 4.47001E-10 1.24893E-01-2.90781E-02
 -1       263-5.92112E-10 1.27175E-01-1.08783E-02
 -1       264 2.23599E-10 1.24893E-01-2.90781E-02
 -1       265 3.58052E-10 7.26541E-02-4.79049E-03
 -1       266-3.68913E-10 1.26033E-01-1.99761E-02
 -1       267-1.36294E-10 7.13112E-02-1.87682E-02
 -1       268-2.33518E-09 2.77043E-01-3.41878E-02
 -1       269 8.94997E-10 2.72337E-01-6.01195E-02
 -1       270-1.16752E-09 2.77043E-01-3.41878E-02
 -1       271 4.47679E-10 2.72337E-01-6.01195E-02
 -1       272 8.25459E-10 1.95571E-01-2.04810E-02
 -1       273-7.20519E-10 2.74690E-01-4.71514E-02
 -1       274-3.08592E-10 1.92157E-01-4.26603E-02
 -1       275-3.96602E-09 4.76065E-01-7.57777E-02
 -1       276 1.60897E-09 4.68414E-01-1.08509E-01
 -1       277-1.98283E-09 4.76065E-01-7.57777E-02
 -1       278 8.04779E-10 4.68414E-01-1.08509E-01
 -1       279 1.50967E-09 3.70804E-01-5.24893E-02
 -1       280-1.17911E-09 4.72240E-01-9.21415E-02
 -1       281-5.83114E-10 3.64680E-01-8.19337E-02
 -1       282-6.16162E-09 7.18049E-01-1.38465E-01
 -1       283 2.75637E-09 7.07137E-01-1.77104E-01
 -1       284-3.08046E-09 7.18049E-01-1.38465E-01
 -1       285 1.37864E-09 7.07137E-01-1.77104E-01
 -1       286 2.45730E-09 5.92063E-01-1.04360E-01
 -1       287-1.70344E-09 7.12593E-01-1.57783E-01
 -1       288-1.02076E-09 5.82812E-01-1.40153E-01
 -1       289-8.96636E-09 9.97156E-01-2.23810E-01
 -1       290 4.62672E-09 9.82832E-01-2.67527E-01
 -1       291-4.48262E-09 9.97156E-01-2.23810E-01
 -1       292 2.31403E-09 9.82832E-01-2.67527E-01
 -1       293 3.70678E-09 8.53309E-01-1.78250E-01
 -1       294-2.17099E-09 9.89994E-01-2.45667E-01
 -1       295-1.72782E-09 8.40703E-01-2.19527E-01
 -1       296-1.23214E-08 1.30803E+00-3.32362E-01
 -1       297 7.71041E-09 1.29028E+00-3.80406E-01
 -1       298-6.15987E-09 1.30803E+00-3.32362E-01
 -1       299 3.85616E-09 1.29028E+00-3.80406E-01
 -1       300 5.26432E-09 1.14894E+00-2.75183E-01
 -1       301-2.30715E-09 1.29916E+00-3.56383E-01
 -1       302-2.88720E-09 1.13290E+00-3.21153E-01
 -1       303-1.59665E-08 1.64588E+00-4.63895E-01
 -1       304 1.28172E-08 1.62477E+00-5.15597E-01
 -1       305-7.98205E-09 1.64588E+00-4.63895E-01
 -1       306 6.40994E-09 1.62477E+00-5.15597E-01
 -1       307 7.06515E-09 1.47386E+00-3.95295E-01
 -1       308-1.57697E-09 1.63533E+00-4.89744E-01
 -1       309-4.80597E-09 1.45442E+00-4.45247E-01
 -1       310-1.92935E-08 2.00644E+00-6.17592E-01
 -1       311 2.12479E-08 1.98214E+00-6.72366E-01
 -1       312-9.64512E-09 2.00644E+00-6.17592E-01
 -1       313 1.06257E-08 1.98214E+00-6.72366E-01
 -1       314 8.91399E-09 1.82356E+00-5.38041E-01
 -1       315 9.74113E-10 1.99429E+00-6.44978E-01
 -1       316-7.98643E-09 1.80084E+00-5.91349E-01
 -1       317-2.11408E-08 2.38602E+00-7.92215E-01
 -1       318 3.50342E-08 2.35874E+00-8.49552E-01
 -1       319-1.05683E-08 2.38602E+00-7.92215E-01
 -1       320 1.75193E-08 2.35874E+00-8.49552E-01
 -1       321 1.03980E-08 2.19407E+00-7.02378E-01
 -1       322 6.94192E-09 2.37238E+00-8.20882E-01
 -1       323-1.32267E-08 2.16825E+00-7.58493E-01
 -1       324-1.95237E-08 2.78142E+00-9.86224E-01
 -1       325 5.72424E-08 2.75140E+00-1.04568E+00
 -1       326-9.75956E-09 2.78142E+00-9.86224E-01
 -1       327 2.86237E-08 2.75140E+00-1.04568E+00
 -1       328 1.07684E-08 2.58193E+00-8.86901E-01
 -1       329 1.88547E-08 2.76641E+00-1.01595E+00
 -1       330-2.17601E-08 2.55324E+00-9.45351E-01
 -1       331-1.13216E-08 3.18989E+00-1.19788E+00
 -1       332 9.23712E-08 3.15739E+00-1.25909E+00
 -1       333-5.65808E-09 3.18989E+00-1.19788E+00
 -1       334 4.61885E-08 3.15739E+00-1.25909E+00
 -1       335 8.78781E-09 2.98418E+00-1.08996E+00
 -1       336 4.05116E-08 3.17364E+00-1.22848E+00
 -1       337-3.54209E-08 2.95288E+00-1.15034E+00
 -1       338 8.04269E-09 3.60906E+00-1.42531E+00
 -1       339 1.46640E-07 3.57437E+00-1.48795E+00
 -1       340 4.02199E-09 3.60906E+00-1.42531E+00
 -1       341 7.33210E-08 3.57437E+00-1.48795E+00
 -1       342 2.57158E-09 3.39827E+00-1.30974E+00
 -1       343 7.73502E-08 3.59172E+00-1.45663E+00
 -1       344-5.68734E-08 3.36464E+00-1.37170E+00
 -1       345 4.47311E-08 4.03692E+00-1.66659E+00
 -1       346 2.28614E-07 4.00034E+00-1.73037E+00
 -1       347 2.23684E-08 4.03692E+00-1.66659E+00
 -1       348 1.14311E-07 4.00034E+00-1.73037E+00
 -1       349-1.05830E-08 3.82202E+00-1.54434E+00
 -1       350 1.36584E-07 4.01863E+00-1.69848E+00
 -1       351-8.96853E-08 3.78635E+00-1.60759E+00
 -1       352 1.06391E-07 4.47174E+00-1.91972E+00
 -1       353 3.47843E-07 4.43356E+00-1.98442E+00
 -1       354 5.31786E-08 4.47174E+00-1.91972E+00
 -1       355 1.73901E-07 4.43356E+00-1.98442E+00
 -1       356-3.41262E-08 4.25356E+00-1.79179E+00
 -1       357 2.27381E-07 4.45265E+00-1.95207E+00
 -1       358-1.38831E-07 4.21614E+00-1.85606E+00
 -1       359 2.00625E-07 4.91203E+00-2.18271E+00
 -1       360 5.18775E-07 4.87253E+00-2.24812E+00
 -1       361 1.00333E-07 4.91203E+00-2.18271E+00
 -1       362 2.59438E-07 4.87253E+00-2.24812E+00
 -1       363-7.23411E-08 4.69129E+00-2.05011E+00
 -1       364 3.58600E-07 4.89228E+00-2.21542E+00
 -1       365-2.09019E-07 4.65241E+00-2.11518E+00
 -1       366 3.33466E-07 5.35647E+00-2.45359E+00
 -1       367 7.40610E-07 5.31595E+00-2.51952E+00
 -1       368 1.66593E-07 5.35647E+00-2.45359E+00
 -1       369 3.70012E-07 5.31595E+00-2.51952E+00
 -1       370-1.28314E-07 5.13381E+00-2.31729E+00
 -1       371 5.41106E-07 5.33621E+00-2.48655E+00
 -1       372-3.09570E-07 5.09376E+00-2.38298E+00
 -1       373 4.99852E-07 5.80390E+00-2.73035E+00
 -1       374 1.05835E-06 5.76266E+00-2.79664E+00
 -1       375 2.50178E-07 5.80390E+00-2.73035E+00
 -1       376 5.30181E-07 5.76266E+00-2.79664E+00
 -1       377-2.06007E-07 5.57988E+00-2.59136E+00
 -1       378 7.63358E-07 5.78328E+00-2.76350E+00
 -1       379-4.32011E-07 5.53896E+00-2.65749E+00
 -1       380 6.82700E-07 6.25327E+00-3.01104E+00
 -1       381 1.30528E-06 6.21160E+00-3.07754E+00
 -1       382 3.40424E-07 6.25327E+00-3.01104E+00
 -1       383 6.48294E-07 6.21160E+00-3.07754E+00
 -1       384-2.92825E-07 6.02841E+00-2.87033E+00
 -1       385 1.05409E-06 6.23243E+00-3.04429E+00
 -1       386-6.23994E-07 5.98691E+00-2.93675E+00
 -1       387 8.11473E-07 6.70359E+00-3.29368E+00
 -1       388 2.01884E-06 6.66178E+00-3.36026E+00
 -1       389 4.07350E-07 6.70359E+00-3.29368E+00
 -1       390 1.02617E-06 6.66177E+00-3.36026E+00
 -1       391-3.97895E-07 6.47837E+00-3.15224E+00
 -1       392 1.18387E-06 6.68268E+00-3.32697E+00
 -1       393-6.92485E-07 6.43659E+00-3.21880E+00
 -1       394 0.00000E+00 0.00000E+00 0.00000E+00
 -1       395 1.08861E-09 3.34050E-02 8.01967E-03
 -1       396 0.00000E+00 0.00000E+00 0.00000E+00
 -1       397 2.08123E-14 3.34050E-02 8.01967E-03
 -1       398 0.00000E+00 0.00000E+00 0.00000E+00
 -1       399-3.22783E-10 8.50028E-03 4.63992E-03
 -1       400 7.57347E-10 3.30958E-02 3.25064E-03
 -1       401 0.00000E+00 0.00000E+00 0.00000E+00
 -1       402 5.44080E-10 3.34050E-02 8.01967E-03
 -1       403 0.00000E+00 0.00000E+00 0.00000E+00
 -1       404 6.04367E-15 8.50028E-03 4.63992E-03
 -1       405 1.89859E-14 3.30958E-02 3.25064E-03
 -1       406 1.80665E-09 1.29456E-01 7.31640E-03
 -1       407 7.36407E-14 1.29456E-01 7.31641E-03
 -1       408-7.67444E-10 7.39972E-02 9.18932E-03
 -1       409 1.49513E-09 1.28316E-01-1.78301E-03
 -1       410 9.03141E-10 1.29456E-01 7.31641E-03
 -1       411 4.33308E-14 7.39972E-02 9.18931E-03
 -1       412 6.98964E-14 1.28316E-01-1.78301E-03
 -1       413 2.15375E-09 2.81748E-01-8.25975E-03
 -1       414 1.53885E-13 2.81748E-01-8.25974E-03
 -1       415-1.04094E-09 1.98985E-01 1.69995E-03
 -1       416 2.24408E-09 2.79396E-01-2.12259E-02
 -1       417 1.07665E-09 2.81748E-01-8.25974E-03
 -1       418 1.10313E-13 1.98985E-01 1.69995E-03
 -1       419 1.48370E-13 2.79396E-01-2.12259E-02
 -1       420 2.00340E-09 4.83715E-01-4.30481E-02
 -1       421 2.57036E-13 4.83715E-01-4.30481E-02
 -1       422-1.11484E-09 3.76929E-01-2.30439E-02
 -1       423 2.98423E-09 4.79890E-01-5.94149E-02
 -1       424 1.00143E-09 4.83715E-01-4.30481E-02
 -1       425 2.02645E-13 3.76929E-01-2.30439E-02
 -1       426 2.49970E-13 4.79890E-01-5.94149E-02
 -1       427 1.06453E-09 7.28961E-01-9.98277E-02
 -1       428 3.80062E-13 7.28961E-01-9.98276E-02
 -1       429-8.91158E-10 6.01314E-01-6.85672E-02
 -1       430 3.61241E-09 7.23504E-01-1.19148E-01
 -1       431 5.31921E-10 7.28961E-01-9.98277E-02
 -1       432 3.16034E-13 6.01314E-01-6.85672E-02
 -1       433 3.71306E-13 7.23504E-01-1.19148E-01
 -1       434-1.18358E-09 1.01148E+00-1.80093E-01
 -1       435 5.19087E-13 1.01148E+00-1.80093E-01
 -1       436-1.76910E-10 8.65915E-01-1.36973E-01
 -1       437 3.89046E-09 1.00432E+00-2.01953E-01
 -1       438-5.92242E-10 1.01148E+00-1.80093E-01
 -1       439 4.47603E-13 8.65915E-01-1.36973E-01
 -1       440 5.08329E-13 1.00432E+00-2.01953E-01
 -1       441-5.58939E-09 1.32579E+00-2.84319E-01
 -1       442 6.66237E-13 1.32579E+00-2.84319E-01
 -1       443 1.35554E-09 1.16498E+00-2.29213E-01
 -1       444 3.36470E-09 1.31691E+00-3.08342E-01
 -1       445-2.79529E-09 1.32579E+00-2.84319E-01
 -1       446 5.89967E-13 1.16498E+00-2.29213E-01
 -1       447 6.55159E-13 1.31691E+00-3.08342E-01
 -1       448-1.34681E-08 1.66698E+00-4.12193E-01
 -1       449 8.26165E-13 1.66698E+00-4.12193E-01
 -1       450 4.22700E-09 1.49330E+00-3.45343E-01
 -1       451 1.24729E-09 1.65643E+00-4.38045E-01
 -1       452-6.73478E-09 1.66698E+00-4.12193E-01
 -1       453 7.45620E-13 1.49330E+00-3.45343E-01
 -1       454 8.13965E-13 1.65643E+00-4.38045E-01
 -1       455-2.67876E-08 2.03073E+00-5.62818E-01
 -1       456 9.91901E-13 2.03073E+00-5.62818E-01
 -1       457 9.23198E-09 1.84628E+00-4.84734E-01
 -1       458-3.74955E-09 2.01859E+00-5.90207E-01
 -1       459-1.33947E-08 2.03073E+00-5.62818E-01
 -1       460 9.07934E-13 1.84628E+00-4.84734E-01
 -1       461 9.77529E-13 2.01859E+00-5.90206E-01
 -1       462-4.83961E-08 2.41330E+00-7.34879E-01
 -1       463 1.15851E-12 2.41330E+00-7.34878E-01
 -1       464 1.75446E-08 2.21988E+00-6.46263E-01
 -1       465-1.36319E-08 2.39966E+00-7.63548E-01
 -1       466-2.41988E-08 2.41330E+00-7.34878E-01
 -1       467 1.07506E-12 2.21988E+00-6.46263E-01
 -1       468 1.14414E-12 2.39966E+00-7.63548E-01
 -1       469-8.22838E-08 2.81144E+00-9.26763E-01
 -1       470 1.32597E-12 2.81144E+00-9.26763E-01
 -1       471 3.08400E-08 2.61061E+00-8.28451E-01
 -1       472-3.13829E-08 2.79643E+00-9.56495E-01
 -1       473-4.11425E-08 2.81144E+00-9.26763E-01
 -1       474 1.24313E-12 2.61061E+00-8.28451E-01
 -1       475 1.30932E-12 2.79643E+00-9.56495E-01
 -1       476-1.33774E-07 3.22238E+00-1.13667E+00
 -1       477 1.49002E-12 3.22238E+00-1.13667E+00
 -1       478 5.14365E-08 3.01547E+00-1.02958E+00
 -1       479-6.12403E-08 3.20613E+00-1.16728E+00
 -1       480-6.68853E-08 3.22238E+00-1.13667E+00
 -1       481 1.40846E-12 3.01547E+00-1.02958E+00
 -1       482 1.47330E-12 3.20613E+00-1.16728E+00
 -1       483-2.09695E-07 3.64374E+00-1.36268E+00
 -1       484 1.65660E-12 3.64374E+00-1.36268E+00
 -1       485 8.23428E-08 3.43189E+00-1.24778E+00
 -1       486-1.08851E-07 3.62640E+00-1.39400E+00
 -1       487-1.04846E-07 3.64374E+00-1.36268E+00
 -1       488 1.57340E-12 3.43189E+00-1.24778E+00
 -1       489 1.64052E-12 3.62640E+00-1.39400E+00
 -1       490-3.17649E-07 4.07350E+00-1.60280E+00
 -1       491 1.82349E-12 4.07350E+00-1.60280E+00
 -1       492 1.27395E-07 3.85769E+00-1.48110E+00
 -1       493-1.81301E-07 4.05521E+00-1.63469E+00
 -1       494-1.58806E-07 4.07350E+00-1.60280E+00
 -1       495 1.74333E-12 3.85769E+00-1.48110E+00
 -1       496 1.80555E-12 4.05521E+00-1.63469E+00
 -1       497-4.66256E-07 4.50993E+00-1.85502E+00
 -1       498 1.97033E-12 4.50993E+00-1.85502E+00
 -1       499 1.90352E-07 4.29098E+00-1.72752E+00
 -1       500-2.85980E-07 4.49084E+00-1.88737E+00
 -1       501-2.33140E-07 4.50993E+00-1.85502E+00
 -1       502 1.88898E-12 4.29098E+00-1.72752E+00
 -1       503 1.95427E-12 4.49084E+00-1.88737E+00
 -1       504-6.57101E-07 4.95153E+00-2.11731E+00
 -1       505 2.12166E-12 4.95153E+00-2.11731E+00
 -1       506 2.76195E-07 4.73017E+00-1.98503E+00
 -1       507-4.30202E-07 4.93178E+00-2.15001E+00
 -1       508-3.28404E-07 4.95153E+00-2.11731E+00
 -1       509 2.04408E-12 4.73017E+00-1.98503E+00
 -1       510 2.10479E-12 4.93178E+00-2.15001E+00
 -1       511-8.98133E-07 5.39699E+00-2.38766E+00
 -1       512 2.26776E-12 5.39699E+00-2.38766E+00
 -1       513 3.81222E-07 5.17385E+00-2.25160E+00
 -1       514-6.11037E-07 5.37673E+00-2.42062E+00
 -1       515-4.49380E-07 5.39699E+00-2.38766E+00
 -1       516 2.19169E-12 5.17385E+00-2.25160E+00
 -1       517 2.25298E-12 5.37673E+00-2.42062E+00
 -1       518-1.12258E-06 5.84515E+00-2.66406E+00
 -1       519 2.39007E-12 5.84514E+00-2.66406E+00
 -1       520 5.18519E-07 5.62079E+00-2.52522E+00
 -1       521-8.28840E-07 5.82452E+00-2.69721E+00
 -1       522-5.59855E-07 5.84515E+00-2.66406E+00
 -1       523 2.32474E-12 5.62080E+00-2.52523E+00
 -1       524 2.37959E-12 5.82452E+00-2.69721E+00
 -1       525-1.42889E-06 6.29495E+00-2.94454E+00
 -1       526 2.53578E-12 6.29495E+00-2.94454E+00
 -1       527 6.03097E-07 6.06990E+00-2.80391E+00
 -1       528-9.91492E-07 6.27411E+00-2.97779E+00
 -1       529-7.18784E-07 6.29495E+00-2.94454E+00
 -1       530 2.46197E-12 6.06990E+00-2.80391E+00
 -1       531 2.51973E-12 6.27411E+00-2.97779E+00
 -1       532-1.09065E-06 6.74542E+00-3.22711E+00
 -1       533 2.67775E-12 6.74542E+00-3.22711E+00
 -1       534 8.38754E-07 6.52016E+00-3.08568E+00
 -1       535-1.18800E-06 6.72450E+00-3.26040E+00
 -1       536-5.29611E-07 6.74542E+00-3.22711E+00
 -1       537 2.59854E-12 6.52016E+00-3.08568E+00
 -1       538 2.66677E-12 6.72450E+00-3.26040E+00
 -1       539 0.00000E+00 0.00000E+00 0.00000E+00
 -1       540-1.08857E-09 3.34050E-02 8.01967E-03
 -1       541 0.00000E+00 0.00000E+00 0.00000E+00
 -1       542-5.44038E-10 3.34050E-02 8.01967E-03
 -1       543 0.00000E+00 0.00000E+00 0.00000E+00
 -1       544 3.22795E-10 8.50028E-03 4.63992E-03
 -1       545-7.57309E-10 3.30958E-02 3.25064E-03
 -1       546-1.80650E-09 1.29456E-01 7.31640E-03
 -1       547-9.02993E-10 1.29456E-01 7.31641E-03
 -1       548 7.67531E-10 7.39972E-02 9.18932E-03
 -1       549-1.49499E-09 1.28316E-01-1.78301E-03
 -1       550-2.15344E-09 2.81748E-01-8.25975E-03
 -1       551-1.07634E-09 2.81748E-01-8.25974E-03
 -1       552 1.04117E-09 1.98985E-01 1.69995E-03
 -1       553-2.24378E-09 2.79396E-01-2.12259E-02
 -1       554-2.00289E-09 4.83715E-01-4.30481E-02
 -1       555-1.00092E-09 4.83715E-01-4.30481E-02
 -1       556 1.11525E-09 3.76929E-01-2.30439E-02
 -1       557-2.98373E-09 4.79890E-01-5.94149E-02
 -1       558-1.06377E-09 7.28961E-01-9.98277E-02
 -1       559-5.31162E-10 7.28961E-01-9.98277E-02
 -1       560 8.91791E-10 6.01314E-01-6.85672E-02
 -1       561-3.61167E-09 7.23504E-01-1.19148E-01
 -1       562 1.18462E-09 1.01148E+00-1.80093E-01
 -1       563 5.93280E-10 1.01148E+00-1.80093E-01
 -1       564 1.77805E-10 8.65915E-01-1.36973E-01
 -1       565-3.88944E-09 1.00432E+00-2.01953E-01
 -1       566 5.59073E-09 1.32579E+00-2.84319E-01
 -1       567 2.79663E-09 1.32579E+00-2.84319E-01
 -1       568-1.35436E-09 1.16498E+00-2.29213E-01
 -1       569-3.36339E-09 1.31691E+00-3.08342E-01
 -1       570 1.34697E-08 1.66698E+00-4.12193E-01
 -1       571 6.73643E-09 1.66698E+00-4.12193E-01
 -1       572-4.22550E-09 1.49330E+00-3.45343E-01
 -1       573-1.24567E-09 1.65643E+00-4.38045E-01
 -1       574 2.67896E-08 2.03073E+00-5.62818E-01
 -1       575 1.33967E-08 2.03073E+00-5.62818E-01
 -1       576-9.23016E-09 1.84628E+00-4.84734E-01
 -1       577 3.75151E-09 2.01859E+00-5.90207E-01
 -1       578 4.83984E-08 2.41330E+00-7.34879E-01
 -1       579 2.42011E-08 2.41330E+00-7.34878E-01
 -1       580-1.75424E-08 2.21988E+00-6.46263E-01
 -1       581 1.36342E-08 2.39966E+00-7.63548E-01
 -1       582 8.22865E-08 2.81144E+00-9.26763E-01
 -1       583 4.11451E-08 2.81144E+00-9.26763E-01
 -1       584-3.08375E-08 2.61061E+00-8.28451E-01
 -1       585 3.13856E-08 2.79643E+00-9.56495E-01
 -1       586 1.33777E-07 3.22238E+00-1.13667E+00
 -1       587 6.68883E-08 3.22238E+00-1.13667E+00
 -1       588-5.14337E-08 3.01547E+00-1.02958E+00
 -1       589 6.12432E-08 3.20613E+00-1.16728E+00
 -1       590 2.09698E-07 3.64374E+00-1.36268E+00
 -1       591 1.04850E-07 3.64374E+00-1.36268E+00
 -1       592-8.23397E-08 3.43189E+00-1.24778E+00
 -1       593 1.08854E-07 3.62640E+00-1.39400E+00
 -1       594 3.17652E-07 4.07350E+00-1.60280E+00
 -1       595 1.58810E-07 4.07350E+00-1.60280E+00
 -1       596-1.27391E-07 3.85769E+00-1.48110E+00
 -1       597 1.81305E-07 4.05521E+00-1.63469E+00
 -1       598 4.66260E-07 4.50993E+00-1.85502E+00
 -1       599 2.33144E-07 4.50993E+00-1.85502E+00
 -1       600-1.90348E-07 4.29098E+00-1.72752E+00
 -1       601 2.85984E-07 4.49084E+00-1.88737E+00
 -1       602 6.57105E-07 4.95153E+00-2.11731E+00
 -1       603 3.28408E-07 4.95153E+00-2.11731E+00
 -1       604-2.76191E-07 4.73017E+00-1.98503E+00
 -1       605 4.30206E-07 4.93178E+00-2.15001E+00
 -1       606 8.98137E-07 5.39699E+00-2.38766E+00
 -1       607 4.49384E-07 5.39699E+00-2.38766E+00
 -1       608-3.81218E-07 5.17385E+00-2.25160E+00
 -1       609 6.11041E-07 5.37673E+00-2.42062E+00
 -1       610 1.12258E-06 5.84515E+00-2.66406E+00
 -1       611 5.59860E-07 5.84515E+00-2.66406E+00
 -1       612-5.18514E-07 5.62079E+00-2.52522E+00
 -1       613 8.28845E-07 5.82452E+00-2.69721E+00
 -1       614 1.42890E-06 6.29495E+00-2.94454E+00
 -1       615 7.18789E-07 6.29495E+00-2.94454E+00
 -1       616-6.03092E-07 6.06990E+00-2.80391E+00
 -1       617 9.91497E-07 6.27411E+00-2.97779E+00
 -1       618 1.09065E-06 6.74542E+00-3.22711E+00
 -1       619 5.29617E-07 6.74542E+00-3.22711E+00
 -1       620-8.38749E-07 6.52016E+00-3.08568E+00
 -1       621 1.18801E-06 6.72450E+00-3.26040E+00
 -3
    1PSTEP                        16           8           1          
  100CL  108 4.00000E-01         621                     0    8           1
 -4  STRESS      6    1
 -5  SXX         1    4    1    1
 -5  SYY         1    4    2    2
 -5  SZZ         1    4    3    3
 -5  SXY         1    4    1    2
 -5  SYZ         1    4    2    3
 -5  SZX         1    4    3    1
 -1         1 1.54949E-01-1.00337E+04-1.95933E+06 3.78074E-01-1.18667E+03 6.90009E-01
 -1         2-3.76874E-01-1.43467E+04-3.00043E+04 4.09053E-02 7.13962E+03-1.17687E+00
 -1         3-1.10190E-01-1.94131E+04-2.79294E+04-5.29267E-02 1.32374E+04-1.00959E-01
 -1         4 3.67606E-02-2.69635E+04-1.78425E+06 9.17105E-02-2.36005E+05 3.46912E-02
 -1         5 1.54948E-01-1.00342E+04-1.95933E+06 1.24947E-08-1.18792E+03-2.30928E-07
 -1         6-3.76874E-01-1.43469E+04-3.00034E+04 5.07544E-08 7.14002E+03 1.62846E-09
 -1         7-1.08408E-01-1.94130E+04-2.79287E+04-5.67041E-08 1.32377E+04 3.26034E-09
 -1         8 3.59798E-02-2.69636E+04-1.78425E+06-9.69190E-08-2.36006E+05-4.86677E-07
 -1         9-1.10770E-01-1.22033E+04-9.94469E+05 1.88107E-01 3.48537E+03-2.39691E-01
 -1        10 5.16036E-02-1.58084E+04-2.81917E+04 1.95502E-02 1.00849E+04 3.04742E-02
 -1        11-3.67558E-02-2.32123E+04-9.05994E+05 5.10126E-02-1.11535E+05-3.87359E-02
 -1        12-1.45789E-02-1.68714E+04-1.87356E+06-4.09158E-02-1.17740E+05-1.07485E-02
 -1        13 1.54948E-01-1.00340E+04-1.95933E+06 2.86135E-01-1.18730E+03 6.80179E-01
 -1        14-3.76874E-01-1.43468E+04-3.00039E+04-6.72622E-02 7.13982E+03-1.13792E+00
 -1        15-1.09299E-01-1.94131E+04-2.79291E+04-3.14516E-02 1.32375E+04-4.09029E-02
 -1        16 3.63702E-02-2.69635E+04-1.78425E+06 6.21570E-02-2.36005E+05 2.26140E-02
 -1        17-1.10770E-01-1.22038E+04-9.94469E+05 2.30931E-08 3.48420E+03-1.17000E-07
 -1        18 5.24944E-02-1.58084E+04-2.81921E+04-4.26710E-09 1.00848E+04-6.57630E-09
 -1        19-3.62490E-02-2.32123E+04-9.05994E+05-7.09166E-08-1.11535E+05-2.12349E-07
 -1        20-1.49693E-02-1.68713E+04-1.87356E+06-3.32976E-08-1.17740E+05-3.44140E-07
 -1        21-1.30833E-01-1.03538E+04-2.52623E+04-9.50531E-02 9.88992E+03-1.73467E-01
 -1        22 5.65642E-02-1.02027E+05-1.56993E+06 1.23479E-01-4.00615E+05 6.54829E-02
 -1        23-1.30217E-01-1.03537E+04-2.52617E+04 8.45228E-09 9.89027E+03 1.31260E-09
 -1        24 5.54336E-02-1.02027E+05-1.56993E+06-5.84523E-08-4.00615E+05-4.32068E-07
 -1        25 5.89728E-02-1.44939E+04-2.66337E+04 3.49968E-02 1.14430E+04 6.90835E-02
 -1        26-3.71849E-02-5.62001E+04-7.97551E+05 4.91714E-02-1.95423E+05-6.79873E-02
 -1        27-2.26282E-02-6.43073E+04-1.67669E+06-5.21842E-02-3.19482E+05-2.45524E-02
 -1        28-1.30525E-01-1.03537E+04-2.52620E+04-5.17054E-02 9.89009E+03-8.41938E-02
 -1        29 5.59989E-02-1.02027E+05-1.56993E+06 8.04532E-02-4.00615E+05 4.91037E-02
 -1        30 6.01714E-02-1.44939E+04-2.66341E+04-5.34202E-08 1.14428E+04-6.49712E-09
 -1        31-3.74385E-02-5.62001E+04-7.97551E+05-2.49447E-08-1.95423E+05-2.10210E-07
 -1        32-2.35839E-02-6.43072E+04-1.67669E+06-5.59104E-08-3.19482E+05-4.41176E-07
 -1        33-1.59650E-01-6.40449E+03-2.31415E+04-1.57704E-01 8.75513E+03-2.34696E-01
 -1        34 8.88401E-02-1.88993E+05-1.34296E+06 1.75893E-01-5.05339E+05 1.05058E-01
 -1        35-1.59580E-01-6.40439E+03-2.31409E+04-2.96417E-07 8.75556E+03 2.08046E-08
 -1        36 8.69838E-02-1.88994E+05-1.34296E+06-1.79883E-07-5.05339E+05-4.26497E-07
 -1        37 7.24321E-02-8.33943E+03-2.42618E+04 6.14636E-02 9.12344E+03 1.02753E-01
 -1        38-3.53935E-02-9.77121E+04-6.83016E+05 5.14962E-02-2.48300E+05-8.99052E-02
 -1        39-3.46893E-02-1.45795E+05-1.45584E+06-7.28802E-02-4.53595E+05-4.18847E-02
 -1        40-1.59615E-01-6.40444E+03-2.31412E+04-7.87227E-02 8.75535E+03-1.14854E-01
 -1        41 8.79119E-02-1.88993E+05-1.34296E+06 1.11191E-01-5.05339E+05 8.19534E-02
 -1        42 7.27749E-02-8.33947E+03-2.42621E+04-6.46153E-08 9.12324E+03 1.12305E-08
 -1        43-3.62820E-02-9.77122E+04-6.83016E+05-1.18292E-07-2.48300E+05-2.07896E-07
 -1        44-3.61827E-02-1.45794E+05-1.45584E+06-1.03965E-07-4.53595E+05-4.14756E-07
 -1        45-1.87855E-01-2.36619E+03-2.07960E+04-2.36724E-01 6.93281E+03-2.78828E-01
 -1        46 1.44822E-01-2.75164E+05-1.12321E+06 2.55335E-01-5.56564E+05 1.59741E-01
 -1        47-1.88874E-01-2.36606E+03-2.07957E+04 2.82839E-07 6.93329E+03 6.28617E-08
 -1        48 1.41902E-01-2.75164E+05-1.12321E+06-7.30641E-07-5.56565E+05-4.49123E-07
 -1        49 8.79617E-02-4.53401E+03-2.20690E+04 9.73397E-02 7.70536E+03 1.29686E-01
 -1        50-2.14434E-02-1.38771E+05-5.71983E+05 6.30050E-02-2.74813E+05-1.00430E-01
 -1        51-5.53481E-02-2.32481E+05-1.23243E+06-1.05045E-01-5.31172E+05-6.47184E-02
 -1        52-1.88364E-01-2.36612E+03-2.07959E+04-1.08127E-01 6.93305E+03-1.28861E-01
 -1        53 1.43362E-01-2.75164E+05-1.12321E+06 1.56939E-01-5.56565E+05 1.25441E-01
 -1        54 8.74875E-02-4.53407E+03-2.20692E+04 2.28511E-08 7.70513E+03 4.04391E-09
 -1        55-2.34087E-02-1.38771E+05-5.71982E+05-8.50030E-08-2.74813E+05-2.16310E-07
 -1        56-5.77363E-02-2.32481E+05-1.23243E+06-2.60827E-07-5.31171E+05-4.15781E-07
 -1        57-2.02621E-01 5.48795E+02-1.85475E+04-3.23825E-01 5.40950E+03-2.94815E-01
 -1        58 2.41640E-01-3.48194E+05-9.22271E+05 3.73766E-01-5.67125E+05 2.40644E-01
 -1        59-2.05215E-01 5.48897E+02-1.85474E+04-2.84051E-07 5.40998E+03 5.49932E-08
 -1        60 2.37088E-01-3.48195E+05-9.22271E+05-7.84260E-08-5.67125E+05-5.21947E-07
 -1        61 1.00766E-01-1.14176E+03-1.97222E+04 1.39943E-01 6.10521E+03 1.45774E-01
 -1        62 1.96868E-02-1.73826E+05-4.70396E+05 9.36653E-02-2.80853E+05-9.03387E-02
 -1        63-9.14124E-02-3.12051E+05-1.02227E+06-1.53078E-01-5.61814E+05-9.73819E-02
 -1        64-2.03918E-01 5.48846E+02-1.85474E+04-1.32892E-01 5.40974E+03-1.19186E-01
 -1        65 2.39364E-01-3.48194E+05-9.22271E+05 2.22023E-01-5.67125E+05 1.86210E-01
 -1        66 9.89600E-02-1.14183E+03-1.97223E+04-2.37531E-08 6.10496E+03 6.29243E-08
 -1        67 1.61179E-02-1.73826E+05-4.70396E+05-3.90015E-07-2.80853E+05-1.91096E-07
 -1        68-9.51486E-02-3.12051E+05-1.02227E+06-5.65726E-07-5.61813E+05-5.81926E-07
 -1        69-1.83030E-01 2.84505E+03-1.63396E+04-4.02703E-01 4.02828E+03-2.65351E-01
 -1        70 4.05569E-01-4.02982E+05-7.46197E+05 5.51001E-01-5.48598E+05 3.64488E-01
 -1        71-1.87992E-01 2.84503E+03-1.63398E+04 6.12322E-07 4.02866E+03 1.64950E-07
 -1        72 3.98609E-01-4.02983E+05-7.46198E+05-5.37080E-07-5.48599E+05-5.92634E-07
 -1        73 1.02727E-01 1.45629E+03-1.74703E+04 1.83522E-01 4.71865E+03 1.43998E-01
 -1        74 1.11613E-01-2.00071E+05-3.81258E+05 1.61496E-01-2.72282E+05-4.45226E-02
 -1        75-1.53386E-01-3.75877E+05-8.33954E+05-2.24581E-01-5.57714E+05-1.46682E-01
 -1        76-1.85511E-01 2.84504E+03-1.63397E+04-1.42190E-01 4.02847E+03-7.54315E-02
 -1        77 4.02089E-01-4.02982E+05-7.46197E+05 3.12774E-01-5.48599E+05 2.73609E-01
 -1        78 9.89485E-02 1.45625E+03-1.74703E+04 4.05665E-07 4.71843E+03 8.73506E-08
 -1        79 1.05656E-01-2.00072E+05-3.81258E+05 1.35858E-07-2.72282E+05-9.44909E-08
 -1        80-1.59142E-01-3.75877E+05-8.33953E+05-7.05843E-07-5.57713E+05-3.55434E-07
 -1        81-9.64488E-02 4.57618E+03-1.42656E+04-4.45012E-01 2.87926E+03-1.66038E-01
 -1        82 6.76142E-01-4.37924E+05-5.96639E+05 8.17303E-01-5.11277E+05 5.54796E-01
 -1        83-1.04751E-01 4.57588E+03-1.42662E+04-1.92290E-07 2.87941E+03-5.74516E-08
 -1        84 6.65778E-01-4.37925E+05-5.96640E+05 5.72308E-07-5.11278E+05 5.41645E-08
 -1        85 8.09038E-02 3.49707E+03-1.53210E+04 2.17412E-01 3.49760E+03 1.14008E-01
 -1        86 2.90434E-01-2.16677E+05-3.05443E+05 2.95838E-01-2.54197E+05 5.90054E-02
 -1        87-2.57311E-01-4.20655E+05-6.71288E+05-3.31735E-01-5.29754E+05-2.22513E-01
 -1        88-1.00600E-01 4.57603E+03-1.42659E+04-1.20396E-01 2.87933E+03 1.62558E-02
 -1        89 6.70960E-01-4.37924E+05-5.96640E+05 4.36874E-01-5.11277E+05 3.99863E-01
 -1        90 7.42714E-02 3.49713E+03-1.53208E+04 1.73343E-07 3.49746E+03 8.45374E-09
 -1        91 2.81104E-01-2.16678E+05-3.05443E+05-3.60468E-07-2.54198E+05-2.55198E-07
 -1        92-2.65973E-01-4.20655E+05-6.71288E+05 1.48092E-07-5.29754E+05-1.86037E-07
 -1        93 1.05839E-01 5.88945E+03-1.23581E+04-4.05727E-01 1.94097E+03 3.51127E-02
 -1        94 1.11052E+00-4.54007E+05-4.72588E+05 1.21628E+00-4.63243E+05 8.43113E-01
 -1        95 9.30245E-02 5.88863E+03-1.23593E+04 2.67925E-07 1.94072E+03-7.59958E-08
 -1        96 1.09561E+00-4.54008E+05-4.72589E+05-1.33019E-06-4.63244E+05 4.09801E-07
 -1        97 1.53818E-02 5.05809E+03-1.33333E+04 2.23948E-01 2.47730E+03 4.17428E-02
 -1        98 6.09169E-01-2.24063E+05-2.42464E+05 5.41034E-01-2.30649E+05 2.50058E-01
 -1        99-4.27054E-01-4.46097E+05-5.34586E+05-4.92424E-01-4.87084E+05-3.38435E-01
 -1       100 9.94320E-02 5.88904E+03-1.23587E+04-4.70129E-02 1.94085E+03 1.72776E-01
 -1       101 1.10306E+00-4.54007E+05-4.72589E+05 6.01164E-01-4.63243E+05 5.80015E-01
 -1       102 4.82300E-03 5.05834E+03-1.33328E+04 1.01535E-07 2.47732E+03-1.10711E-07
 -1       103 5.95306E-01-2.24063E+05-2.42465E+05-5.73829E-07-2.30651E+05 1.89681E-07
 -1       104-4.39694E-01-4.46097E+05-5.34585E+05 6.15981E-08-4.87083E+05-5.70156E-08
 -1       105 4.92139E-01 6.87864E+03-1.06455E+04-2.20774E-01 1.19745E+03 3.77394E-01
 -1       106 1.78836E+00-4.53513E+05-3.71524E+05 1.80353E+00-4.10466E+05 1.26970E+00
 -1       107 4.74040E-01 6.87703E+03-1.06473E+04-4.69660E-07 1.19661E+03-1.28863E-07
 -1       108 1.76791E+00-4.53513E+05-3.71526E+05 8.29267E-07-4.10468E+05-1.14535E-06
 -1       109-1.22990E-01 6.24714E+03-1.15297E+04 1.76021E-01 1.64473E+03-9.06523E-02
 -1       110 1.14166E+00-2.23321E+05-1.91077E+05 9.56909E-01-2.04633E+05 5.66694E-01
 -1       111-6.96474E-01-4.53840E+05-4.22091E+05-7.31804E-01-4.36703E+05-5.12238E-01
 -1       112 4.83089E-01 6.87784E+03-1.06464E+04 1.01118E-01 1.19703E+03 4.13052E-01
 -1       113 1.77813E+00-4.53513E+05-3.71525E+05 8.06668E-01-4.10467E+05 8.30997E-01
 -1       114-1.38447E-01 6.24771E+03-1.15290E+04-5.81888E-08 1.64499E+03-5.30208E-07
 -1       115 1.12239E+00-2.23322E+05-1.91078E+05-1.19551E-07-2.04635E+05-4.40221E-07
 -1       116-7.14159E-01-4.53839E+05-4.22090E+05-6.53454E-07-4.36703E+05-2.16595E-08
 -1       117 1.15232E+00 7.62376E+03-9.13635E+03 1.97351E-01 6.19702E+02 9.05108E-01
 -1       118 2.81156E+00-4.39254E+05-2.90284E+05 2.65079E+00-3.57044E+05 1.88389E+00
 -1       119 1.12798E+00 7.62107E+03-9.13899E+03 1.19209E-06 6.18087E+02-5.42513E-07
 -1       120 2.78490E+00-4.39254E+05-2.90287E+05-6.36333E-06-3.57046E+05 1.09829E-06
 -1       121-3.73795E-01 7.14625E+03-9.92489E+03 3.74313E-02 9.83414E+02-3.04376E-01
 -1       122 1.98449E+00-2.15819E+05-1.49704E+05 1.62258E+00-1.78211E+05 1.05497E+00
 -1       123-1.11198E+00-4.46428E+05-3.30973E+05-1.07921E+00-3.83635E+05-7.66059E-01
 -1       124 1.14015E+00 7.62241E+03-9.13767E+03 3.44413E-01 6.18895E+02 7.54593E-01
 -1       125 2.79823E+00-4.39254E+05-2.90285E+05 1.03756E+00-3.57045E+05 1.17023E+00
 -1       126-3.95012E-01 7.14729E+03-9.92376E+03-1.80064E-07 9.84023E+02-1.38047E-07
 -1       127 1.95899E+00-2.15819E+05-1.49706E+05-2.58996E-06-1.78213E+05-1.45031E-07
 -1       128-1.13554E+00-4.46428E+05-3.30972E+05-2.21807E-06-3.83634E+05-1.38243E-07
 -1       129 2.19008E+00 8.18461E+03-7.82908E+03 9.37393E-01 1.79027E+02 1.66338E+00
 -1       130 4.30811E+00-4.14061E+05-2.25597E+05 3.80403E+00-3.05579E+05 2.73861E+00
 -1       131 2.16344E+00 8.18072E+03-7.83257E+03 1.17270E-06 1.76502E+02 8.12694E-07
 -1       132 4.27767E+00-4.14058E+05-2.25600E+05 2.74246E-06-3.05582E+05-7.73122E-07
 -1       133-7.88112E-01 7.82427E+03-8.52059E+03-2.41446E-01 4.69279E+02-6.21996E-01
 -1       134 3.25120E+00-2.02941E+05-1.16708E+05 2.60473E+00-1.52699E+05 1.76431E+00
 -1       135-1.73038E+00-4.26678E+05-2.58026E+05-1.57459E+00-3.31221E+05-1.12624E+00
 -1       136 2.17676E+00 8.18266E+03-7.83083E+03 6.85013E-01 1.77764E+02 1.21125E+00
 -1       137 4.29289E+00-4.14059E+05-2.25599E+05 1.24351E+00-3.05581E+05 1.60880E+00
 -1       138-8.13599E-01 7.82590E+03-8.51906E+03 8.08656E-07 4.70317E+02 3.41571E-07
 -1       139 3.22266E+00-2.02941E+05-1.16711E+05 1.31564E-06-1.52702E+05 4.29629E-07
 -1       140-1.75893E+00-4.26679E+05-2.58025E+05-1.67966E-06-3.31220E+05-6.49741E-07
 -1       141 3.71315E+00 8.60692E+03-6.71412E+03 2.12215E+00-1.52035E+02 2.68224E+00
 -1       142 6.38874E+00-3.80501E+05-1.74394E+05 5.36210E+00-2.57544E+05 3.89485E+00
 -1       143 3.68123E+00 8.60211E+03-6.71845E+03 7.74142E-07-1.55434E+02-4.13987E-07
 -1       144 6.35405E+00-3.80494E+05-1.74397E+05 1.91804E-08-2.57547E+05-5.15629E-07
 -1       145-1.41864E+00 8.33466E+03-7.31111E+03-6.96661E-01 7.76086E+01-1.06514E+00
 -1       146 5.05983E+00-1.85950E+05-9.05507E+04 4.01116E+00-1.28846E+05 2.74634E+00
 -1       147-2.62243E+00-3.97287E+05-2.00085E+05-2.22053E+00-2.81496E+05-1.61866E+00
 -1       148 3.69719E+00 8.60451E+03-6.71628E+03 1.08953E+00-1.53734E+02 1.77332E+00
 -1       149 6.37139E+00-3.80498E+05-1.74396E+05 1.29781E+00-2.57546E+05 2.15303E+00
 -1       150-1.44792E+00 8.33685E+03-7.30914E+03 1.37797E-06 7.91126E+01 3.40691E-08
 -1       151 5.02651E+00-1.85948E+05-9.05544E+04 2.37134E-08-1.28850E+05-4.05543E-07
 -1       152-2.65500E+00-3.97289E+05-2.00084E+05 3.82779E-07-2.81495E+05-2.56826E-08
 -1       153 5.76081E+00 8.92476E+03-5.77747E+03 3.65877E+00-3.97510E+02 3.97659E+00
 -1       154 9.20032E+00-3.40757E+05-1.33954E+05 7.00458E+00-2.13601E+05 5.35746E+00
 -1       155 5.76358E+00 8.92027E+03-5.78248E+03 1.56460E-06-4.01467E+02-1.58339E-06
 -1       156 9.19518E+00-3.40741E+05-1.33958E+05-2.22408E-06-2.13603E+05 1.41687E-07
 -1       157-2.32354E+00 8.71842E+03-6.28543E+03-1.40921E+00-2.15045E+02-1.64039E+00
 -1       158 7.47144E+00-1.65919E+05-6.98645E+04 5.63278E+00-1.06997E+05 4.01456E+00
 -1       159-3.83503E+00-3.60625E+05-1.54262E+05-3.10411E+00-2.35527E+05-2.27462E+00
 -1       160 5.76219E+00 8.92251E+03-5.77998E+03 1.41732E+00-3.99489E+02 2.43412E+00
 -1       161 9.19775E+00-3.40749E+05-1.33956E+05 9.65639E-01-2.13602E+05 2.75369E+00
 -1       162-2.33812E+00 8.72085E+03-6.28306E+03 1.57321E-06-2.13166E+02-4.34246E-07
 -1       163 7.47025E+00-1.65912E+05-6.98689E+04-3.98404E-07-1.07001E+05-1.61694E-06
 -1       164-3.85495E+00-3.60631E+05-1.54260E+05-2.10901E-06-2.35526E+05 8.90079E-07
 -1       165 8.31142E+00 9.16442E+03-5.00357E+03 5.87954E+00-5.77842E+02 5.42370E+00
 -1       166 1.25226E+01-2.96589E+05-1.01958E+05 9.42243E+00-1.73861E+05 7.24243E+00
 -1       167 8.27994E+00 9.16301E+03-5.00891E+03-2.06057E-07-5.81325E+02 1.89100E-07
 -1       168 1.24754E+01-2.96557E+05-1.01962E+05-1.25817E-07-1.73860E+05 5.85046E-07
 -1       169-3.47517E+00 9.00648E+03-5.43002E+03-2.19680E+00-4.29504E+02-2.35407E+00
 -1       170 1.04839E+01-1.43717E+05-5.34804E+04 7.97020E+00-8.72154E+04 5.61055E+00
 -1       171-5.44733E+00-3.18660E+05-1.18038E+05-3.81555E+00-1.93698E+05-3.07029E+00
 -1       172 8.29568E+00 9.16371E+03-5.00624E+03 1.44485E+00-5.79583E+02 3.01019E+00
 -1       173 1.24990E+01-2.96573E+05-1.01960E+05-2.85038E-01-1.73861E+05 3.42201E+00
 -1       174-3.48951E+00 9.00814E+03-5.42738E+03 7.40817E-07-4.27506E+02-7.48893E-07
 -1       175 1.04445E+01-1.43699E+05-5.34855E+04-2.17664E-07-8.72191E+04 1.81577E-07
 -1       176-5.47352E+00-3.18672E+05-1.18036E+05 3.99115E-07-1.93698E+05-1.31791E-06
 -1       177 1.08225E+01 9.34492E+03-4.37492E+03 6.67769E+00-7.07854E+02 7.04040E+00
 -1       178 1.67388E+01-2.49368E+05-7.64654E+04 8.32905E+00-1.38069E+05 8.92710E+00
 -1       179 1.11049E+01 9.35290E+03-4.37989E+03 1.83381E-06-7.09394E+02 6.93777E-07
 -1       180 1.70832E+01-2.49305E+05-7.64691E+04-4.29553E-06-1.38064E+05 3.73688E-07
 -1       181-4.91277E+00 9.22057E+03-4.73018E+03-3.55827E+00-5.82959E+02-3.07090E+00
 -1       182 1.35791E+01-1.20017E+05-4.04215E+04 7.80865E+00-6.93830E+04 7.18446E+00
 -1       183-7.24251E+00-2.72949E+05-8.92857E+04-5.40490E+00-1.55936E+05-4.11983E+00
 -1       184 1.09637E+01 9.34891E+03-4.37740E+03 4.13761E-01-7.08624E+02 3.69389E+00
 -1       185 1.69110E+01-2.49337E+05-7.64672E+04-3.07152E+00-1.38067E+05 3.66293E+00
 -1       186-4.78733E+00 9.21953E+03-4.72753E+03 1.61441E-06-5.81660E+02-7.32019E-07
 -1       187 1.38924E+01-1.19979E+05-4.04262E+04-1.38693E-08-6.93840E+04-2.12377E-07
 -1       188-7.09389E+00-2.72971E+05-8.92839E+04-3.32135E-06-1.55938E+05 9.56110E-07
 -1       189 1.28846E+01 9.49029E+03-3.88207E+03 1.11498E+01-8.01791E+02 7.52887E+00
 -1       190 1.87203E+01-2.00109E+05-5.58856E+04 1.58719E+01-1.05760E+05 1.21262E+01
 -1       191 1.25780E+01 9.51645E+03-3.88510E+03-2.59575E-06-7.96460E+02 3.56766E-07
 -1       192 1.79173E+01-2.00001E+05-5.58876E+04 3.11646E-06-1.05740E+05-2.24024E-06
 -1       193-5.92616E+00 9.37805E+03-4.17346E+03-2.87047E+00-6.91942E+02-3.94743E+00
 -1       194 1.66171E+01-9.53262E+04-2.98799E+04 1.38045E+01-5.32656E+04 9.30463E+00
 -1       195-9.51120E+00-2.24671E+05-6.62404E+04-2.63861E+00-1.21877E+05-4.74816E+00
 -1       196 1.27313E+01 9.50337E+03-3.88358E+03-1.92634E+00-7.99125E+02 2.79371E+00
 -1       197 1.83188E+01-2.00055E+05-5.58866E+04-9.61981E+00-1.05750E+05 4.43034E+00
 -1       198-5.93821E+00 9.36974E+03-4.17117E+03-2.01799E-06-6.92081E+02 7.96811E-07
 -1       199 1.60621E+01-9.52516E+04-2.98863E+04-7.75567E-07-5.32593E+04-6.79951E-07
 -1       200-9.74074E+00-2.24714E+05-6.62389E+04 6.63202E-08-1.21881E+05 4.86065E-09
 -1       201 1.10857E+01 9.60172E+03-3.49315E+03-5.35841E+00-8.48787E+02 9.35023E+00
 -1       202 2.48329E+01-1.49616E+05-3.88952E+04-2.11966E+01-7.62825E+04 8.14661E+00
 -1       203 1.33391E+01 9.67009E+03-3.49484E+03-2.94776E-07-8.36533E+02-2.77862E-06
 -1       204 2.95442E+01-1.49410E+05-3.88928E+04 6.52427E-06-7.62589E+04 3.01827E-06
 -1       205-7.27589E+00 9.47927E+03-3.74169E+03-7.82085E+00-7.63407E+02-3.48162E+00
 -1       206 1.50183E+01-7.00146E+04-2.11981E+04-1.34289E+01-3.85557E+04 7.96931E+00
 -1       207-9.98127E+00-1.74707E+05-4.74436E+04-1.23764E+01-9.09585E+04-7.09286E+00
 -1       208 1.22124E+01 9.63591E+03-3.49400E+03-9.86724E+00-8.42660E+02 4.95511E+00
 -1       209 2.71886E+01-1.49513E+05-3.88940E+04-1.91490E+01-7.62707E+04 3.95607E-01
 -1       210-6.30269E+00 9.45905E+03-3.74117E+03-2.48556E-06-7.69158E+02 2.92510E-08
 -1       211 1.85010E+01-6.98781E+04-2.11935E+04 4.18082E-06-3.85390E+04-2.83009E-07
 -1       212-8.02625E+00-1.74775E+05-4.74437E+04 5.26680E-06-9.09766E+04 2.30450E-08
 -1       213 5.56619E+00 9.77977E+03-3.28299E+03 3.69209E+01-8.94830E+02-1.84503E+00
 -1       214 3.79117E+00-9.82809E+04-2.44476E+04 8.19266E+01-4.91027E+04 2.73087E+01
 -1       215 1.56017E+00 9.89426E+03-3.26765E+03 4.04036E-07-8.46272E+02 1.22527E-06
 -1       216-1.22585E+01-9.80028E+04-2.44485E+04-3.64913E-06-4.89848E+04-4.36121E-07
 -1       217-3.04513E+00 9.55366E+03-3.44358E+03 1.39921E+01-8.34537E+02-5.80306E+00
 -1       218 1.58046E+01-4.43552E+04-1.38037E+04 6.03342E+01-2.49088E+04 1.46589E+01
 -1       219-1.30011E+01-1.23594E+05-3.17058E+04 3.36825E+01-6.25930E+04-1.13985E+00
 -1       220 3.56318E+00 9.83701E+03-3.27532E+03-1.63781E+01-8.70551E+02-1.00260E+01
 -1       221-4.23365E+00-9.81419E+04-2.44481E+04-4.67177E+01-4.90438E+04 8.93850E+00
 -1       222-3.92082E+00 9.50209E+03-3.44201E+03-1.58636E-06-8.42262E+02-1.23284E-06
 -1       223 5.77613E+00-4.41176E+04-1.38307E+04-1.32677E-06-2.48586E+04-1.91759E-07
 -1       224-1.86732E+01-1.23739E+05-3.17089E+04 3.16293E-06-6.25980E+04 1.29210E-06
 -1       225-1.72984E+01 9.79738E+03-2.95734E+03-1.77176E+02-7.11378E+02 2.02844E+01
 -1       226 4.80673E+01-4.71590E+04-1.14970E+04-3.88689E+02-2.29130E+04-5.68533E+01
 -1       227-2.46832E+00 1.00883E+04-2.98538E+03-7.40729E-08-6.88901E+02-2.96155E-07
 -1       228 1.17615E+02-4.64619E+04-1.14295E+04 1.26733E-05-2.29752E+04-2.62282E-06
 -1       229-5.68365E+00 9.48765E+03-3.18383E+03-4.97622E+01-8.33775E+02 8.29425E+00
 -1       230-2.60775E+01-1.85468E+04-7.32768E+03-2.89094E+02-1.19149E+04-2.11947E+01
 -1       231 1.20987E+00-7.19563E+04-1.79750E+04-1.10471E+02-3.58449E+04-2.42825E+01
 -1       232-9.88336E+00 9.94282E+03-2.97136E+03-6.07007E+01-7.00140E+02 2.94555E+01
 -1       233 8.28411E+01-4.68105E+04-1.14632E+04-5.37271E+01-2.29441E+04-4.07703E+01
 -1       234-2.74162E-01 9.41855E+03-3.20253E+03 2.17091E-06-8.74967E+02-2.38249E-07
 -1       235 1.61118E+01-1.81502E+04-7.20990E+03 2.86471E-06-1.18632E+04-9.59205E-07
 -1       236 2.79701E+01-7.20916E+04-1.79724E+04 3.83488E-06-3.59696E+04-1.35382E-06
 -1       237-8.71549E+01 8.39507E+03-3.59582E+03 5.87290E+02-1.37075E+03-1.96737E+02
 -1       238-4.55945E+02 1.15261E+04 7.59915E+02 1.29396E+03 1.73016E+03 1.11173E+00
 -1       239-1.12939E+02 6.68406E+03-3.40390E+03-4.35100E-06-1.58755E+03 5.03978E-07
 -1       240-7.23918E+02 6.65106E+03 5.67731E+02-8.20688E-06 1.69513E+03 2.00181E-06
 -1       241 3.47249E+01 9.65302E+03-3.25935E+03 2.29707E+02-1.11745E+03-2.97407E+01
 -1       242-1.15483E+02 9.77421E+03-1.06536E+03 9.82216E+02 3.16462E+02-6.72225E+01
 -1       243-2.09377E+01-1.91871E+04-5.49143E+03 4.88270E+02-1.08738E+04 7.70094E+01
 -1       244-1.00047E+02 7.53957E+03-3.49986E+03 3.12611E+02-1.47915E+03-1.65156E+02
 -1       245-5.89932E+02 9.08860E+03 6.63823E+02 3.86625E+02 1.71265E+03 7.27116E+01
 -1       246 2.92498E+01 9.42627E+03-3.20546E+03-1.02213E-06-1.10462E+03 7.64195E-07
 -1       247-2.62362E+02 6.72250E+03-1.40563E+03-3.77147E-06 8.81887E+00 2.64411E-07
 -1       248-1.20159E+02-1.97842E+04-5.56294E+03 1.09517E-06-1.06581E+04-9.38700E-07
 -1       249 1.54948E-01-1.00337E+04-1.95933E+06-3.78073E-01-1.18667E+03-6.90009E-01
 -1       250-3.76874E-01-1.43467E+04-3.00043E+04-4.09054E-02 7.13962E+03 1.17687E+00
 -1       251-1.10190E-01-1.94131E+04-2.79294E+04 5.29267E-02 1.32374E+04 1.00959E-01
 -1       252 3.67606E-02-2.69635E+04-1.78425E+06-9.17104E-02-2.36005E+05-3.46915E-02
 -1       253 1.54948E-01-1.00340E+04-1.95933E+06-2.86135E-01-1.18730E+03-6.80180E-01
 -1       254-3.76874E-01-1.43468E+04-3.00039E+04 6.72622E-02 7.13982E+03 1.13792E+00
 -1       255-1.09299E-01-1.94131E+04-2.79291E+04 3.14515E-02 1.32375E+04 4.09029E-02
 -1       256 3.63702E-02-2.69635E+04-1.78425E+06-6.21571E-02-2.36005E+05-2.26146E-02
 -1       257-1.10770E-01-1.22033E+04-9.94469E+05-1.88107E-01 3.48537E+03 2.39690E-01
 -1       258 5.16036E-02-1.58084E+04-2.81917E+04-1.95502E-02 1.00849E+04-3.04742E-02
 -1       259-3.67558E-02-2.32123E+04-9.05994E+05-5.10126E-02-1.11535E+05 3.87358E-02
 -1       260-1.45789E-02-1.68714E+04-1.87356E+06 4.09159E-02-1.17740E+05 1.07481E-02
 -1       261-1.30833E-01-1.03538E+04-2.52623E+04 9.50533E-02 9.88992E+03 1.73467E-01
 -1       262 5.65642E-02-1.02027E+05-1.56993E+06-1.23479E-01-4.00615E+05-6.54835E-02
 -1       263-1.30525E-01-1.03537E+04-2.52620E+04 5.17055E-02 9.89009E+03 8.41938E-02
 -1       264 5.59989E-02-1.02027E+05-1.56993E+06-8.04534E-02-4.00615E+05-4.91045E-02
 -1       265 5.89728E-02-1.44939E+04-2.66337E+04-3.49968E-02 1.14430E+04-6.90835E-02
 -1       266-3.71849E-02-5.62001E+04-7.97551E+05-4.91715E-02-1.95423E+05 6.79871E-02
 -1       267-2.26282E-02-6.43073E+04-1.67669E+06 5.21841E-02-3.19482E+05 2.45519E-02
 -1       268-1.59650E-01-6.40449E+03-2.31415E+04 1.57704E-01 8.75513E+03 2.34696E-01
 -1       269 8.88400E-02-1.88993E+05-1.34296E+06-1.75892E-01-5.05339E+05-1.05059E-01
 -1       270-1.59615E-01-6.40444E+03-2.31412E+04 7.87223E-02 8.75535E+03 1.14854E-01
 -1       271 8.79119E-02-1.88993E+05-1.34296E+06-1.11191E-01-5.05339E+05-8.19542E-02
 -1       272 7.24321E-02-8.33943E+03-2.42618E+04-6.14637E-02 9.12344E+03-1.02753E-01
 -1       273-3.53935E-02-9.77121E+04-6.83016E+05-5.14963E-02-2.48300E+05 8.99050E-02
 -1       274-3.46893E-02-1.45795E+05-1.45584E+06 7.28802E-02-4.53595E+05 4.18842E-02
 -1       275-1.87855E-01-2.36619E+03-2.07960E+04 2.36724E-01 6.93281E+03 2.78827E-01
 -1       276 1.44822E-01-2.75164E+05-1.12321E+06-2.55335E-01-5.56564E+05-1.59742E-01
 -1       277-1.88364E-01-2.36612E+03-2.07959E+04 1.08127E-01 6.93305E+03 1.28861E-01
 -1       278 1.43362E-01-2.75164E+05-1.12321E+06-1.56940E-01-5.56565E+05-1.25442E-01
 -1       279 8.79617E-02-4.53401E+03-2.20690E+04-9.73395E-02 7.70536E+03-1.29686E-01
 -1       280-2.14434E-02-1.38771E+05-5.71983E+05-6.30048E-02-2.74813E+05 1.00430E-01
 -1       281-5.53481E-02-2.32481E+05-1.23243E+06 1.05046E-01-5.31172E+05 6.47177E-02
 -1       282-2.02621E-01 5.48795E+02-1.85475E+04 3.23827E-01 5.40950E+03 2.94815E-01
 -1       283 2.41640E-01-3.48194E+05-9.22271E+05-3.73766E-01-5.67125E+05-2.40644E-01
 -1       284-2.03918E-01 5.48846E+02-1.85474E+04 1.32892E-01 5.40974E+03 1.19186E-01
 -1       285 2.39364E-01-3.48194E+05-9.22271E+05-2.22023E-01-5.67125E+05-1.86211E-01
 -1       286 1.00766E-01-1.14176E+03-1.97222E+04-1.39943E-01 6.10521E+03-1.45774E-01
 -1       287 1.96868E-02-1.73826E+05-4.70396E+05-9.36650E-02-2.80853E+05 9.03387E-02
 -1       288-9.14124E-02-3.12051E+05-1.02227E+06 1.53079E-01-5.61814E+05 9.73813E-02
 -1       289-1.83030E-01 2.84505E+03-1.63396E+04 4.02702E-01 4.02828E+03 2.65350E-01
 -1       290 4.05569E-01-4.02982E+05-7.46197E+05-5.51000E-01-5.48598E+05-3.64489E-01
 -1       291-1.85511E-01 2.84504E+03-1.63397E+04 1.42190E-01 4.02847E+03 7.54315E-02
 -1       292 4.02089E-01-4.02982E+05-7.46197E+05-3.12774E-01-5.48599E+05-2.73610E-01
 -1       293 1.02727E-01 1.45629E+03-1.74703E+04-1.83522E-01 4.71865E+03-1.43998E-01
 -1       294 1.11613E-01-2.00071E+05-3.81258E+05-1.61497E-01-2.72282E+05 4.45221E-02
 -1       295-1.53386E-01-3.75877E+05-8.33954E+05 2.24580E-01-5.57714E+05 1.46682E-01
 -1       296-9.64485E-02 4.57618E+03-1.42656E+04 4.45013E-01 2.87926E+03 1.66038E-01
 -1       297 6.76141E-01-4.37924E+05-5.96639E+05-8.17307E-01-5.11277E+05-5.54796E-01
 -1       298-1.00600E-01 4.57603E+03-1.42659E+04 1.20397E-01 2.87933E+03-1.62557E-02
 -1       299 6.70959E-01-4.37924E+05-5.96640E+05-4.36876E-01-5.11277E+05-3.99862E-01
 -1       300 8.09041E-02 3.49707E+03-1.53210E+04-2.17411E-01 3.49760E+03-1.14008E-01
 -1       301 2.90433E-01-2.16677E+05-3.05443E+05-2.95838E-01-2.54197E+05-5.90052E-02
 -1       302-2.57311E-01-4.20655E+05-6.71288E+05 3.31733E-01-5.29754E+05 2.22513E-01
 -1       303 1.05839E-01 5.88945E+03-1.23581E+04 4.05726E-01 1.94097E+03-3.51126E-02
 -1       304 1.11052E+00-4.54007E+05-4.72588E+05-1.21627E+00-4.63243E+05-8.43114E-01
 -1       305 9.94317E-02 5.88904E+03-1.23587E+04 4.70124E-02 1.94085E+03-1.72776E-01
 -1       306 1.10306E+00-4.54007E+05-4.72589E+05-6.01164E-01-4.63243E+05-5.80015E-01
 -1       307 1.53816E-02 5.05809E+03-1.33333E+04-2.23949E-01 2.47730E+03-4.17430E-02
 -1       308 6.09169E-01-2.24063E+05-2.42464E+05-5.41035E-01-2.30649E+05-2.50059E-01
 -1       309-4.27054E-01-4.46097E+05-5.34586E+05 4.92424E-01-4.87084E+05 3.38435E-01
 -1       310 4.92139E-01 6.87864E+03-1.06455E+04 2.20775E-01 1.19745E+03-3.77394E-01
 -1       311 1.78836E+00-4.53513E+05-3.71524E+05-1.80354E+00-4.10466E+05-1.26970E+00
 -1       312 4.83089E-01 6.87784E+03-1.06464E+04-1.01118E-01 1.19703E+03-4.13052E-01
 -1       313 1.77813E+00-4.53513E+05-3.71525E+05-8.06669E-01-4.10467E+05-8.30998E-01
 -1       314-1.22990E-01 6.24714E+03-1.15297E+04-1.76021E-01 1.64473E+03 9.06526E-02
 -1       315 1.14166E+00-2.23321E+05-1.91077E+05-9.56910E-01-2.04633E+05-5.66693E-01
 -1       316-6.96474E-01-4.53840E+05-4.22091E+05 7.31804E-01-4.36703E+05 5.12237E-01
 -1       317 1.15232E+00 7.62376E+03-9.13635E+03-1.97353E-01 6.19702E+02-9.05109E-01
 -1       318 2.81156E+00-4.39254E+05-2.90284E+05-2.65078E+00-3.57044E+05-1.88389E+00
 -1       319 1.14015E+00 7.62241E+03-9.13767E+03-3.44413E-01 6.18895E+02-7.54594E-01
 -1       320 2.79823E+00-4.39254E+05-2.90285E+05-1.03756E+00-3.57045E+05-1.17023E+00
 -1       321-3.73794E-01 7.14625E+03-9.92489E+03-3.74301E-02 9.83414E+02 3.04376E-01
 -1       322 1.98449E+00-2.15819E+05-1.49704E+05-1.62258E+00-1.78211E+05-1.05497E+00
 -1       323-1.11198E+00-4.46428E+05-3.30973E+05 1.07921E+00-3.83635E+05 7.66060E-01
 -1       324 2.19008E+00 8.18461E+03-7.82908E+03-9.37392E-01 1.79027E+02-1.66339E+00
 -1       325 4.30811E+00-4.14061E+05-2.25597E+05-3.80404E+00-3.05579E+05-2.73861E+00
 -1       326 2.17676E+00 8.18266E+03-7.83083E+03-6.85012E-01 1.77764E+02-1.21126E+00
 -1       327 4.29289E+00-4.14059E+05-2.25599E+05-1.24351E+00-3.05581E+05-1.60880E+00
 -1       328-7.88112E-01 7.82427E+03-8.52059E+03 2.41445E-01 4.69279E+02 6.21995E-01
 -1       329 3.25120E+00-2.02941E+05-1.16708E+05-2.60474E+00-1.52699E+05-1.76431E+00
 -1       330-1.73038E+00-4.26678E+05-2.58026E+05 1.57459E+00-3.31221E+05 1.12624E+00
 -1       331 3.71315E+00 8.60692E+03-6.71412E+03-2.12215E+00-1.52035E+02-2.68224E+00
 -1       332 6.38874E+00-3.80501E+05-1.74394E+05-5.36210E+00-2.57544E+05-3.89486E+00
 -1       333 3.69719E+00 8.60451E+03-6.71628E+03-1.08953E+00-1.53734E+02-1.77333E+00
 -1       334 6.37139E+00-3.80498E+05-1.74396E+05-1.29781E+00-2.57546E+05-2.15303E+00
 -1       335-1.41864E+00 8.33466E+03-7.31111E+03 6.96659E-01 7.76086E+01 1.06514E+00
 -1       336 5.05983E+00-1.85950E+05-9.05507E+04-4.01116E+00-1.28846E+05-2.74634E+00
 -1       337-2.62243E+00-3.97287E+05-2.00085E+05 2.22053E+00-2.81496E+05 1.61866E+00
 -1       338 5.76081E+00 8.92476E+03-5.77747E+03-3.65877E+00-3.97510E+02-3.97659E+00
 -1       339 9.20032E+00-3.40757E+05-1.33954E+05-7.00458E+00-2.13601E+05-5.35746E+00
 -1       340 5.76219E+00 8.92251E+03-5.77998E+03-1.41733E+00-3.99489E+02-2.43412E+00
 -1       341 9.19775E+00-3.40749E+05-1.33956E+05-9.65643E-01-2.13602E+05-2.75369E+00
 -1       342-2.32354E+00 8.71842E+03-6.28543E+03 1.40921E+00-2.15045E+02 1.64039E+00
 -1       343 7.47144E+00-1.65919E+05-6.98645E+04-5.63278E+00-1.06997E+05-4.01456E+00
 -1       344-3.83503E+00-3.60625E+05-1.54262E+05 3.10410E+00-2.35527E+05 2.27462E+00
 -1       345 8.31142E+00 9.16442E+03-5.00357E+03-5.87954E+00-5.77842E+02-5.42370E+00
 -1       346 1.25226E+01-2.96589E+05-1.01958E+05-9.42243E+00-1.73861E+05-7.24243E+00
 -1       347 8.29568E+00 9.16371E+03-5.00624E+03-1.44485E+00-5.79583E+02-3.01019E+00
 -1       348 1.24990E+01-2.96573E+05-1.01960E+05 2.85037E-01-1.73861E+05-3.42201E+00
 -1       349-3.47517E+00 9.00648E+03-5.43002E+03 2.19680E+00-4.29504E+02 2.35407E+00
 -1       350 1.04839E+01-1.43717E+05-5.34804E+04-7.97020E+00-8.72154E+04-5.61055E+00
 -1       351-5.44733E+00-3.18660E+05-1.18038E+05 3.81555E+00-1.93698E+05 3.07028E+00
 -1       352 1.08225E+01 9.34492E+03-4.37492E+03-6.67769E+00-7.07854E+02-7.04040E+00
 -1       353 1.67388E+01-2.49368E+05-7.64654E+04-8.32905E+00-1.38069E+05-8.92711E+00
 -1       354 1.09637E+01 9.34891E+03-4.37740E+03-4.13760E-01-7.08624E+02-3.69388E+00
 -1       355 1.69110E+01-2.49337E+05-7.64672E+04 3.07152E+00-1.38067E+05-3.66293E+00
 -1       356-4.91277E+00 9.22057E+03-4.73018E+03 3.55827E+00-5.82959E+02 3.07090E+00
 -1       357 1.35791E+01-1.20017E+05-4.04215E+04-7.80865E+00-6.93830E+04-7.18446E+00
 -1       358-7.24251E+00-2.72949E+05-8.92857E+04 5.40491E+00-1.55936E+05 4.11982E+00
 -1       359 1.28846E+01 9.49029E+03-3.88207E+03-1.11498E+01-8.01791E+02-7.52887E+00
 -1       360 1.87203E+01-2.00109E+05-5.58856E+04-1.58719E+01-1.05760E+05-1.21262E+01
 -1       361 1.27313E+01 9.50337E+03-3.88358E+03 1.92633E+00-7.99125E+02-2.79371E+00
 -1       362 1.83188E+01-2.00055E+05-5.58866E+04 9.61981E+00-1.05750E+05-4.43034E+00
 -1       363-5.92616E+00 9.37805E+03-4.17346E+03 2.87048E+00-6.91942E+02 3.94743E+00
 -1       364 1.66171E+01-9.53262E+04-2.98799E+04-1.38045E+01-5.32656E+04-9.30463E+00
 -1       365-9.51120E+00-2.24671E+05-6.62404E+04 2.63860E+00-1.21877E+05 4.74815E+00
 -1       366 1.10857E+01 9.60172E+03-3.49315E+03 5.35841E+00-8.48787E+02-9.35022E+00
 -1       367 2.48329E+01-1.49616E+05-3.88952E+04 2.11966E+01-7.62825E+04-8.14661E+00
 -1       368 1.22124E+01 9.63591E+03-3.49400E+03 9.86724E+00-8.42660E+02-4.95510E+00
 -1       369 2.71886E+01-1.49513E+05-3.88940E+04 1.91490E+01-7.62707E+04-3.95607E-01
 -1       370-7.27589E+00 9.47927E+03-3.74169E+03 7.82085E+00-7.63407E+02 3.48163E+00
 -1       371 1.50183E+01-7.00146E+04-2.11981E+04 1.34289E+01-3.85557E+04-7.96931E+00
 -1       372-9.98127E+00-1.74707E+05-4.74436E+04 1.23764E+01-9.09585E+04 7.09286E+00
 -1       373 5.56619E+00 9.77977E+03-3.28299E+03-3.69209E+01-8.94830E+02 1.84503E+00
 -1       374 3.79117E+00-9.82809E+04-2.44476E+04-8.19266E+01-4.91027E+04-2.73087E+01
 -1       375 3.56318E+00 9.83701E+03-3.27532E+03 1.63781E+01-8.70551E+02 1.00260E+01
 -1       376-4.23364E+00-9.81419E+04-2.44481E+04 4.67177E+01-4.90438E+04-8.93850E+00
 -1       377-3.04513E+00 9.55366E+03-3.44358E+03-1.39921E+01-8.34537E+02 5.80307E+00
 -1       378 1.58046E+01-4.43552E+04-1.38037E+04-6.03342E+01-2.49088E+04-1.46589E+01
 -1       379-1.30011E+01-1.23594E+05-3.17058E+04-3.36825E+01-6.25930E+04 1.13985E+00
 -1       380-1.72984E+01 9.79738E+03-2.95734E+03 1.77176E+02-7.11378E+02-2.02844E+01
 -1       381 4.80673E+01-4.71590E+04-1.14970E+04 3.88689E+02-2.29130E+04 5.68533E+01
 -1       382-9.88336E+00 9.94282E+03-2.97136E+03 6.07007E+01-7.00140E+02-2.94555E+01
 -1       383 8.28411E+01-4.68105E+04-1.14632E+04 5.37271E+01-2.29441E+04 4.07703E+01
 -1       384-5.68364E+00 9.48765E+03-3.18383E+03 4.97622E+01-8.33775E+02-8.29425E+00
 -1       385-2.60775E+01-1.85468E+04-7.32768E+03 2.89094E+02-1.19149E+04 2.11947E+01
 -1       386 1.20987E+00-7.19563E+04-1.79750E+04 1.10471E+02-3.58449E+04 2.42825E+01
 -1       387-8.71549E+01 8.39507E+03-3.59582E+03-5.87290E+02-1.37075E+03 1.96737E+02
 -1       388-4.55945E+02 1.15261E+04 7.59915E+02-1.29396E+03 1.73016E+03-1.11173E+00
 -1       389-1.00047E+02 7.53957E+03-3.49986E+03-3.12611E+02-1.47915E+03 1.65156E+02
 -1       390-5.89932E+02 9.08860E+03 6.63823E+02-3.86625E+02 1.71265E+03-7.27116E+01
 -1       391 3.47249E+01 9.65302E+03-3.25935E+03-2.29707E+02-1.11745E+03 2.97407E+01
 -1       392-1.15483E+02 9.77421E+03-1.06536E+03-9.82216E+02 3.16462E+02 6.72225E+01
 -1       393-2.09377E+01-1.91871E+04-5.49143E+03-4.88270E+02-1.08738E+04-7.70094E+01
 -1       394-1.13685E+00-1.88809E+04 2.01940E+06 3.08955E-02 1.66730E+04 1.33679E+00
 -1       395 1.21918E-01 2.75567E+04 1.83555E+06-1.26612E-01 2.44566E+05-9.55173E-03
 -1       396-1.13684E+00-1.88809E+04 2.01940E+06 3.68673E-08 1.66749E+04 2.29187E-07
 -1       397 1.18180E-01 2.75568E+04 1.83555E+06 7.03685E-08 2.44566E+05 4.71814E-07
 -1       398-7.57053E-01-1.66006E+04 9.94500E+05 5.72826E-02 1.13974E+04 7.62153E-02
 -1       399-6.57485E-02 4.81849E+03 1.92780E+06 5.61046E-02 1.29381E+05 4.57539E-02
 -1       400 5.90496E-03 4.09580E+03 9.03715E+05-1.21390E-01 1.29053E+05-4.96535E-02
 -1       401-1.13684E+00-1.88809E+04 2.01940E+06-9.07717E-02 1.66739E+04 1.46430E+00
 -1       402 1.20049E-01 2.75567E+04 1.83555E+06-6.34818E-02 2.44566E+05 7.78129E-02
 -1       403-7.57052E-01-1.66007E+04 9.94500E+05 5.23422E-08 1.13993E+04 1.17758E-07
 -1       404-6.76169E-02 4.81847E+03 1.92780E+06 3.49095E-08 1.29381E+05 3.63943E-07
 -1       405 4.92069E-03 4.09585E+03 9.03714E+05 9.37264E-10 1.29053E+05 2.08178E-07
 -1       406 1.22006E-01 1.00487E+05 1.61107E+06-1.38239E-01 4.17290E+05 1.73494E-01
 -1       407 1.18514E-01 1.00487E+05 1.61107E+06 1.35343E-07 4.17290E+05 4.34518E-07
 -1       408-5.61117E-02 6.45138E+04 1.72328E+06 6.78462E-02 3.31477E+05-3.91191E-02
 -1       409-4.36264E-03 4.50765E+04 7.92858E+05-1.51604E-01 2.13651E+05 1.40090E-02
 -1       410 1.20260E-01 1.00487E+05 1.61107E+06-6.45941E-02 4.17290E+05 2.08958E-01
 -1       411-5.97266E-02 6.45137E+04 1.72328E+06 1.05918E-07 3.31477E+05 4.73211E-07
 -1       412-5.80495E-03 4.50766E+04 7.92858E+05 7.18424E-08 2.13651E+05 2.12748E-07
 -1       413 1.64039E-01 1.93283E+05 1.37591E+06-1.21964E-01 5.22837E+05 3.97343E-01
 -1       414 1.59268E-01 1.93283E+05 1.37591E+06 1.90428E-07 5.22836E+05 4.50502E-07
 -1       415-6.57301E-02 1.47258E+05 1.49344E+06 6.71573E-02 4.70348E+05-1.38401E-01
 -1       416 2.18314E-03 9.34524E+04 6.76348E+05-1.82236E-01 2.65804E+05 1.06410E-01
 -1       417 1.61654E-01 1.93283E+05 1.37591E+06-4.88710E-02 5.22837E+05 3.74659E-01
 -1       418-6.98612E-02 1.47258E+05 1.49344E+06 1.46567E-07 4.70348E+05 4.40847E-07
 -1       419-1.71458E-04 9.34525E+04 6.76347E+05-1.72852E-07 2.65804E+05 2.40703E-07
 -1       420 2.60248E-01 2.82454E+05 1.14880E+06-6.53223E-02 5.74544E+05 6.88566E-01
 -1       421 2.53996E-01 2.82454E+05 1.14880E+06-3.84045E-07 5.74543E+05 4.34444E-07
 -1       422-9.81699E-02 2.37993E+05 1.26235E+06 5.04688E-02 5.48779E+05-2.64398E-01
 -1       423 3.61237E-02 1.40050E+05 5.63982E+05-2.04723E-01 2.90736E+05 2.45756E-01
 -1       424 2.57122E-01 2.82454E+05 1.14880E+06-1.02595E-02 5.74544E+05 5.88800E-01
 -1       425-1.03681E-01 2.37993E+05 1.26235E+06 1.74957E-07 5.48779E+05 4.21534E-07
 -1       426 3.24843E-02 1.40050E+05 5.63980E+05-1.89501E-07 2.90735E+05 2.71832E-07
 -1       427 4.32407E-01 3.58201E+05 9.41981E+05 5.52480E-02 5.84182E+05 1.07790E+00
 -1       428 4.23969E-01 3.58201E+05 9.41976E+05-1.12865E-07 5.84180E+05 1.72097E-07
 -1       429-1.62138E-01 3.20289E+05 1.04538E+06 8.87980E-03 5.79370E+05-4.31233E-01
 -1       430 1.14716E-01 1.79378E+05 4.61703E+05-2.02984E-01 2.94791E+05 4.54796E-01
 -1       431 4.28188E-01 3.58201E+05 9.41978E+05 6.07033E-02 5.84181E+05 8.68054E-01
 -1       432-1.69482E-01 3.20289E+05 1.04538E+06-3.59645E-07 5.79371E+05 4.25208E-07
 -1       433 1.09196E-01 1.79378E+05 4.61701E+05 1.03189E-08 2.94791E+05 7.11645E-08
 -1       434 7.13050E-01 4.14761E+05 7.61188E+05 2.75322E-01 5.64269E+05 1.60054E+00
 -1       435 7.01778E-01 4.14761E+05 7.61183E+05 3.65796E-07 5.64266E+05 4.96739E-07
 -1       436-2.70822E-01 3.86343E+05 8.51576E+05-7.21679E-02 5.74208E+05-6.55343E-01
 -1       437 2.64667E-01 2.08806E+05 3.72414E+05-1.51038E-01 2.84146E+05 7.61687E-01
 -1       438 7.07414E-01 4.14761E+05 7.61186E+05 1.76121E-01 5.64268E+05 1.23093E+00
 -1       439-2.80676E-01 3.86343E+05 8.51578E+05 1.99027E-07 5.74209E+05 2.86450E-07
 -1       440 2.56546E-01 2.08806E+05 3.72411E+05 3.90823E-07 2.84145E+05 2.11493E-07
 -1       441 1.14841E+00 4.50843E+05 6.07990E+05 6.43087E-01 5.25301E+05 2.29561E+00
 -1       442 1.13366E+00 4.50842E+05 6.07983E+05-3.55712E-07 5.25297E+05 3.38740E-07
 -1       443-4.43752E-01 4.32622E+05 6.84578E+05-2.13405E-01 5.44770E+05-9.55260E-01
 -1       444 5.25393E-01 2.27713E+05 2.96852E+05-1.06553E-02 2.64088E+05 1.20016E+00
 -1       445 1.14104E+00 4.50842E+05 6.07987E+05 3.48539E-01 5.25299E+05 1.69639E+00
 -1       446-4.56761E-01 4.32622E+05 6.84581E+05-3.10881E-08 5.44772E+05 3.57424E-07
 -1       447 5.13865E-01 2.27712E+05 2.96848E+05 2.76477E-07 2.64087E+05 3.94199E-07
 -1       448 1.80020E+00 4.67537E+05 4.81174E+05 1.21923E+00 4.75609E+05 3.20479E+00
 -1       449 1.78184E+00 4.67536E+05 4.81166E+05 7.10190E-07 4.75604E+05 9.65227E-08
 -1       450-7.07902E-01 4.59005E+05 5.44566E+05-4.41685E-01 5.00452E+05-1.35120E+00
 -1       451 9.52030E-01 2.36717E+05 2.34399E+05 2.70990E-01 2.38773E+05 1.80901E+00
 -1       452 1.79102E+00 4.67537E+05 4.81170E+05 5.86301E-01 4.75606E+05 2.28151E+00
 -1       453-7.24454E-01 4.59005E+05 5.44570E+05 1.49191E-07 5.00454E+05 8.97203E-08
 -1       454 9.36441E-01 2.36716E+05 2.34394E+05 5.31754E-07 2.38771E+05-1.25148E-08
 -1       455 2.74480E+00 4.67283E+05 3.78049E+05 2.07049E+00 4.21278E+05 4.36779E+00
 -1       456 2.72312E+00 4.67282E+05 3.78039E+05 1.22062E-06 4.21272E+05 4.38307E-07
 -1       457-1.09842E+00 4.67239E+05 4.29590E+05-7.89699E-01 4.48452E+05-1.86403E+00
 -1       458 1.61706E+00 2.37085E+05 1.83694E+05 7.59327E-01 2.11236E+05 2.62945E+00
 -1       459 2.73396E+00 4.67283E+05 3.78044E+05 8.84882E-01 4.21275E+05 2.99680E+00
 -1       460-1.11843E+00 4.67239E+05 4.29594E+05 1.62382E-06 4.48455E+05 3.88302E-07
 -1       461 1.59717E+00 2.37083E+05 1.83688E+05 6.74837E-07 2.11233E+05-4.21610E-08
 -1       462 4.06712E+00 4.53013E+05 2.95292E+05 3.26451E+00 3.66472E+05 5.81615E+00
 -1       463 4.04614E+00 4.53013E+05 2.95281E+05 3.86022E-07 3.66465E+05-2.26206E-08
 -1       464-1.65697E+00 4.60000E+05 3.36642E+05-1.28933E+00 3.93892E+05-2.51155E+00
 -1       465 2.60717E+00 2.30322E+05 1.43071E+05 1.53242E+00 1.83545E+05 3.70016E+00
 -1       466 4.05663E+00 4.53013E+05 2.95286E+05 1.20973E+00 3.66469E+05 3.83941E+00
 -1       467-1.67830E+00 4.60000E+05 3.36647E+05 1.67978E-06 3.93895E+05-2.26737E-07
 -1       468 2.58451E+00 2.30320E+05 1.43064E+05 7.93403E-07 1.83540E+05 1.40353E-07
 -1       469 5.84040E+00 4.27653E+05 2.29500E+05 4.81370E+00 3.13816E+05 7.55014E+00
 -1       470 5.82143E+00 4.27655E+05 2.29487E+05-1.17287E-06 3.13807E+05-2.01830E-07
 -1       471-2.42767E+00 4.40211E+05 2.62359E+05-1.97291E+00 3.40165E+05-3.30601E+00
 -1       472 4.01313E+00 2.17922E+05 1.10831E+05 2.64152E+00 1.56996E+05 5.04344E+00
 -1       473 5.83091E+00 4.27654E+05 2.29494E+05 1.47046E+00 3.13812E+05 4.77705E+00
 -1       474-2.44765E+00 4.40211E+05 2.62365E+05-1.25748E-06 3.40169E+05 1.88754E-07
 -1       475 3.99033E+00 2.17920E+05 1.10822E+05 6.41847E-07 1.56991E+05-1.04411E-07
 -1       476 8.09000E+00 3.93841E+05 1.77500E+05 6.72737E+00 2.64780E+05 9.53886E+00
 -1       477 8.10426E+00 3.93848E+05 1.77486E+05 6.35413E-07 2.64771E+05-1.40657E-06
 -1       478-3.43898E+00 4.10652E+05 2.03452E+05-2.81371E+00 2.89318E+05-4.23223E+00
 -1       479 5.89270E+00 2.01227E+05 8.53897E+04 4.15573E+00 1.32312E+05 6.65276E+00
 -1       480 8.09713E+00 3.93845E+05 1.77493E+05 1.46447E+00 2.64775E+05 5.74005E+00
 -1       481-3.44133E+00 4.10650E+05 2.03459E+05-1.02831E-06 2.89323E+05-4.27248E-07
 -1       482 5.88388E+00 2.01227E+05 8.53801E+04 1.07773E-06 1.32307E+05-9.69546E-07
 -1       483 1.06942E+01 3.53808E+05 1.36491E+05 8.50984E+00 2.20012E+05 1.15725E+01
 -1       484 1.07015E+01 3.53824E+05 1.36476E+05-1.87729E-06 2.20005E+05 2.17704E-06
 -1       485-4.69277E+00 3.73757E+05 1.56933E+05-3.84095E+00 2.42414E+05-5.27252E+00
 -1       486 8.23662E+00 1.81370E+05 6.53554E+04 5.78320E+00 1.09804E+05 8.42700E+00
 -1       487 1.06978E+01 3.53816E+05 1.36484E+05 8.30460E-01 2.20008E+05 6.54166E+00
 -1       488-4.68197E+00 3.73752E+05 1.56941E+05-1.10357E-06 2.42418E+05-8.28389E-07
 -1       489 8.24167E+00 1.81374E+05 6.53454E+04-8.76814E-08 1.09801E+05 1.19291E-06
 -1       490 1.33018E+01 3.09340E+05 1.04093E+05 1.05009E+01 1.79602E+05 1.35486E+01
 -1       491 1.35768E+01 3.09376E+05 1.04080E+05-4.54304E-06 1.79601E+05-2.39188E-06
 -1       492-6.04621E+00 3.31539E+05 1.20212E+05-4.50471E+00 1.99823E+05-6.22109E+00
 -1       493 1.07397E+01 1.59257E+05 4.95447E+04 7.87099E+00 8.95080E+04 1.02087E+01
 -1       494 1.34393E+01 3.09358E+05 1.04086E+05-1.16966E+00 1.79601E+05 7.00691E+00
 -1       495-5.90507E+00 3.31527E+05 1.20219E+05-2.83323E-06 1.99825E+05 1.36050E-06
 -1       496 1.08615E+01 1.59271E+05 4.95355E+04-2.32282E-06 8.95080E+04-8.95893E-07
 -1       497 1.48135E+01 2.61823E+05 7.83221E+04 7.92172E+00 1.43270E+05 1.40234E+01
 -1       498 1.46133E+01 2.61888E+05 7.83114E+04 3.73616E-06 1.43282E+05-2.29021E-06
 -1       499-7.35891E+00 2.85590E+05 9.11026E+04-5.70948E+00 1.61452E+05-7.19842E+00
 -1       500 1.30196E+01 1.35589E+05 3.69749E+04 6.99443E+00 7.12753E+04 1.13312E+01
 -1       501 1.47134E+01 2.61856E+05 7.83168E+04-5.49194E+00 1.43276E+05 6.23704E+00
 -1       502-7.32141E+00 2.85565E+05 9.11089E+04 8.04238E-07 1.61450E+05-1.38019E-06
 -1       503 1.30607E+01 1.35623E+05 3.69675E+04 1.56800E-06 7.12838E+04-5.21064E-08
 -1       504 1.39921E+01 2.12248E+05 5.75589E+04 1.16548E+01 1.10533E+05 1.47429E+01
 -1       505 1.63161E+01 2.12378E+05 5.75537E+04-1.37187E-06 1.10557E+05 5.34445E-07
 -1       506-7.39267E+00 2.37113E+05 6.78061E+04-1.60760E+00 1.26926E+05-6.52891E+00
 -1       507 1.26237E+01 1.10886E+05 2.68344E+04 1.11087E+01 5.48503E+04 1.16588E+01
 -1       508 1.51541E+01 2.12313E+05 5.75563E+04-1.46962E+01 1.10545E+05 4.96354E+00
 -1       509-6.33100E+00 2.37070E+05 6.78099E+04 1.01782E-06 1.26913E+05-2.20852E-06
 -1       510 1.36327E+01 1.10956E+05 2.68343E+04-9.47888E-07 5.48717E+04 1.83821E-07
 -1       511 4.44291E+00 1.61430E+05 4.04114E+04-3.17636E+01 8.06741E+04 3.30763E+00
 -1       512-5.85671E-01 1.61615E+05 4.04235E+04-3.86298E-07 8.07654E+04-1.07775E-06
 -1       513-7.17063E+00 1.87030E+05 4.88228E+04-9.36932E+00 9.56586E+04-7.97283E+00
 -1       514 1.07053E+01 8.55236E+04 1.84631E+04-1.84096E+01 3.99028E+04 7.10803E+00
 -1       515 1.92862E+00 1.61523E+05 4.04175E+04-2.94460E+01 8.07197E+04-3.71481E+00
 -1       516-8.52192E+00 1.86941E+05 4.88234E+04-3.17069E-06 9.56438E+04 2.34617E-07
 -1       517 9.31739E+00 8.56507E+04 1.84641E+04-1.40661E-06 3.99557E+04-1.52535E-06
 -1       518-8.26358E+00 1.09515E+05 2.59240E+04 5.47578E+01 5.32702E+04 1.33366E+01
 -1       519 1.46443E+01 1.09962E+05 2.59314E+04-2.01458E-06 5.32970E+04-1.24985E-06
 -1       520 4.70373E+00 1.35861E+05 3.30156E+04 4.34480E+01 6.70992E+04 5.99994E+00
 -1       521-1.24746E+01 5.97521E+04 1.12589E+04 4.49289E+01 2.60977E+04 3.81870E+00
 -1       522 3.19036E+00 1.09738E+05 2.59277E+04-6.21684E+01 5.32836E+04-7.86058E-01
 -1       523 1.36403E+01 1.35757E+05 3.30016E+04-6.23903E-07 6.70218E+04-1.65623E-06
 -1       524-3.02303E+00 5.99912E+04 1.13045E+04-1.10105E-06 2.61684E+04 5.74046E-07
 -1       525-8.57005E+01 5.80724E+04 1.24231E+04-4.24624E+02 2.64454E+04-9.24837E+01
 -1       526-1.55088E+02 5.82672E+04 1.25713E+04-8.08070E-06 2.70024E+04 4.28614E-06
 -1       527-3.64689E+00 8.44840E+04 1.90978E+04-9.90182E+01 4.01642E+04-2.07827E+01
 -1       528-1.00376E+01 3.38009E+04 4.83337E+03-2.94738E+02 1.29696E+04-3.31893E+01
 -1       529-1.20394E+02 5.81698E+04 1.24972E+04-9.17577E+01 2.67239E+04-6.64274E+01
 -1       530-2.68772E+01 8.41437E+04 1.91042E+04-8.08839E-07 4.02033E+04 3.31197E-06
 -1       531-3.73169E+01 3.41412E+04 4.79542E+03-6.42491E-07 1.31879E+04 1.49471E-06
 -1       532 1.75137E+02 8.47021E+03 7.57064E+02 1.58957E+03 5.27825E+03 9.06876E+01
 -1       533 4.26427E+02 5.26647E+03 4.69306E+02 6.66787E-06 2.72833E+03-3.99169E-06
 -1       534 1.17882E+02 3.16279E+04 7.31186E+03 5.38318E+02 1.55742E+04 1.24441E+02
 -1       535-1.12076E+02 8.61903E+03-1.77198E+03 1.04684E+03 1.81700E+03-8.36148E+01
 -1       536 3.00782E+02 6.86834E+03 6.13185E+02 6.64807E+02 4.00329E+03 1.59678E+02
 -1       537 2.08826E+02 3.17257E+04 7.14910E+03-4.21604E-06 1.50016E+04-1.80584E-06
 -1       538 6.77296E-01 5.92033E+03-1.47974E+03-1.34904E-06 6.15363E+02-7.55376E-07
 -1       539-1.13685E+00-1.88809E+04 2.01940E+06-3.08955E-02 1.66730E+04-1.33679E+00
 -1       540 1.21918E-01 2.75567E+04 1.83555E+06 1.26612E-01 2.44566E+05 9.55208E-03
 -1       541-1.13685E+00-1.88809E+04 2.01940E+06 9.07717E-02 1.66739E+04-1.46430E+00
 -1       542 1.20049E-01 2.75567E+04 1.83555E+06 6.34820E-02 2.44566E+05-7.78122E-02
 -1       543-7.57053E-01-1.66006E+04 9.94500E+05-5.72827E-02 1.13974E+04-7.62151E-02
 -1       544-6.57484E-02 4.81849E+03 1.92780E+06-5.61046E-02 1.29381E+05-4.57535E-02
 -1       545 5.90495E-03 4.09580E+03 9.03715E+05 1.21390E-01 1.29053E+05 4.96536E-02
 -1       546 1.22006E-01 1.00487E+05 1.61107E+06 1.38239E-01 4.17290E+05-1.73494E-01
 -1       547 1.20260E-01 1.00487E+05 1.61107E+06 6.45942E-02 4.17290E+05-2.08957E-01
 -1       548-5.61117E-02 6.45138E+04 1.72328E+06-6.78462E-02 3.31477E+05 3.91196E-02
 -1       549-4.36264E-03 4.50765E+04 7.92858E+05 1.51605E-01 2.13651E+05-1.40088E-02
 -1       550 1.64039E-01 1.93283E+05 1.37591E+06 1.21965E-01 5.22837E+05-3.97343E-01
 -1       551 1.61654E-01 1.93283E+05 1.37591E+06 4.88714E-02 5.22837E+05-3.74658E-01
 -1       552-6.57301E-02 1.47258E+05 1.49344E+06-6.71570E-02 4.70348E+05 1.38401E-01
 -1       553 2.18313E-03 9.34524E+04 6.76348E+05 1.82237E-01 2.65804E+05-1.06410E-01
 -1       554 2.60248E-01 2.82454E+05 1.14880E+06 6.53234E-02 5.74544E+05-6.88565E-01
 -1       555 2.57122E-01 2.82454E+05 1.14880E+06 1.02596E-02 5.74544E+05-5.88799E-01
 -1       556-9.81699E-02 2.37993E+05 1.26235E+06-5.04688E-02 5.48779E+05 2.64398E-01
 -1       557 3.61237E-02 1.40050E+05 5.63982E+05 2.04723E-01 2.90736E+05-2.45756E-01
 -1       558 4.32407E-01 3.58201E+05 9.41981E+05-5.52477E-02 5.84182E+05-1.07790E+00
 -1       559 4.28188E-01 3.58201E+05 9.41978E+05-6.07033E-02 5.84181E+05-8.68053E-01
 -1       560-1.62138E-01 3.20289E+05 1.04538E+06-8.87936E-03 5.79370E+05 4.31233E-01
 -1       561 1.14716E-01 1.79378E+05 4.61703E+05 2.02985E-01 2.94791E+05-4.54796E-01
 -1       562 7.13050E-01 4.14761E+05 7.61188E+05-2.75323E-01 5.64269E+05-1.60054E+00
 -1       563 7.07414E-01 4.14761E+05 7.61186E+05-1.76122E-01 5.64268E+05-1.23092E+00
 -1       564-2.70821E-01 3.86343E+05 8.51576E+05 7.21682E-02 5.74208E+05 6.55343E-01
 -1       565 2.64667E-01 2.08806E+05 3.72414E+05 1.51036E-01 2.84146E+05-7.61687E-01
 -1       566 1.14841E+00 4.50843E+05 6.07990E+05-6.43085E-01 5.25301E+05-2.29561E+00
 -1       567 1.14104E+00 4.50842E+05 6.07987E+05-3.48538E-01 5.25299E+05-1.69639E+00
 -1       568-4.43752E-01 4.32622E+05 6.84578E+05 2.13404E-01 5.44770E+05 9.55261E-01
 -1       569 5.25394E-01 2.27713E+05 2.96852E+05 1.06549E-02 2.64088E+05-1.20016E+00
 -1       570 1.80020E+00 4.67537E+05 4.81174E+05-1.21923E+00 4.75609E+05-3.20479E+00
 -1       571 1.79102E+00 4.67537E+05 4.81170E+05-5.86303E-01 4.75606E+05-2.28151E+00
 -1       572-7.07902E-01 4.59005E+05 5.44566E+05 4.41683E-01 5.00452E+05 1.35120E+00
 -1       573 9.52030E-01 2.36717E+05 2.34399E+05-2.70992E-01 2.38773E+05-1.80901E+00
 -1       574 2.74480E+00 4.67283E+05 3.78049E+05-2.07049E+00 4.21278E+05-4.36779E+00
 -1       575 2.73396E+00 4.67283E+05 3.78044E+05-8.84882E-01 4.21275E+05-2.99680E+00
 -1       576-1.09842E+00 4.67239E+05 4.29590E+05 7.89698E-01 4.48452E+05 1.86403E+00
 -1       577 1.61706E+00 2.37085E+05 1.83694E+05-7.59328E-01 2.11236E+05-2.62945E+00
 -1       578 4.06712E+00 4.53013E+05 2.95292E+05-3.26451E+00 3.66472E+05-5.81615E+00
 -1       579 4.05663E+00 4.53013E+05 2.95286E+05-1.20973E+00 3.66469E+05-3.83941E+00
 -1       580-1.65697E+00 4.60000E+05 3.36642E+05 1.28933E+00 3.93892E+05 2.51155E+00
 -1       581 2.60717E+00 2.30322E+05 1.43071E+05-1.53242E+00 1.83545E+05-3.70016E+00
 -1       582 5.84040E+00 4.27653E+05 2.29500E+05-4.81370E+00 3.13816E+05-7.55014E+00
 -1       583 5.83091E+00 4.27654E+05 2.29494E+05-1.47046E+00 3.13812E+05-4.77705E+00
 -1       584-2.42767E+00 4.40211E+05 2.62359E+05 1.97291E+00 3.40165E+05 3.30601E+00
 -1       585 4.01313E+00 2.17922E+05 1.10831E+05-2.64152E+00 1.56996E+05-5.04345E+00
 -1       586 8.09000E+00 3.93841E+05 1.77500E+05-6.72737E+00 2.64780E+05-9.53886E+00
 -1       587 8.09713E+00 3.93845E+05 1.77493E+05-1.46448E+00 2.64775E+05-5.74005E+00
 -1       588-3.43898E+00 4.10652E+05 2.03452E+05 2.81371E+00 2.89318E+05 4.23223E+00
 -1       589 5.89270E+00 2.01227E+05 8.53897E+04-4.15573E+00 1.32312E+05-6.65275E+00
 -1       590 1.06942E+01 3.53808E+05 1.36491E+05-8.50983E+00 2.20012E+05-1.15725E+01
 -1       591 1.06978E+01 3.53816E+05 1.36484E+05-8.30457E-01 2.20008E+05-6.54166E+00
 -1       592-4.69277E+00 3.73757E+05 1.56933E+05 3.84095E+00 2.42414E+05 5.27252E+00
 -1       593 8.23662E+00 1.81370E+05 6.53554E+04-5.78320E+00 1.09804E+05-8.42700E+00
 -1       594 1.33018E+01 3.09340E+05 1.04093E+05-1.05009E+01 1.79602E+05-1.35486E+01
 -1       595 1.34393E+01 3.09358E+05 1.04086E+05 1.16966E+00 1.79601E+05-7.00691E+00
 -1       596-6.04621E+00 3.31539E+05 1.20212E+05 4.50472E+00 1.99823E+05 6.22109E+00
 -1       597 1.07397E+01 1.59257E+05 4.95447E+04-7.87100E+00 8.95080E+04-1.02087E+01
 -1       598 1.48135E+01 2.61823E+05 7.83221E+04-7.92171E+00 1.43270E+05-1.40234E+01
 -1       599 1.47134E+01 2.61856E+05 7.83168E+04 5.49195E+00 1.43276E+05-6.23704E+00
 -1       600-7.35890E+00 2.85590E+05 9.11026E+04 5.70948E+00 1.61452E+05 7.19842E+00
 -1       601 1.30196E+01 1.35589E+05 3.69749E+04-6.99442E+00 7.12753E+04-1.13312E+01
 -1       602 1.39921E+01 2.12248E+05 5.75589E+04-1.16548E+01 1.10533E+05-1.47429E+01
 -1       603 1.51541E+01 2.12313E+05 5.75563E+04 1.46962E+01 1.10545E+05-4.96354E+00
 -1       604-7.39267E+00 2.37113E+05 6.78061E+04 1.60760E+00 1.26926E+05 6.52891E+00
 -1       605 1.26237E+01 1.10886E+05 2.68344E+04-1.11087E+01 5.48503E+04-1.16588E+01
 -1       606 4.44291E+00 1.61430E+05 4.04114E+04 3.17636E+01 8.06741E+04-3.30764E+00
 -1       607 1.92862E+00 1.61523E+05 4.04175E+04 2.94460E+01 8.07197E+04 3.71480E+00
 -1       608-7.17063E+00 1.87030E+05 4.88228E+04 9.36932E+00 9.56586E+04 7.97283E+00
 -1       609 1.07053E+01 8.55236E+04 1.84631E+04 1.84096E+01 3.99028E+04-7.10803E+00
 -1       610-8.26358E+00 1.09515E+05 2.59240E+04-5.47578E+01 5.32702E+04-1.33366E+01
 -1       611 3.19036E+00 1.09738E+05 2.59277E+04 6.21684E+01 5.32836E+04 7.86058E-01
 -1       612 4.70373E+00 1.35861E+05 3.30156E+04-4.34480E+01 6.70992E+04-5.99994E+00
 -1       613-1.24746E+01 5.97521E+04 1.12589E+04-4.49289E+01 2.60977E+04-3.81870E+00
 -1       614-8.57005E+01 5.80724E+04 1.24231E+04 4.24624E+02 2.64454E+04 9.24837E+01
 -1       615-1.20394E+02 5.81698E+04 1.24972E+04 9.17577E+01 2.67239E+04 6.64274E+01
 -1       616-3.64689E+00 8.44840E+04 1.90978E+04 9.90182E+01 4.01642E+04 2.07827E+01
 -1       617-1.00376E+01 3.38009E+04 4.83337E+03 2.94738E+02 1.29696E+04 3.31893E+01
 -1       618 1.75137E+02 8.47021E+03 7.57064E+02-1.58957E+03 5.27825E+03-9.06876E+01
 -1       619 3.00782E+02 6.86834E+03 6.13185E+02-6.64807E+02 4.00329E+03-1.59678E+02
 -1       620 1.17882E+02 3.16279E+04 7.31186E+03-5.38318E+02 1.55742E+04-1.24441E+02
 -1       621-1.12076E+02 8.61903E+03-1.77198E+03-1.04684E+03 1.81700E+03 8.36148E+01
 -3
    1PSTEP                        17           9           1          
  100CL  109 4.50000E-01         621                     0    9           1
 -4  DISP        4    1
 -5  D1          1    2    1    0
 -5  D2          1    2    2    0
 -5  D3          1    2    3    0
 -5  ALL         1    2    0    0    1ALL
 -1         1 0.00000E+00 0.00000E+00 0.00000E+00
 -1         2 0.00000E+00 0.00000E+00 0.00000E+00
 -1         3 5.26089E-10 3.51282E-02-1.73692E-03
 -1         4-3.47405E-10 3.44146E-02-1.19482E-02
 -1         5 0.00000E+00 0.00000E+00 0.00000E+00
 -1         6 0.00000E+00 0.00000E+00 0.00000E+00
 -1         7-4.96592E-14 3.51282E-02-1.73693E-03
 -1         8-3.73662E-14 3.44146E-02-1.19482E-02
 -1         9 0.00000E+00 0.00000E+00 0.00000E+00
 -1        10-8.74667E-11 8.93136E-03-2.64125E-04
 -1        11 8.96788E-11 3.47694E-02-6.83943E-03
 -1        12 7.64807E-11 8.73291E-03-5.48107E-03
 -1        13 0.00000E+00 0.00000E+00 0.00000E+00
 -1        14 0.00000E+00 0.00000E+00 0.00000E+00
 -1        15 2.63144E-10 3.51282E-02-1.73692E-03
 -1        16-1.73764E-10 3.44146E-02-1.19482E-02
 -1        17 0.00000E+00 0.00000E+00 0.00000E+00
 -1        18-1.25735E-14 8.93136E-03-2.64124E-04
 -1        19-4.34944E-14 3.47694E-02-6.83943E-03
 -1        20-6.83932E-15 8.73291E-03-5.48107E-03
 -1        21 1.42587E-09 1.36018E-01-1.24482E-02
 -1        22-8.09188E-10 1.33412E-01-3.18734E-02
 -1        23-1.92598E-13 1.36018E-01-1.24482E-02
 -1        24-1.67635E-13 1.33412E-01-3.18734E-02
 -1        25-4.37429E-10 7.77816E-02-5.49076E-03
 -1        26 3.08652E-10 1.34714E-01-2.21584E-02
 -1        27 2.69531E-10 7.62451E-02-2.04328E-02
 -1        28 7.12884E-10 1.36018E-01-1.24482E-02
 -1        29-4.04757E-10 1.33412E-01-3.18734E-02
 -1        30-1.10001E-13 7.77816E-02-5.49076E-03
 -1        31-1.80130E-13 1.34714E-01-2.21584E-02
 -1        32-9.13190E-14 7.62451E-02-2.04328E-02
 -1        33 2.77226E-09 2.95683E-01-3.89896E-02
 -1        34-1.46671E-09 2.90336E-01-6.65698E-02
 -1        35-4.18928E-13 2.95683E-01-3.89897E-02
 -1        36-3.82193E-13 2.90336E-01-6.65698E-02
 -1        37-9.88015E-10 2.08955E-01-2.33976E-02
 -1        38 6.53200E-10 2.93010E-01-5.27772E-02
 -1        39 5.37092E-10 2.05067E-01-4.70290E-02
 -1        40 1.38593E-09 2.95683E-01-3.89896E-02
 -1        41-7.33680E-10 2.90336E-01-6.65698E-02
 -1        42-2.95995E-13 2.08955E-01-2.33976E-02
 -1        43-4.00553E-13 2.93010E-01-5.27772E-02
 -1        44-2.65076E-13 2.05067E-01-4.70290E-02
 -1        45 4.66402E-09 5.06947E-01-8.61217E-02
 -1        46-2.44200E-09 4.98296E-01-1.20803E-01
 -1        47-7.17981E-13 5.06947E-01-8.61217E-02
 -1        48-6.69899E-13 4.98296E-01-1.20803E-01
 -1        49-1.78498E-09 3.95311E-01-5.97582E-02
 -1        50 1.11159E-09 5.02621E-01-1.03460E-01
 -1        51 9.25305E-10 3.88369E-01-9.10158E-02
 -1        52 2.33158E-09 5.06947E-01-8.61217E-02
 -1        53-1.22155E-09 4.98296E-01-1.20803E-01
 -1        54-5.60198E-13 3.95311E-01-5.97582E-02
 -1        55-6.93981E-13 5.02621E-01-1.03460E-01
 -1        56-5.17859E-13 3.88369E-01-9.10158E-02
 -1        57 7.19759E-09 7.62833E-01-1.56820E-01
 -1        58-3.94033E-09 7.50555E-01-1.97601E-01
 -1        59-1.07852E-12 7.62833E-01-1.56820E-01
 -1        60-1.02060E-12 7.50555E-01-1.97601E-01
 -1        61-2.88147E-09 6.29733E-01-1.18399E-01
 -1        62 1.62945E-09 7.56694E-01-1.77209E-01
 -1        63 1.50980E-09 6.19298E-01-1.56250E-01
 -1        64 3.59807E-09 7.62833E-01-1.56820E-01
 -1        65-1.97101E-09 7.50555E-01-1.97601E-01
 -1        66-8.90866E-13 6.29733E-01-1.18399E-01
 -1        67-1.04925E-12 7.56694E-01-1.77209E-01
 -1        68-8.37962E-13 6.19298E-01-1.56250E-01
 -1        69 1.04225E-08 1.05684E+00-2.52609E-01
 -1        70-6.31165E-09 1.04080E+00-2.98573E-01
 -1        71-1.49123E-12 1.05684E+00-2.52609E-01
 -1        72-1.42451E-12 1.04080E+00-2.98573E-01
 -1        73-4.32098E-09 9.05456E-01-2.01530E-01
 -1        74 2.05659E-09 1.04882E+00-2.75590E-01
 -1        75 2.41995E-09 8.91306E-01-2.45012E-01
 -1        76 5.21013E-09 1.05684E+00-2.52609E-01
 -1        77-3.15704E-09 1.04080E+00-2.98573E-01
 -1        78-1.27791E-12 9.05456E-01-2.01530E-01
 -1        79-1.45775E-12 1.04882E+00-2.75590E-01
 -1        80-1.21621E-12 8.91306E-01-2.45012E-01
 -1        81 1.42691E-08 1.38308E+00-3.73882E-01
 -1        82-1.01436E-08 1.36329E+00-4.24208E-01
 -1        83-1.94703E-12 1.38308E+00-3.73882E-01
 -1        84-1.87167E-12 1.36329E+00-4.24208E-01
 -1        85-6.10974E-09 1.21627E+00-3.10072E-01
 -1        86 2.06443E-09 1.37319E+00-3.99044E-01
 -1        87 3.87594E-09 1.19835E+00-3.58314E-01
 -1        88 7.13298E-09 1.38308E+00-3.73882E-01
 -1        89-5.07348E-09 1.36329E+00-4.24208E-01
 -1        90-1.71468E-12 1.21627E+00-3.10072E-01
 -1        91-1.90887E-12 1.37319E+00-3.99044E-01
 -1        92-1.64605E-12 1.19835E+00-3.58314E-01
 -1        93 1.84364E-08 1.73634E+00-5.20178E-01
 -1        94-1.64004E-08 1.71292E+00-5.74146E-01
 -1        95-2.43686E-12 1.73634E+00-5.20178E-01
 -1        96-2.35684E-12 1.71292E+00-5.74146E-01
 -1        97-8.17230E-09 1.55663E+00-4.43957E-01
 -1        98 1.02041E-09 1.72463E+00-5.47161E-01
 -1        99 6.24481E-09 1.53501E+00-4.96189E-01
 -1       100 9.21606E-09 1.73634E+00-5.20178E-01
 -1       101-8.20244E-09 1.71292E+00-5.74146E-01
 -1       102-2.18730E-12 1.55663E+00-4.43957E-01
 -1       103-2.39691E-12 1.72463E+00-5.47161E-01
 -1       104-2.11189E-12 1.53501E+00-4.96189E-01
 -1       105 2.22235E-08 2.11209E+00-6.90417E-01
 -1       106-2.66221E-08 2.08524E+00-7.47406E-01
 -1       107-2.95144E-12 2.11209E+00-6.90417E-01
 -1       108-2.86498E-12 2.08524E+00-7.47406E-01
 -1       109-1.02832E-08 1.92167E+00-6.02390E-01
 -1       110-2.19609E-09 2.09867E+00-7.18910E-01
 -1       111 1.01233E-08 1.89650E+00-6.57942E-01
 -1       112 1.11090E-08 2.11209E+00-6.90417E-01
 -1       113-1.33139E-08 2.08524E+00-7.47406E-01
 -1       114-2.69025E-12 1.92167E+00-6.02390E-01
 -1       115-2.90859E-12 2.09867E+00-7.18910E-01
 -1       116-2.60841E-12 1.89650E+00-6.57942E-01
 -1       117 2.42939E-08 2.50643E+00-8.83088E-01
 -1       118-4.32015E-08 2.47639E+00-9.42567E-01
 -1       119-3.48278E-12 2.50643E+00-8.83089E-01
 -1       120-3.39287E-12 2.47639E+00-9.42567E-01
 -1       121-1.19672E-08 2.30716E+00-7.84055E-01
 -1       122-9.44885E-09 2.49141E+00-9.12827E-01
 -1       123 1.64544E-08 2.27868E+00-8.42351E-01
 -1       124 1.21435E-08 2.50643E+00-8.83089E-01
 -1       125-2.16043E-08 2.47639E+00-9.42567E-01
 -1       126-3.21264E-12 2.30716E+00-7.84055E-01
 -1       127-3.43807E-12 2.49141E+00-9.12827E-01
 -1       128-3.12481E-12 2.27868E+00-8.42351E-01
 -1       129 2.23658E-08 2.91604E+00-1.09640E+00
 -1       130-6.97319E-08 2.88309E+00-1.15791E+00
 -1       131-4.03645E-12 2.91604E+00-1.09640E+00
 -1       132-3.93985E-12 2.88309E+00-1.15791E+00
 -1       133-1.23629E-08 2.70952E+00-9.87283E-01
 -1       134-2.36783E-08 2.89957E+00-1.12716E+00
 -1       135 2.66877E-08 2.67798E+00-1.04783E+00
 -1       136 1.11790E-08 2.91604E+00-1.09640E+00
 -1       137-3.48701E-08 2.88309E+00-1.15791E+00
 -1       138-3.75623E-12 2.70952E+00-9.87283E-01
 -1       139-3.98833E-12 2.89957E+00-1.12716E+00
 -1       140-3.66428E-12 2.67798E+00-1.04783E+00
 -1       141 1.28522E-08 3.33812E+00-1.32837E+00
 -1       142-1.11453E-07 3.30256E+00-1.39155E+00
 -1       143-4.59344E-12 3.33812E+00-1.32837E+00
 -1       144-4.49252E-12 3.30256E+00-1.39155E+00
 -1       145-1.00480E-08 3.12568E+00-1.21018E+00
 -1       146-4.92869E-08 3.32034E+00-1.35996E+00
 -1       147 4.29688E-08 3.09139E+00-1.27257E+00
 -1       148 6.42153E-09 3.33812E+00-1.32837E+00
 -1       149-5.57309E-08 3.30256E+00-1.39155E+00
 -1       150-4.31160E-12 3.12568E+00-1.21018E+00
 -1       151-4.54321E-12 3.32034E+00-1.35996E+00
 -1       152-4.21442E-12 3.09139E+00-1.27257E+00
 -1       153-9.50670E-09 3.77030E+00-1.57693E+00
 -1       154-1.75573E-07 3.73245E+00-1.64145E+00
 -1       155-5.13721E-12 3.77030E+00-1.57693E+00
 -1       156-5.03248E-12 3.73245E+00-1.64145E+00
 -1       157-2.85653E-09 3.55308E+00-1.45071E+00
 -1       158-9.25482E-08 3.75138E+00-1.60919E+00
 -1       159 6.83913E-08 3.51633E+00-1.51459E+00
 -1       160-4.75572E-09 3.77030E+00-1.57693E+00
 -1       161-8.77892E-08 3.73245E+00-1.64145E+00
 -1       162-4.86626E-12 3.55308E+00-1.45071E+00
 -1       163-5.08504E-12 3.75138E+00-1.60919E+00
 -1       164-4.76469E-12 3.51633E+00-1.51459E+00
 -1       165-5.17930E-08 4.21060E+00-1.83997E+00
 -1       166-2.71898E-07 4.17076E+00-1.90555E+00
 -1       167-5.67631E-12 4.21060E+00-1.83997E+00
 -1       168-5.57048E-12 4.17076E+00-1.90555E+00
 -1       169 1.23174E-08 3.98955E+00-1.70678E+00
 -1       170-1.61758E-07 4.19068E+00-1.87276E+00
 -1       171 1.07086E-07 3.95066E+00-1.77186E+00
 -1       172-2.59016E-08 4.21060E+00-1.83997E+00
 -1       173-1.35954E-07 4.17076E+00-1.90555E+00
 -1       174-5.40851E-12 3.98955E+00-1.70678E+00
 -1       175-5.62377E-12 4.19068E+00-1.87276E+00
 -1       176-5.30141E-12 3.95066E+00-1.77186E+00
 -1       177-1.22796E-07 4.65733E+00-2.11536E+00
 -1       178-4.11362E-07 4.61582E+00-2.18178E+00
 -1       179-6.19633E-12 4.65733E+00-2.11536E+00
 -1       180-6.09092E-12 4.61582E+00-2.18178E+00
 -1       181 3.94393E-08 4.43326E+00-1.97625E+00
 -1       182-2.67340E-07 4.63658E+00-2.14857E+00
 -1       183 1.64701E-07 4.39254E+00-2.04228E+00
 -1       184-6.13809E-08 4.65733E+00-2.11536E+00
 -1       185-2.05662E-07 4.61582E+00-2.18178E+00
 -1       186-5.93895E-12 4.43326E+00-1.97625E+00
 -1       187-6.14404E-12 4.63658E+00-2.14857E+00
 -1       188-5.82661E-12 4.39254E+00-2.04228E+00
 -1       189-2.31261E-07 5.10907E+00-2.40098E+00
 -1       190-6.09695E-07 5.06620E+00-2.46804E+00
 -1       191-6.68588E-12 5.10907E+00-2.40098E+00
 -1       192-6.57589E-12 5.06620E+00-2.46804E+00
 -1       193 8.34333E-08 4.88265E+00-2.25702E+00
 -1       194-4.19386E-07 5.08764E+00-2.43451E+00
 -1       195 2.46678E-07 4.84043E+00-2.32379E+00
 -1       196-1.15656E-07 5.10907E+00-2.40098E+00
 -1       197-3.04894E-07 5.06620E+00-2.46804E+00
 -1       198-6.44235E-12 4.88265E+00-2.25702E+00
 -1       199-6.63046E-12 5.08764E+00-2.43451E+00
 -1       200-6.33006E-12 4.84043E+00-2.32379E+00
 -1       201-3.84125E-07 5.56459E+00-2.69474E+00
 -1       202-8.66575E-07 5.52067E+00-2.76228E+00
 -1       203-7.14704E-12 5.56459E+00-2.69474E+00
 -1       204-7.03213E-12 5.52067E+00-2.76228E+00
 -1       205 1.47849E-07 5.33642E+00-2.54697E+00
 -1       206-6.29396E-07 5.54263E+00-2.72851E+00
 -1       207 3.62821E-07 5.29300E+00-2.61429E+00
 -1       208-1.91904E-07 5.56459E+00-2.69474E+00
 -1       209-4.32997E-07 5.52067E+00-2.76228E+00
 -1       210-6.92245E-12 5.33642E+00-2.54697E+00
 -1       211-7.09036E-12 5.54263E+00-2.72851E+00
 -1       212-6.80423E-12 5.29300E+00-2.61429E+00
 -1       213-5.75581E-07 6.02281E+00-2.99458E+00
 -1       214-1.22571E-06 5.97815E+00-3.06244E+00
 -1       215-7.58847E-12 6.02281E+00-2.99458E+00
 -1       216-7.48911E-12 5.97815E+00-3.06244E+00
 -1       217 2.37247E-07 5.79342E+00-2.84402E+00
 -1       218-8.84948E-07 6.00048E+00-3.02851E+00
 -1       219 5.04918E-07 5.74910E+00-2.91175E+00
 -1       220-2.88083E-07 6.02281E+00-2.99458E+00
 -1       221-6.13833E-07 5.97815E+00-3.06244E+00
 -1       222-7.37037E-12 5.79342E+00-2.84402E+00
 -1       223-7.53669E-12 6.00048E+00-3.02851E+00
 -1       224-7.25847E-12 5.74910E+00-2.91175E+00
 -1       225-7.85984E-07 6.48278E+00-3.29845E+00
 -1       226-1.51438E-06 6.43767E+00-3.36651E+00
 -1       227-8.01561E-12 6.48278E+00-3.29845E+00
 -1       228-7.91669E-12 6.43767E+00-3.36651E+00
 -1       229 3.37143E-07 6.25263E+00-3.14614E+00
 -1       230-1.21026E-06 6.46023E+00-3.33248E+00
 -1       231 7.18139E-07 6.20771E+00-3.21412E+00
 -1       232-3.91928E-07 6.48278E+00-3.29845E+00
 -1       233-7.52830E-07 6.43767E+00-3.36651E+00
 -1       234-7.80573E-12 6.25263E+00-3.14614E+00
 -1       235-7.96552E-12 6.46022E+00-3.33248E+00
 -1       236-7.69926E-12 6.20771E+00-3.21412E+00
 -1       237-9.34195E-07 6.94360E+00-3.60434E+00
 -1       238-2.25875E-06 6.89835E+00-3.67246E+00
 -1       239-8.40901E-12 6.94360E+00-3.60434E+00
 -1       240-8.29774E-12 6.89835E+00-3.67246E+00
 -1       241 4.58061E-07 6.71314E+00-3.45127E+00
 -1       242-1.36456E-06 6.92098E+00-3.63840E+00
 -1       243 8.09295E-07 6.66792E+00-3.51938E+00
 -1       244-4.68957E-07 6.94360E+00-3.60434E+00
 -1       245-1.14627E-06 6.89835E+00-3.67246E+00
 -1       246-8.22063E-12 6.71314E+00-3.45127E+00
 -1       247-8.35565E-12 6.92097E+00-3.63840E+00
 -1       248-8.10748E-12 6.66792E+00-3.51938E+00
 -1       249 0.00000E+00 0.00000E+00 0.00000E+00
 -1       250 0.00000E+00 0.00000E+00 0.00000E+00
 -1       251-5.26188E-10 3.51282E-02-1.73692E-03
 -1       252 3.47330E-10 3.44146E-02-1.19482E-02
 -1       253 0.00000E+00 0.00000E+00 0.00000E+00
 -1       254 0.00000E+00 0.00000E+00 0.00000E+00
 -1       255-2.63243E-10 3.51282E-02-1.73692E-03
 -1       256 1.73689E-10 3.44146E-02-1.19482E-02
 -1       257 0.00000E+00 0.00000E+00 0.00000E+00
 -1       258 8.74416E-11 8.93136E-03-2.64125E-04
 -1       259-8.97658E-11 3.47694E-02-6.83943E-03
 -1       260-7.64944E-11 8.73291E-03-5.48107E-03
 -1       261-1.42626E-09 1.36018E-01-1.24482E-02
 -1       262 8.08853E-10 1.33412E-01-3.18734E-02
 -1       263-7.13269E-10 1.36018E-01-1.24482E-02
 -1       264 4.04422E-10 1.33412E-01-3.18734E-02
 -1       265 4.37209E-10 7.77816E-02-5.49076E-03
 -1       266-3.09012E-10 1.34714E-01-2.21584E-02
 -1       267-2.69714E-10 7.62451E-02-2.04328E-02
 -1       268-2.77310E-09 2.95683E-01-3.89896E-02
 -1       269 1.46595E-09 2.90336E-01-6.65698E-02
 -1       270-1.38676E-09 2.95683E-01-3.89896E-02
 -1       271 7.32916E-10 2.90336E-01-6.65698E-02
 -1       272 9.87423E-10 2.08955E-01-2.33976E-02
 -1       273-6.54001E-10 2.93010E-01-5.27772E-02
 -1       274-5.37622E-10 2.05067E-01-4.70290E-02
 -1       275-4.66545E-09 5.06947E-01-8.61217E-02
 -1       276 2.44066E-09 4.98296E-01-1.20803E-01
 -1       277-2.33301E-09 5.06947E-01-8.61217E-02
 -1       278 1.22021E-09 4.98296E-01-1.20803E-01
 -1       279 1.78386E-09 3.95311E-01-5.97582E-02
 -1       280-1.11297E-09 5.02621E-01-1.03460E-01
 -1       281-9.26341E-10 3.88369E-01-9.10158E-02
 -1       282-7.19975E-09 7.62833E-01-1.56820E-01
 -1       283 3.93829E-09 7.50555E-01-1.97601E-01
 -1       284-3.60023E-09 7.62833E-01-1.56820E-01
 -1       285 1.96896E-09 7.50555E-01-1.97601E-01
 -1       286 2.87969E-09 6.29733E-01-1.18399E-01
 -1       287-1.63155E-09 7.56694E-01-1.77209E-01
 -1       288-1.51148E-09 6.19298E-01-1.56250E-01
 -1       289-1.04254E-08 1.05684E+00-2.52609E-01
 -1       290 6.30880E-09 1.04080E+00-2.98573E-01
 -1       291-5.21311E-09 1.05684E+00-2.52609E-01
 -1       292 3.15419E-09 1.04080E+00-2.98573E-01
 -1       293 4.31842E-09 9.05456E-01-2.01530E-01
 -1       294-2.05950E-09 1.04882E+00-2.75590E-01
 -1       295-2.42238E-09 8.91306E-01-2.45012E-01
 -1       296-1.42730E-08 1.38308E+00-3.73882E-01
 -1       297 1.01399E-08 1.36329E+00-4.24208E-01
 -1       298-7.13688E-09 1.38308E+00-3.73882E-01
 -1       299 5.06973E-09 1.36329E+00-4.24208E-01
 -1       300 6.10631E-09 1.21627E+00-3.10072E-01
 -1       301-2.06825E-09 1.37319E+00-3.99044E-01
 -1       302-3.87923E-09 1.19835E+00-3.58314E-01
 -1       303-1.84413E-08 1.73634E+00-5.20178E-01
 -1       304 1.63957E-08 1.71292E+00-5.74146E-01
 -1       305-9.22094E-09 1.73634E+00-5.20178E-01
 -1       306 8.19773E-09 1.71292E+00-5.74146E-01
 -1       307 8.16792E-09 1.55663E+00-4.43957E-01
 -1       308-1.02520E-09 1.72463E+00-5.47161E-01
 -1       309-6.24903E-09 1.53501E+00-4.96189E-01
 -1       310-2.22294E-08 2.11209E+00-6.90417E-01
 -1       311 2.66164E-08 2.08524E+00-7.47406E-01
 -1       312-1.11149E-08 2.11209E+00-6.90417E-01
 -1       313 1.33082E-08 2.08524E+00-7.47406E-01
 -1       314 1.02779E-08 1.92167E+00-6.02390E-01
 -1       315 2.19027E-09 2.09867E+00-7.18910E-01
 -1       316-1.01285E-08 1.89650E+00-6.57942E-01
 -1       317-2.43009E-08 2.50643E+00-8.83088E-01
 -1       318 4.31947E-08 2.47639E+00-9.42567E-01
 -1       319-1.21504E-08 2.50643E+00-8.83089E-01
 -1       320 2.15975E-08 2.47639E+00-9.42567E-01
 -1       321 1.19608E-08 2.30716E+00-7.84055E-01
 -1       322 9.44198E-09 2.49141E+00-9.12827E-01
 -1       323-1.64606E-08 2.27868E+00-8.42351E-01
 -1       324-2.23738E-08 2.91604E+00-1.09640E+00
 -1       325 6.97240E-08 2.88309E+00-1.15791E+00
 -1       326-1.11870E-08 2.91604E+00-1.09640E+00
 -1       327 3.48622E-08 2.88309E+00-1.15791E+00
 -1       328 1.23553E-08 2.70952E+00-9.87283E-01
 -1       329 2.36703E-08 2.89957E+00-1.12716E+00
 -1       330-2.66951E-08 2.67798E+00-1.04783E+00
 -1       331-1.28614E-08 3.33812E+00-1.32837E+00
 -1       332 1.11444E-07 3.30256E+00-1.39155E+00
 -1       333-6.43071E-09 3.33812E+00-1.32837E+00
 -1       334 5.57220E-08 3.30256E+00-1.39155E+00
 -1       335 1.00393E-08 3.12568E+00-1.21018E+00
 -1       336 4.92778E-08 3.32034E+00-1.35996E+00
 -1       337-4.29772E-08 3.09139E+00-1.27257E+00
 -1       338 9.49642E-09 3.77030E+00-1.57693E+00
 -1       339 1.75563E-07 3.73245E+00-1.64145E+00
 -1       340 4.74544E-09 3.77030E+00-1.57693E+00
 -1       341 8.77791E-08 3.73245E+00-1.64145E+00
 -1       342 2.84680E-09 3.55308E+00-1.45071E+00
 -1       343 9.25381E-08 3.75138E+00-1.60919E+00
 -1       344-6.84009E-08 3.51633E+00-1.51459E+00
 -1       345 5.17817E-08 4.21060E+00-1.83997E+00
 -1       346 2.71887E-07 4.17076E+00-1.90555E+00
 -1       347 2.58903E-08 4.21060E+00-1.83997E+00
 -1       348 1.35943E-07 4.17076E+00-1.90555E+00
 -1       349-1.23282E-08 3.98955E+00-1.70678E+00
 -1       350 1.61746E-07 4.19068E+00-1.87276E+00
 -1       351-1.07096E-07 3.95066E+00-1.77186E+00
 -1       352 1.22784E-07 4.65733E+00-2.11536E+00
 -1       353 4.11350E-07 4.61582E+00-2.18178E+00
 -1       354 6.13686E-08 4.65733E+00-2.11536E+00
 -1       355 2.05650E-07 4.61582E+00-2.18178E+00
 -1       356-3.94512E-08 4.43326E+00-1.97625E+00
 -1       357 2.67328E-07 4.63658E+00-2.14857E+00
 -1       358-1.64712E-07 4.39254E+00-2.04228E+00
 -1       359 2.31248E-07 5.10907E+00-2.40098E+00
 -1       360 6.09682E-07 5.06620E+00-2.46804E+00
 -1       361 1.15643E-07 5.10907E+00-2.40098E+00
 -1       362 3.04881E-07 5.06620E+00-2.46804E+00
 -1       363-8.34462E-08 4.88265E+00-2.25702E+00
 -1       364 4.19373E-07 5.08764E+00-2.43451E+00
 -1       365-2.46691E-07 4.84043E+00-2.32379E+00
 -1       366 3.84111E-07 5.56459E+00-2.69474E+00
 -1       367 8.66561E-07 5.52067E+00-2.76228E+00
 -1       368 1.91889E-07 5.56459E+00-2.69474E+00
 -1       369 4.32983E-07 5.52067E+00-2.76228E+00
 -1       370-1.47863E-07 5.33642E+00-2.54697E+00
 -1       371 6.29381E-07 5.54263E+00-2.72851E+00
 -1       372-3.62835E-07 5.29300E+00-2.61429E+00
 -1       373 5.75566E-07 6.02281E+00-2.99458E+00
 -1       374 1.22570E-06 5.97815E+00-3.06244E+00
 -1       375 2.88068E-07 6.02281E+00-2.99458E+00
 -1       376 6.13818E-07 5.97815E+00-3.06244E+00
 -1       377-2.37262E-07 5.79342E+00-2.84402E+00
 -1       378 8.84933E-07 6.00048E+00-3.02851E+00
 -1       379-5.04932E-07 5.74910E+00-2.91175E+00
 -1       380 7.85968E-07 6.48278E+00-3.29845E+00
 -1       381 1.51436E-06 6.43767E+00-3.36651E+00
 -1       382 3.91912E-07 6.48278E+00-3.29845E+00
 -1       383 7.52814E-07 6.43767E+00-3.36651E+00
 -1       384-3.37159E-07 6.25263E+00-3.14614E+00
 -1       385 1.21025E-06 6.46023E+00-3.33248E+00
 -1       386-7.18154E-07 6.20771E+00-3.21412E+00
 -1       387 9.34178E-07 6.94360E+00-3.60434E+00
 -1       388 2.25874E-06 6.89835E+00-3.67246E+00
 -1       389 4.68940E-07 6.94360E+00-3.60434E+00
 -1       390 1.14626E-06 6.89835E+00-3.67246E+00
 -1       391-4.58077E-07 6.71314E+00-3.45127E+00
 -1       392 1.36455E-06 6.92098E+00-3.63840E+00
 -1       393-8.09311E-07 6.66792E+00-3.51938E+00
 -1       394 0.00000E+00 0.00000E+00 0.00000E+00
 -1       395 1.16197E-09 3.58415E-02 8.46824E-03
 -1       396 0.00000E+00 0.00000E+00 0.00000E+00
 -1       397-6.18172E-14 3.58415E-02 8.46824E-03
 -1       398 0.00000E+00 0.00000E+00 0.00000E+00
 -1       399-3.44792E-10 9.12964E-03 4.95561E-03
 -1       400 8.43610E-10 3.54868E-02 3.36265E-03
 -1       401 0.00000E+00 0.00000E+00 0.00000E+00
 -1       402 5.80698E-10 3.58415E-02 8.46824E-03
 -1       403 0.00000E+00 0.00000E+00 0.00000E+00
 -1       404-1.83109E-14 9.12964E-03 4.95561E-03
 -1       405-5.57376E-14 3.54868E-02 3.36265E-03
 -1       406 1.92250E-09 1.38623E-01 6.97093E-03
 -1       407-2.17429E-13 1.38623E-01 6.97094E-03
 -1       408-8.19173E-10 7.93185E-02 9.45369E-03
 -1       409 1.67379E-09 1.37321E-01-2.74098E-03
 -1       410 9.60897E-10 1.38623E-01 6.97094E-03
 -1       411-1.28798E-13 7.93185E-02 9.45369E-03
 -1       412-2.05001E-13 1.37321E-01-2.74098E-03
 -1       413 2.27272E-09 3.01030E-01-1.14137E-02
 -1       414-4.55635E-13 3.01030E-01-1.14137E-02
 -1       415-1.10621E-09 2.12843E-01 2.35778E-04
 -1       416 2.52194E-09 2.98357E-01-2.52041E-02
 -1       417 1.13580E-09 3.01030E-01-1.14137E-02
 -1       418-3.27003E-13 2.12843E-01 2.35773E-04
 -1       419-4.37227E-13 2.98357E-01-2.52041E-02
 -1       420 2.06566E-09 5.15597E-01-5.14432E-02
 -1       421-7.65851E-13 5.15597E-01-5.14432E-02
 -1       422-1.17080E-09 4.02254E-01-2.84997E-02
 -1       423 3.36408E-09 5.11272E-01-6.87847E-02
 -1       424 1.03200E-09 5.15597E-01-5.14432E-02
 -1       425-6.02340E-13 4.02254E-01-2.84997E-02
 -1       426-7.42009E-13 5.11272E-01-6.87847E-02
 -1       427 9.71650E-10 7.75111E-01-1.16040E-01
 -1       428-1.13561E-12 7.75111E-01-1.16040E-01
 -1       429-9.01134E-10 6.40167E-01-8.05481E-02
 -1       430 4.08357E-09 7.68972E-01-1.36432E-01
 -1       431 4.84658E-10 7.75111E-01-1.16040E-01
 -1       432-9.44069E-13 6.40167E-01-8.05481E-02
 -1       433-1.10708E-12 7.68972E-01-1.36432E-01
 -1       434-1.59579E-09 1.07288E+00-2.06646E-01
 -1       435-1.55535E-12 1.07288E+00-2.06646E-01
 -1       436-7.94773E-11 9.19606E-01-1.58048E-01
 -1       437 4.41186E-09 1.06486E+00-2.29629E-01
 -1       438-7.99475E-10 1.07288E+00-2.06646E-01
 -1       439-1.34047E-12 9.19606E-01-1.58048E-01
 -1       440-1.52310E-12 1.06486E+00-2.29629E-01
 -1       441-6.59139E-09 1.40287E+00-3.23556E-01
 -1       442-2.01949E-12 1.40287E+00-3.23556E-01
 -1       443 1.66285E-09 1.23420E+00-2.61829E-01
 -1       444 3.83684E-09 1.39298E+00-3.48721E-01
 -1       445-3.29776E-09 1.40287E+00-3.23556E-01
 -1       446-1.78465E-12 1.23420E+00-2.61829E-01
 -1       447-1.98279E-12 1.39298E+00-3.48721E-01
 -1       448-1.54960E-08 1.75977E+00-4.66209E-01
 -1       449-2.51553E-12 1.75977E+00-4.66209E-01
 -1       450 4.91189E-09 1.57826E+00-3.91725E-01
 -1       451 1.46740E-09 1.74805E+00-4.93195E-01
 -1       452-7.75056E-09 1.75977E+00-4.66209E-01
 -1       453-2.26375E-12 1.57826E+00-3.91725E-01
 -1       454-2.47623E-12 1.74805E+00-4.93195E-01
 -1       455-3.05287E-08 2.13895E+00-6.33427E-01
 -1       456-3.03488E-12 2.13895E+00-6.33427E-01
 -1       457 1.05626E-08 1.94683E+00-5.46838E-01
 -1       458-4.15615E-09 2.12552E+00-6.61923E-01
 -1       459-1.52674E-08 2.13895E+00-6.33427E-01
 -1       460-2.77322E-12 1.94683E+00-5.46838E-01
 -1       461-2.99321E-12 2.12552E+00-6.61923E-01
 -1       462-5.49081E-08 2.53648E+00-8.23610E-01
 -1       463-3.57143E-12 2.53648E+00-8.23610E-01
 -1       464 1.99398E-08 2.33564E+00-7.25758E-01
 -1       465-1.53126E-08 2.52145E+00-8.53350E-01
 -1       466-2.74574E-08 2.53648E+00-8.23610E-01
 -1       467-3.30202E-12 2.33564E+00-7.25759E-01
 -1       468-3.52679E-12 2.52145E+00-8.53350E-01
 -1       469-9.31553E-08 2.94900E+00-1.03488E+00
 -1       470-4.13000E-12 2.94900E+00-1.03488E+00
 -1       471 3.49387E-08 2.74105E+00-9.26733E-01
 -1       472-3.53990E-08 2.93252E+00-1.06564E+00
 -1       473-4.65811E-08 2.94900E+00-1.03488E+00
 -1       474-3.84931E-12 2.74105E+00-9.26733E-01
 -1       475-4.08323E-12 2.93252E+00-1.06564E+00
 -1       476-1.51326E-07 3.37368E+00-1.26520E+00
 -1       477-4.68907E-12 3.37368E+00-1.26519E+00
 -1       478 5.81886E-08 3.15998E+00-1.14779E+00
 -1       479-6.92531E-08 3.35590E+00-1.29678E+00
 -1       480-7.56646E-08 3.37368E+00-1.26520E+00
 -1       481-4.41228E-12 3.15998E+00-1.14779E+00
 -1       482-4.64168E-12 3.35590E+00-1.29678E+00
 -1       483-2.37220E-07 3.80816E+00-1.51242E+00
 -1       484-5.24127E-12 3.80816E+00-1.51242E+00
 -1       485 9.31202E-08 3.58983E+00-1.38683E+00
 -1       486-1.23346E-07 3.78923E+00-1.54468E+00
 -1       487-1.18612E-07 3.80816E+00-1.51242E+00
 -1       488-4.97022E-12 3.58983E+00-1.38683E+00
 -1       489-5.18940E-12 3.78923E+00-1.54468E+00
 -1       490-3.59629E-07 4.25044E+00-1.77439E+00
 -1       491-5.78445E-12 4.25044E+00-1.77439E+00
 -1       492 1.44120E-07 4.02844E+00-1.64170E+00
 -1       493-2.05827E-07 4.23052E+00-1.80718E+00
 -1       494-1.79799E-07 4.25044E+00-1.77439E+00
 -1       495-5.51371E-12 4.02844E+00-1.64170E+00
 -1       496-5.73034E-12 4.23052E+00-1.80718E+00
 -1       497-5.28528E-07 4.69884E+00-2.04894E+00
 -1       498-6.30219E-12 4.69884E+00-2.04894E+00
 -1       499 2.15586E-07 4.47397E+00-1.91022E+00
 -1       500-3.25311E-07 4.67808E+00-2.08215E+00
 -1       501-2.64279E-07 4.69884E+00-2.04894E+00
 -1       502-6.04913E-12 4.47397E+00-1.91023E+00
 -1       503-6.25033E-12 4.67808E+00-2.08215E+00
 -1       504-7.46638E-07 5.15193E+00-2.33391E+00
 -1       505-6.79645E-12 5.15193E+00-2.33391E+00
 -1       506 3.13230E-07 4.92488E+00-2.19025E+00
 -1       507-4.90319E-07 5.13050E+00-2.36744E+00
 -1       508-3.73169E-07 5.15193E+00-2.33391E+00
 -1       509-6.55409E-12 4.92488E+00-2.19025E+00
 -1       510-6.74057E-12 5.13050E+00-2.36744E+00
 -1       511-1.02253E-06 5.60850E+00-2.62720E+00
 -1       512-7.26030E-12 5.60850E+00-2.62719E+00
 -1       513 4.33714E-07 5.37985E+00-2.47964E+00
 -1       514-6.98485E-07 5.58654E+00-2.66097E+00
 -1       515-5.11587E-07 5.60850E+00-2.62719E+00
 -1       516-7.03962E-12 5.37985E+00-2.47964E+00
 -1       517-7.20440E-12 5.58654E+00-2.66097E+00
 -1       518-1.28747E-06 6.06748E+00-2.92671E+00
 -1       519-7.69192E-12 6.06747E+00-2.92671E+00
 -1       520 5.90580E-07 5.83775E+00-2.77630E+00
 -1       521-9.49385E-07 6.04514E+00-2.96064E+00
 -1       522-6.42266E-07 6.06747E+00-2.92671E+00
 -1       523-7.48320E-12 5.83775E+00-2.77630E+00
 -1       524-7.63770E-12 6.04514E+00-2.96064E+00
 -1       525-1.63560E-06 6.52789E+00-3.23039E+00
 -1       526-8.12014E-12 6.52789E+00-3.23039E+00
 -1       527 6.95675E-07 6.29756E+00-3.07815E+00
 -1       528-1.14588E-06 6.50534E+00-3.26442E+00
 -1       529-8.22161E-07 6.52789E+00-3.23039E+00
 -1       530-7.90717E-12 6.29756E+00-3.07815E+00
 -1       531-8.06730E-12 6.50533E+00-3.26442E+00
 -1       532-1.32330E-06 6.98887E+00-3.53622E+00
 -1       533-8.52563E-12 6.98886E+00-3.53622E+00
 -1       534 9.54637E-07 6.75836E+00-3.38316E+00
 -1       535-1.36716E-06 6.96623E+00-3.57028E+00
 -1       536-6.45949E-07 6.98887E+00-3.53622E+00
 -1       537-8.33104E-12 6.75836E+00-3.38316E+00
 -1       538-8.46870E-12 6.96623E+00-3.57028E+00
 -1       539 0.00000E+00 0.00000E+00 0.00000E+00
 -1       540-1.16209E-09 3.58415E-02 8.46824E-03
 -1       541 0.00000E+00 0.00000E+00 0.00000E+00
 -1       542-5.80822E-10 3.58415E-02 8.46824E-03
 -1       543 0.00000E+00 0.00000E+00 0.00000E+00
 -1       544 3.44756E-10 9.12964E-03 4.95561E-03
 -1       545-8.43722E-10 3.54868E-02 3.36265E-03
 -1       546-1.92294E-09 1.38623E-01 6.97093E-03
 -1       547-9.61332E-10 1.38623E-01 6.97094E-03
 -1       548 8.18915E-10 7.93185E-02 9.45369E-03
 -1       549-1.67420E-09 1.37321E-01-2.74098E-03
 -1       550-2.27364E-09 3.01030E-01-1.14137E-02
 -1       551-1.13671E-09 3.01030E-01-1.14137E-02
 -1       552 1.10555E-09 2.12843E-01 2.35778E-04
 -1       553-2.52282E-09 2.98357E-01-2.52041E-02
 -1       554-2.06719E-09 5.15597E-01-5.14432E-02
 -1       555-1.03353E-09 5.15597E-01-5.14432E-02
 -1       556 1.16960E-09 4.02254E-01-2.84997E-02
 -1       557-3.36557E-09 5.11272E-01-6.87847E-02
 -1       558-9.73922E-10 7.75111E-01-1.16040E-01
 -1       559-4.86930E-10 7.75111E-01-1.16040E-01
 -1       560 8.99246E-10 6.40167E-01-8.05481E-02
 -1       561-4.08578E-09 7.68972E-01-1.36432E-01
 -1       562 1.59268E-09 1.07288E+00-2.06646E-01
 -1       563 7.96363E-10 1.07288E+00-2.06646E-01
 -1       564 7.67967E-11 9.19606E-01-1.58048E-01
 -1       565-4.41490E-09 1.06486E+00-2.29629E-01
 -1       566 6.58735E-09 1.40287E+00-3.23556E-01
 -1       567 3.29372E-09 1.40287E+00-3.23556E-01
 -1       568-1.66642E-09 1.23420E+00-2.61829E-01
 -1       569-3.84081E-09 1.39298E+00-3.48721E-01
 -1       570 1.54909E-08 1.75977E+00-4.66209E-01
 -1       571 7.74553E-09 1.75977E+00-4.66209E-01
 -1       572-4.91642E-09 1.57826E+00-3.91725E-01
 -1       573-1.47235E-09 1.74805E+00-4.93195E-01
 -1       574 3.05226E-08 2.13895E+00-6.33427E-01
 -1       575 1.52614E-08 2.13895E+00-6.33427E-01
 -1       576-1.05682E-08 1.94683E+00-5.46838E-01
 -1       577 4.15017E-09 2.12552E+00-6.61923E-01
 -1       578 5.49010E-08 2.53648E+00-8.23610E-01
 -1       579 2.74502E-08 2.53648E+00-8.23610E-01
 -1       580-1.99464E-08 2.33564E+00-7.25758E-01
 -1       581 1.53056E-08 2.52145E+00-8.53350E-01
 -1       582 9.31471E-08 2.94900E+00-1.03488E+00
 -1       583 4.65729E-08 2.94900E+00-1.03488E+00
 -1       584-3.49464E-08 2.74105E+00-9.26733E-01
 -1       585 3.53909E-08 2.93252E+00-1.06564E+00
 -1       586 1.51317E-07 3.37368E+00-1.26520E+00
 -1       587 7.56552E-08 3.37368E+00-1.26520E+00
 -1       588-5.81974E-08 3.15998E+00-1.14779E+00
 -1       589 6.92438E-08 3.35590E+00-1.29678E+00
 -1       590 2.37209E-07 3.80816E+00-1.51242E+00
 -1       591 1.18602E-07 3.80816E+00-1.51242E+00
 -1       592-9.31301E-08 3.58983E+00-1.38683E+00
 -1       593 1.23336E-07 3.78923E+00-1.54468E+00
 -1       594 3.59617E-07 4.25044E+00-1.77439E+00
 -1       595 1.79787E-07 4.25044E+00-1.77439E+00
 -1       596-1.44131E-07 4.02844E+00-1.64170E+00
 -1       597 2.05816E-07 4.23052E+00-1.80718E+00
 -1       598 5.28515E-07 4.69884E+00-2.04894E+00
 -1       599 2.64266E-07 4.69884E+00-2.04894E+00
 -1       600-2.15598E-07 4.47397E+00-1.91022E+00
 -1       601 3.25299E-07 4.67808E+00-2.08215E+00
 -1       602 7.46625E-07 5.15193E+00-2.33391E+00
 -1       603 3.73156E-07 5.15193E+00-2.33391E+00
 -1       604-3.13243E-07 4.92488E+00-2.19025E+00
 -1       605 4.90306E-07 5.13050E+00-2.36744E+00
 -1       606 1.02252E-06 5.60850E+00-2.62720E+00
 -1       607 5.11572E-07 5.60850E+00-2.62719E+00
 -1       608-4.33728E-07 5.37985E+00-2.47964E+00
 -1       609 6.98471E-07 5.58654E+00-2.66097E+00
 -1       610 1.28745E-06 6.06748E+00-2.92671E+00
 -1       611 6.42250E-07 6.06747E+00-2.92671E+00
 -1       612-5.90595E-07 5.83775E+00-2.77630E+00
 -1       613 9.49370E-07 6.04514E+00-2.96064E+00
 -1       614 1.63558E-06 6.52789E+00-3.23039E+00
 -1       615 8.22145E-07 6.52789E+00-3.23039E+00
 -1       616-6.95691E-07 6.29756E+00-3.07815E+00
 -1       617 1.14586E-06 6.50534E+00-3.26442E+00
 -1       618 1.32328E-06 6.98887E+00-3.53622E+00
 -1       619 6.45932E-07 6.98887E+00-3.53622E+00
 -1       620-9.54654E-07 6.75836E+00-3.38316E+00
 -1       621 1.36715E-06 6.96623E+00-3.57028E+00
 -3
    1PSTEP                        18           9           1          
  100CL  109 4.50000E-01         621                     0    9           1
 -4  STRESS      6    1
 -5  SXX         1    4    1    1
 -5  SYY         1    4    2    2
 -5  SZZ         1    4    3    3
 -5  SXY         1    4    1    2
 -5  SYZ         1    4    2    3
 -5  SZX         1    4    3    1
 -1         1 3.37889E-01-1.14267E+04-2.10048E+06 8.76896E-01-1.79576E+03 7.26567E-01
 -1         2-4.70231E-01-1.67232E+04-3.45298E+04-7.56810E-02 8.02075E+03-1.30888E+00
 -1         3-1.24563E-01-2.19932E+04-3.20503E+04-6.38180E-02 1.47796E+04-1.18390E-01
 -1         4 3.81476E-02-3.30083E+04-1.90074E+06 1.14225E-01-2.69784E+05 4.40809E-02
 -1         5 3.37889E-01-1.14280E+04-2.10048E+06-3.37346E-08-1.79723E+03 7.48514E-07
 -1         6-4.70231E-01-1.67237E+04-3.45289E+04 1.61657E-08 8.02126E+03 2.50948E-08
 -1         7-1.22579E-01-2.19931E+04-3.20494E+04 5.27228E-08 1.47799E+04 2.75816E-08
 -1         8 3.74563E-02-3.30085E+04-1.90074E+06 1.88181E-07-2.69784E+05 1.59052E-06
 -1         9-6.62167E-02-1.40762E+04-1.06728E+06 4.02764E-01 3.70372E+03-2.87887E-01
 -1        10 5.81401E-02-1.80327E+04-3.23850E+04 2.30529E-02 1.12631E+04 3.71410E-02
 -1        11-4.32774E-02-2.75285E+04-9.66283E+05 6.00076E-02-1.27680E+05-4.48296E-02
 -1        12-1.33801E-02-2.01953E+04-2.00276E+06-4.80628E-02-1.34879E+05-1.63365E-02
 -1        13 3.37889E-01-1.14274E+04-2.10048E+06 7.36546E-01-1.79650E+03 7.01912E-01
 -1        14-4.70231E-01-1.67235E+04-3.45294E+04-2.04804E-01 8.02101E+03-1.25983E+00
 -1        15-1.23571E-01-2.19931E+04-3.20498E+04-3.74390E-02 1.47798E+04-4.59814E-02
 -1        16 3.78020E-02-3.30084E+04-1.90074E+06 7.74268E-02-2.69784E+05 1.84880E-02
 -1        17-6.62167E-02-1.40775E+04-1.06728E+06-1.63054E-08 3.70244E+03 3.85283E-07
 -1        18 5.91323E-02-1.80328E+04-3.23854E+04 5.12424E-08 1.12630E+04 1.61757E-08
 -1        19-4.26237E-02-2.75286E+04-9.66282E+05 1.46867E-07-1.27680E+05 7.14274E-07
 -1        20-1.37258E-02-2.01952E+04-2.00276E+06 1.12526E-07-1.34879E+05 1.15145E-06
 -1        21-1.48489E-01-1.13612E+04-2.88101E+04-1.15769E-01 1.08231E+04-1.98125E-01
 -1        22 6.52961E-02-1.23497E+05-1.65431E+06 1.63964E-01-4.52918E+05 7.18497E-02
 -1        23-1.47796E-01-1.13611E+04-2.88094E+04-6.81511E-09 1.08236E+04 3.28837E-08
 -1        24 6.40123E-02-1.23497E+05-1.65431E+06 5.71536E-07-4.52919E+05 1.39417E-06
 -1        25 6.68260E-02-1.62572E+04-3.04690E+04 4.25598E-02 1.26478E+04 7.97160E-02
 -1        26-4.16857E-02-6.74436E+04-8.41503E+05 6.30112E-02-2.21118E+05-8.08569E-02
 -1        27-2.51651E-02-7.81225E+04-1.77699E+06-6.77033E-02-3.62762E+05-2.84074E-02
 -1        28-1.48143E-01-1.13611E+04-2.88097E+04-6.21111E-02 1.08234E+04-9.37667E-02
 -1        29 6.46542E-02-1.23497E+05-1.65431E+06 1.07624E-01-4.52918E+05 4.33664E-02
 -1        30 6.81649E-02-1.62573E+04-3.04693E+04 1.69013E-09 1.26477E+04 2.35771E-08
 -1        31-4.19760E-02-6.74437E+04-8.41503E+05 1.65519E-07-2.21118E+05 6.82176E-07
 -1        32-2.61527E-02-7.81224E+04-1.77699E+06 3.12867E-07-3.62762E+05 1.51974E-06
 -1        33-1.81459E-01-6.74201E+03-2.62000E+04-1.90876E-01 9.36777E+03-2.64544E-01
 -1        34 1.06180E-01-2.26328E+05-1.39513E+06 2.38306E-01-5.63879E+05 1.08637E-01
 -1        35-1.81398E-01-6.74181E+03-2.61995E+04-9.82822E-08 9.36830E+03-4.13642E-09
 -1        36 1.04031E-01-2.26328E+05-1.39513E+06 7.19733E-07-5.63879E+05 1.49121E-06
 -1        37 8.22833E-02-9.04569E+03-2.75617E+04 7.46808E-02 9.85588E+03 1.16564E-01
 -1        38-3.76746E-02-1.16552E+05-7.10626E+05 7.09232E-02-2.77264E+05-1.09004E-01
 -1        39-4.08960E-02-1.75326E+05-1.52394E+06-9.81384E-02-5.09110E+05-4.43411E-02
 -1        40-1.81429E-01-6.74191E+03-2.61997E+04-9.41317E-02 9.36803E+03-1.27435E-01
 -1        41 1.05106E-01-2.26328E+05-1.39513E+06 1.53358E-01-5.63879E+05 7.44181E-02
 -1        42 8.26605E-02-9.04577E+03-2.75620E+04-1.71192E-07 9.85563E+03 2.40003E-08
 -1        43-3.87135E-02-1.16552E+05-7.10626E+05 3.65054E-07-2.77264E+05 6.69155E-07
 -1        44-4.26125E-02-1.75326E+05-1.52394E+06 7.13994E-07-5.09110E+05 1.47669E-06
 -1        45-2.13510E-01-2.13120E+03-2.33196E+04-2.83499E-01 7.16996E+03-3.10928E-01
 -1        46 1.74871E-01-3.25504E+05-1.14762E+06 3.46371E-01-6.12045E+05 1.60374E-01
 -1        47-2.14704E-01-2.13096E+03-2.33193E+04 4.05001E-08 7.17054E+03 2.00981E-08
 -1        48 1.71454E-01-3.25505E+05-1.14762E+06 1.12146E-06-6.12046E+05 1.32563E-06
 -1        49 9.99933E-02-4.64507E+03-2.48651E+04 1.17193E-01 8.11017E+03 1.45432E-01
 -1        50-1.93030E-02-1.63825E+05-5.85446E+05 9.08786E-02-3.02433E+05-1.25253E-01
 -1        51-6.65525E-02-2.76444E+05-1.27056E+06-1.42638E-01-5.88176E+05-6.57324E-02
 -1        52-2.14107E-01-2.13108E+03-2.33195E+04-1.27863E-01 7.17025E+03-1.42444E-01
 -1        53 1.73162E-01-3.25505E+05-1.14762E+06 2.18579E-01-6.12045E+05 1.15474E-01
 -1        54 9.94267E-02-4.64519E+03-2.48653E+04-1.02041E-08 8.10989E+03-2.08378E-08
 -1        55-2.16038E-02-1.63826E+05-5.85446E+05 6.13268E-07-3.02434E+05 6.67801E-07
 -1        56-6.93357E-02-2.76443E+05-1.27056E+06 7.49503E-07-5.88175E+05 1.37594E-06
 -1        57-2.29963E-01 1.11488E+03-2.05687E+04-3.82983E-01 5.36380E+03-3.25281E-01
 -1        58 2.91950E-01-4.06743E+05-9.25201E+05 5.03895E-01-6.14049E+05 2.38299E-01
 -1        59-2.32976E-01 1.11509E+03-2.05686E+04-1.60223E-07 5.36435E+03-3.78808E-07
 -1        60 2.86629E-01-4.06744E+05-9.25202E+05-8.99259E-08-6.14049E+05 1.51121E-06
 -1        61 1.14484E-01-8.05532E+02-2.19970E+04 1.66528E-01 6.20088E+03 1.61759E-01
 -1        62 3.11058E-02-2.02818E+05-4.72871E+05 1.35857E-01-3.04337E+05-1.20121E-01
 -1        63-1.10423E-01-3.66582E+05-1.03585E+06-2.07148E-01-6.12959E+05-9.68712E-02
 -1        64-2.31470E-01 1.11499E+03-2.05687E+04-1.54456E-01 5.36407E+03-1.31309E-01
 -1        65 2.89290E-01-4.06744E+05-9.25202E+05 3.09397E-01-6.14049E+05 1.73003E-01
 -1        66 1.12380E-01-8.05655E+02-2.19971E+04 2.87128E-09 6.20060E+03-2.62043E-07
 -1        67 2.69441E-02-2.02819E+05-4.72871E+05-1.59364E-07-3.04337E+05 4.93777E-07
 -1        68-1.14792E-01-3.66582E+05-1.03585E+06 7.76663E-07-6.12959E+05 1.41043E-06
 -1        69-2.06826E-01 3.60954E+03-1.78950E+04-4.69121E-01 3.77035E+03-2.89270E-01
 -1        70 4.88471E-01-4.64876E+05-7.34131E+05 7.36224E-01-5.84531E+05 3.59521E-01
 -1        71-2.12569E-01 3.60959E+03-1.78953E+04 1.17988E-07 3.77076E+03 2.83122E-07
 -1        72 4.80364E-01-4.64877E+05-7.34132E+05 9.55212E-07-5.84532E+05 3.47156E-07
 -1        73 1.16448E-01 2.06743E+03-1.92636E+04 2.15430E-01 4.58112E+03 1.58023E-01
 -1        74 1.41096E-01-2.30637E+05-3.76002E+05 2.28505E-01-2.90377E+05-7.80805E-02
 -1        75-1.85015E-01-4.36146E+05-8.29348E+05-3.01527E-01-5.99072E+05-1.44708E-01
 -1        76-2.09697E-01 3.60957E+03-1.78952E+04-1.60512E-01 3.77055E+03-8.32048E-02
 -1        77 4.84417E-01-4.64877E+05-7.34132E+05 4.34484E-01-5.84531E+05 2.56311E-01
 -1        78 1.12070E-01 2.06735E+03-1.92636E+04-3.07774E-08 4.58087E+03 8.18232E-09
 -1        79 1.34176E-01-2.30637E+05-3.76003E+05 1.97133E-07-2.90377E+05 3.54841E-07
 -1        80-1.91729E-01-4.36145E+05-8.29348E+05 1.37238E-07-5.99072E+05 1.03780E-06
 -1        81-1.06656E-01 5.44095E+03-1.54139E+04-5.07502E-01 2.48307E+03-1.77509E-01
 -1        82 8.10708E-01-4.99057E+05-5.75255E+05 1.08140E+00-5.35996E+05 5.47970E-01
 -1        83-1.16242E-01 5.44064E+03-1.54147E+04-4.33411E-08 2.48321E+03 3.12058E-08
 -1        84 7.98685E-01-4.99058E+05-5.75256E+05 2.39323E-06-5.35997E+05 1.14404E-06
 -1        85 9.10409E-02 4.27190E+03-1.66817E+04 2.50812E-01 3.19173E+03 1.23355E-01
 -1        86 3.52543E-01-2.46812E+05-2.95325E+05 4.05004E-01-2.66754E+05 2.32549E-02
 -1        87-3.09189E-01-4.82187E+05-6.54565E+05-4.41216E-01-5.60018E+05-2.19355E-01
 -1        88-1.11449E-01 5.44080E+03-1.54143E+04-1.26937E-01 2.48314E+03 1.60820E-02
 -1        89 8.04696E-01-4.99057E+05-5.75256E+05 6.04333E-01-5.35997E+05 3.77559E-01
 -1        90 8.33765E-02 4.27195E+03-1.66815E+04 2.13155E-08 3.19158E+03-6.61100E-09
 -1        91 3.41742E-01-2.46813E+05-2.95325E+05 9.97336E-07-2.66755E+05 2.33912E-07
 -1        92-3.19254E-01-4.82186E+05-6.54565E+05 1.97746E-06-5.60018E+05 8.97875E-07
 -1        93 1.26460E-01 6.79538E+03-1.31633E+04-4.44136E-01 1.46504E+03 4.27560E-02
 -1        94 1.32510E+00-5.11385E+05-4.46376E+05 1.59344E+00-4.77867E+05 8.35409E-01
 -1        95 1.11685E-01 6.79441E+03-1.31646E+04 7.30076E-07 1.46472E+03-1.12750E-07
 -1        96 1.30789E+00-5.11387E+05-4.46377E+05 1.88076E-06-4.77868E+05 9.21857E-07
 -1        97 1.54087E-02 5.91725E+03-1.43224E+04 2.51359E-01 2.06361E+03 4.32302E-02
 -1        98 7.26704E-01-2.52299E+05-2.29761E+05 7.19306E-01-2.38200E+05 2.13889E-01
 -1        99-5.10788E-01-5.05353E+05-5.10811E+05-6.48563E-01-5.06708E+05-3.34543E-01
 -1       100 1.19073E-01 6.79489E+03-1.31640E+04-2.88471E-02 1.46488E+03 1.83646E-01
 -1       101 1.31649E+00-5.11386E+05-4.46377E+05 8.28643E-01-4.77868E+05 5.51579E-01
 -1       102 3.22806E-03 5.91754E+03-1.43218E+04-2.34570E-07 2.06365E+03-2.41795E-09
 -1       103 7.10717E-01-2.52300E+05-2.29762E+05 9.33706E-07-2.38201E+05 6.61876E-07
 -1       104-5.25403E-01-5.05352E+05-5.10811E+05 2.80218E-06-5.06708E+05 6.63446E-07
 -1       105 5.70928E-01 7.79055E+03-1.11714E+04-2.02770E-01 6.86273E+02 4.11107E-01
 -1       106 2.12352E+00-5.05250E+05-3.43753E+05 2.34063E+00-4.16778E+05 1.26191E+00
 -1       107 5.50084E-01 7.78857E+03-1.11734E+04-1.15807E-06 6.85290E+02-1.19366E-07
 -1       108 2.10005E+00-5.05251E+05-3.43754E+05 3.99955E-06-4.16780E+05 7.51189E-07
 -1       109-1.43907E-01 7.14060E+03-1.22096E+04 1.84702E-01 1.17140E+03-1.00494E-01
 -1       110 1.34858E+00-2.48734E+05-1.77454E+05 1.24357E+00-2.08044E+05 5.31660E-01
 -1       111-8.29047E-01-5.08389E+05-3.95131E+05-9.54575E-01-4.47140E+05-5.08080E-01
 -1       112 5.60506E-01 7.78956E+03-1.11724E+04 1.61865E-01 6.85781E+02 4.38335E-01
 -1       113 2.11178E+00-5.05251E+05-3.43753E+05 1.11031E+00-4.16779E+05 7.94817E-01
 -1       114-1.61717E-01 7.14130E+03-1.22088E+04-1.33618E-07 1.17172E+03-2.56963E-07
 -1       115 1.32643E+00-2.48735E+05-1.77455E+05 1.30924E-06-2.08046E+05 1.42985E-07
 -1       116-8.49384E-01-5.08388E+05-3.95131E+05 1.80860E-06-4.47139E+05 9.63906E-07
 -1       117 1.32995E+00 8.52294E+03-9.44158E+03 3.19928E-01 1.04019E+02 9.71320E-01
 -1       118 3.32249E+00-4.84399E+05-2.63156E+05 3.40946E+00-3.57022E+05 1.87601E+00
 -1       119 1.30194E+00 8.51960E+03-9.44436E+03-2.11906E-07 1.02186E+02 2.78828E-07
 -1       120 3.29229E+00-4.84399E+05-2.63158E+05-2.03844E-06-3.57025E+05-7.42070E-08
 -1       121-4.32350E-01 8.04396E+03-1.03553E+04 7.81092E-03 4.86661E+02-3.28998E-01
 -1       122 2.32876E+00-2.37942E+05-1.36292E+05 2.07215E+00-1.78458E+05 1.02185E+00
 -1       123-1.31730E+00-4.94857E+05-3.03557E+05-1.39512E+00-3.86761E+05-7.61870E-01
 -1       124 1.31595E+00 8.52127E+03-9.44297E+03 4.70149E-01 1.03103E+02 7.97116E-01
 -1       125 3.30739E+00-4.84399E+05-2.63157E+05 1.43234E+00-3.57024E+05 1.12390E+00
 -1       126-4.56780E-01 8.04525E+03-1.03541E+04-4.77550E-07 4.87362E+02 6.19919E-08
 -1       127 2.29965E+00-2.37943E+05-1.36294E+05 1.54047E-08-1.78460E+05 1.97295E-07
 -1       128-1.34414E+00-4.94857E+05-3.03556E+05 1.53541E-06-3.86760E+05 3.73411E-07
 -1       129 2.52269E+00 9.06242E+03-7.96432E+03 1.22919E+00-3.21537E+02 1.76701E+00
 -1       130 5.06613E+00-4.52364E+05-2.00475E+05 4.85532E+00-3.01115E+05 2.72906E+00
 -1       131 2.49205E+00 9.05754E+03-7.96792E+03 8.50979E-07-3.24349E+02-6.48229E-07
 -1       132 5.03185E+00-4.52363E+05-2.00478E+05 8.19164E-07-3.01118E+05 1.98544E-06
 -1       133-9.08600E-01 8.70998E+03-8.75513E+03-3.37667E-01-2.58992E+01-6.64327E-01
 -1       134 3.79650E+00-2.21655E+05-1.04215E+05 3.28464E+00-1.50717E+05 1.73241E+00
 -1       135-2.04023E+00-4.68392E+05-2.31931E+05-2.01794E+00-3.28968E+05-1.12167E+00
 -1       136 2.50737E+00 9.05998E+03-7.96612E+03 9.00176E-01-3.22943E+02 1.27287E+00
 -1       137 5.04899E+00-4.52363E+05-2.00477E+05 1.73621E+00-3.01116E+05 1.54859E+00
 -1       138-9.37928E-01 8.71202E+03-8.75353E+03-3.89926E-07-2.47324E+01-6.80142E-08
 -1       139 3.76404E+00-2.21655E+05-1.04217E+05 8.53793E-07-1.50720E+05 5.75173E-07
 -1       140-2.07247E+00-4.68392E+05-2.31930E+05 9.61792E-07-3.28967E+05 1.38334E-07
 -1       141 4.27304E+00 9.46070E+03-6.72140E+03 2.66708E+00-6.26428E+02 2.82499E+00
 -1       142 7.47556E+00-4.12192E+05-1.52026E+05 6.79034E+00-2.50294E+05 3.87974E+00
 -1       143 4.23628E+00 9.45460E+03-6.72579E+03-9.18691E-07-6.30171E+02 9.02237E-07
 -1       144 7.43903E+00-4.12185E+05-1.52029E+05-2.63211E-06-2.50297E+05-1.90505E-06
 -1       145-1.63321E+00 9.20092E+03-7.39557E+03-8.95055E-01-4.00192E+02-1.12709E+00
 -1       146 5.88332E+00-2.01369E+05-7.93702E+04 5.00493E+00-1.25458E+05 2.71319E+00
 -1       147-3.07670E+00-4.32276E+05-1.76365E+05-2.82641E+00-2.75636E+05-1.61235E+00
 -1       148 4.25466E+00 9.45765E+03-6.72359E+03 1.41363E+00-6.28300E+02 1.85372E+00
 -1       149 7.45730E+00-4.12188E+05-1.52027E+05 1.87385E+00-2.50295E+05 2.07383E+00
 -1       150-1.66691E+00 9.20368E+03-7.39356E+03 8.32436E-07-3.98527E+02 1.91021E-07
 -1       151 5.84665E+00-2.01368E+05-7.93736E+04-2.19702E-06-1.25463E+05-3.97831E-07
 -1       152-3.11210E+00-4.32278E+05-1.76364E+05-1.88382E-06-2.75634E+05 8.57240E-07
 -1       153 6.62634E+00 9.75511E+03-5.69042E+03 4.53272E+00-8.40870E+02 4.15681E+00
 -1       154 1.07020E+01-3.66348E+05-1.14669E+05 8.83682E+00-2.04934E+05 5.32946E+00
 -1       155 6.62959E+00 9.74921E+03-5.69541E+03 5.63529E-07-8.45208E+02-2.28843E-06
 -1       156 1.06965E+01-3.66331E+05-1.14672E+05 2.38475E-07-2.04935E+05 9.30842E-07
 -1       157-2.67316E+00 9.56314E+03-6.25763E+03-1.75643E+00-6.66777E+02-1.72172E+00
 -1       158 8.65491E+00-1.78300E+05-6.01783E+04 6.99157E+00-1.02885E+05 3.97515E+00
 -1       159-4.47697E+00-3.89260E+05-1.33455E+05-3.91863E+00-2.27568E+05-2.26385E+00
 -1       160 6.62797E+00 9.75216E+03-5.69291E+03 1.85244E+00-8.43039E+02 2.53170E+00
 -1       161 1.06993E+01-3.66339E+05-1.14671E+05 1.56297E+00-2.04935E+05 2.64736E+00
 -1       162-2.68991E+00 9.56626E+03-6.25525E+03 1.62727E-07-6.64714E+02-6.80892E-07
 -1       163 8.65376E+00-1.78293E+05-6.01823E+04 1.43307E-06-1.02890E+05-5.42944E-07
 -1       164-4.49801E+00-3.89265E+05-1.33453E+05-3.42722E-06-2.27567E+05 6.47054E-07
 -1       165 9.55827E+00 9.97363E+03-4.84818E+03 7.18655E+00-9.89631E+02 5.63077E+00
 -1       166 1.44770E+01-3.16731E+05-8.58195E+04 1.17617E+01-1.64857E+05 7.19110E+00
 -1       167 9.52178E+00 9.97118E+03-4.85345E+03-2.91143E-07-9.93478E+02 2.03610E-06
 -1       168 1.44460E+01-3.16695E+05-8.58226E+04-3.07492E-06-1.64856E+05 2.71992E-06
 -1       169-3.99673E+00 9.83056E+03-5.32024E+03-2.71911E+00-8.51683E+02-2.45310E+00
 -1       170 1.20855E+01-1.53383E+05-4.53335E+04 9.79653E+00-8.29193E+04 5.56043E+00
 -1       171-6.31745E+00-3.41522E+05-1.00341E+05-4.81474E+00-1.84864E+05-3.05023E+00
 -1       172 9.54002E+00 9.97241E+03-4.85081E+03 1.94496E+00-9.91555E+02 3.11553E+00
 -1       173 1.44615E+01-3.16713E+05-8.58210E+04 1.87891E-01-1.64857E+05 3.28106E+00
 -1       174-4.01334E+00 9.83288E+03-5.31763E+03-1.02193E-06-8.49490E+02 6.80638E-07
 -1       175 1.20517E+01-1.53364E+05-4.53382E+04 1.89418E-06-8.29234E+04 1.59176E-06
 -1       176-6.33571E+00-3.41534E+05-1.00339E+05-1.20810E-06-1.84863E+05 8.50535E-07
 -1       177 1.24456E+01 1.01363E+04-4.17086E+03 8.26640E+00-1.09021E+03 7.26759E+00
 -1       178 1.91433E+01-2.64744E+05-6.33874E+04 1.05977E+01-1.29552E+05 8.83319E+00
 -1       179 1.27710E+01 1.01446E+04-4.17564E+03 1.26448E-07-1.09208E+03-4.46111E-07
 -1       180 1.94983E+01-2.64673E+05-6.33903E+04-3.70039E-06-1.29546E+05-6.60047E-07
 -1       181-5.64958E+00 1.00265E+04-4.56210E+03-4.32786E+00-9.75664E+02-3.17902E+00
 -1       182 1.55908E+01-1.27309E+05-3.37805E+04 9.73831E+00-6.53151E+04 7.11389E+00
 -1       183-8.34912E+00-2.90703E+05-7.46887E+04-6.70636E+00-1.47176E+05-4.08486E+00
 -1       184 1.26083E+01 1.01405E+04-4.17325E+03 8.61981E-01-1.09114E+03 3.80763E+00
 -1       185 1.93208E+01-2.64708E+05-6.33888E+04-3.04268E+00-1.29549E+05 3.46471E+00
 -1       186-5.50516E+00 1.00257E+04-4.55949E+03 1.31036E-06-9.74199E+02 4.68439E-07
 -1       187 1.59310E+01-1.27267E+05-3.37848E+04-3.96956E-06-6.53168E+04 7.53399E-07
 -1       188-8.18708E+00-2.90727E+05-7.46874E+04-4.18034E-06-1.47178E+05 1.00911E-07
 -1       189 1.48184E+01 1.02680E+04-3.64361E+03 1.33539E+01-1.15910E+03 7.72504E+00
 -1       190 2.12031E+01-2.11360E+05-4.57125E+04 1.91564E+01-9.83350E+04 1.19806E+01
 -1       191 1.44640E+01 1.02977E+04-3.64670E+03-4.39270E-06-1.15381E+03-6.47035E-07
 -1       192 2.05098E+01-2.11236E+05-4.57133E+04-2.44675E-06-9.83138E+04 1.38473E-06
 -1       193-6.81496E+00 1.01685E+04-3.96492E+03-3.65625E+00-1.05790E+03-4.06502E+00
 -1       194 1.88324E+01-1.00563E+05-2.46739E+04 1.65461E+01-4.97294E+04 9.22628E+00
 -1       195-1.08037E+01-2.37974E+05-5.46238E+04-3.53659E+00-1.13905E+05-4.68239E+00
 -1       196 1.46412E+01 1.02828E+04-3.64516E+03-1.86881E+00-1.15645E+03 2.86056E+00
 -1       197 2.08564E+01-2.11298E+05-4.57129E+04-1.05523E+01-9.83244E+04 4.18966E+00
 -1       198-6.82944E+00 1.01594E+04-3.96278E+03-3.43090E-06-1.05788E+03-1.29014E-06
 -1       199 1.83083E+01-1.00478E+05-2.46800E+04-2.54199E-06-4.97242E+04-3.96835E-07
 -1       200-1.09731E+01-2.38023E+05-5.46226E+04-4.36039E-07-1.13909E+05 1.93501E-06
 -1       201 1.27528E+01 1.03733E+04-3.23267E+03-4.99535E+00-1.18438E+03 9.57256E+00
 -1       202 2.71163E+01-1.57300E+05-3.14520E+04-2.37006E+01-7.03697E+04 7.83329E+00
 -1       203 1.53489E+01 1.04511E+04-3.23374E+03 6.07787E-06-1.17238E+03-1.84438E-06
 -1       204 3.18198E+01-1.57063E+05-3.14504E+04 1.85960E-06-7.03481E+04-1.26237E-06
 -1       205-8.36910E+00 1.02571E+04-3.50672E+03-9.17158E+00-1.10615E+03-3.56058E+00
 -1       206 1.69737E+01-7.34708E+04-1.73466E+04-1.45114E+01-3.57665E+04 7.83915E+00
 -1       207-1.12807E+01-1.84151E+05-3.86440E+04-1.46337E+01-8.42857E+04-7.01078E+00
 -1       208 1.40508E+01 1.04122E+04-3.23320E+03-1.05537E+01-1.17838E+03 5.08087E+00
 -1       209 2.94681E+01-1.57182E+05-3.14512E+04-2.22279E+01-7.03589E+04-4.75271E-02
 -1       210-7.24845E+00 1.02337E+04-3.50602E+03 2.41014E-06-1.11202E+03 3.80697E-07
 -1       211 2.06239E+01-7.33142E+04-1.73419E+04 4.68522E-06-3.57506E+04-1.80596E-06
 -1       212-9.27480E+00-1.84231E+05-3.86448E+04-7.08739E-07-8.43049E+04-1.28894E-06
 -1       213 6.40792E+00 1.05513E+04-3.00741E+03 4.13384E+01-1.21948E+03-1.97874E+00
 -1       214 3.42389E+00-1.02832E+05-1.95950E+04 9.31870E+01-4.50148E+04 2.71171E+01
 -1       215 1.79114E+00 1.06876E+04-2.99435E+03-4.51902E-06-1.16881E+03-3.10711E-06
 -1       216-1.21832E+01-1.02503E+05-1.95919E+04-5.92801E-06-4.48874E+04 9.60935E-07
 -1       217-3.50347E+00 1.03178E+04-3.18867E+03 1.50898E+01-1.16157E+03-5.93911E+00
 -1       218 1.61042E+01-4.62481E+04-1.12369E+04 6.81847E+01-2.30071E+04 1.46293E+01
 -1       219-1.36769E+01-1.29659E+05-2.55654E+04 3.86289E+01-5.75888E+04-8.69808E-01
 -1       220 4.09953E+00 1.06195E+04-3.00088E+03-1.95271E+01-1.19415E+03-1.03464E+01
 -1       221-4.37964E+00-1.02668E+05-1.95935E+04-5.28554E+01-4.49511E+04 8.75091E+00
 -1       222-4.51317E+00 1.02594E+04-3.18779E+03-2.05066E-06-1.16895E+03-2.60968E-06
 -1       223 5.99150E+00-4.59723E+04-1.12649E+04-4.66701E-06-2.29602E+04-2.32655E-06
 -1       224-1.91317E+01-1.29825E+05-2.55675E+04 5.04498E-07-5.75905E+04 6.98906E-09
 -1       225-1.98965E+01 1.06056E+04-2.69435E+03-1.97073E+02-1.00813E+03 2.08179E+01
 -1       226 4.55352E+01-4.89336E+04-9.08753E+03-4.47354E+02-2.07072E+04-5.88863E+01
 -1       227-2.81671E+00 1.09305E+04-2.71677E+03-1.67949E-06-9.89704E+02 2.17737E-06
 -1       228 1.15380E+02-4.81370E+04-9.03455E+03 7.58886E-06-2.08017E+04-1.57115E-06
 -1       229-6.54629E+00 1.02425E+04-2.92318E+03-5.50653E+01-1.14286E+03 8.56275E+00
 -1       230-2.88406E+01-1.90242E+04-5.99696E+03-3.28535E+02-1.09880E+04-2.16233E+01
 -1       231 1.06164E+00-7.50062E+04-1.43533E+04-1.26290E+02-3.27012E+04-2.44508E+01
 -1       232-1.13566E+01 1.07680E+04-2.70556E+03-6.50338E+01-9.98915E+02 3.02738E+01
 -1       233 8.04577E+01-4.85353E+04-9.06104E+03-6.82304E+01-2.07544E+04-4.28395E+01
 -1       234-3.17388E-01 1.01576E+04-2.93931E+03-1.57152E-06-1.18643E+03-5.61870E-08
 -1       235 1.46223E+01-1.85663E+04-5.87828E+03 2.57580E-06-1.09322E+04-1.73120E-08
 -1       236 2.81918E+01-7.51733E+04-1.43536E+04 2.12907E-06-3.28397E+04-1.51283E-06
 -1       237-1.00308E+02 8.92946E+03-3.33975E+03 6.39006E+02-1.69364E+03-2.02266E+02
 -1       238-4.78639E+02 1.32804E+04 6.54813E+02 1.47495E+03 1.57675E+03 1.29365E+01
 -1       239-1.29992E+02 7.00462E+03-3.16305E+03 1.07698E-08-1.89281E+03 4.31908E-06
 -1       240-7.48996E+02 7.73265E+03 4.81157E+02 7.26172E-06 1.66479E+03-4.24253E-06
 -1       241 3.99621E+01 1.03643E+04-2.95735E+03 2.55136E+02-1.44688E+03-3.05509E+01
 -1       242-1.32708E+02 1.09006E+04-9.71215E+02 1.09967E+03 1.37533E+02-6.48460E+01
 -1       243-1.38935E+01-1.93786E+04-4.33372E+03 5.62990E+02-9.87914E+03 7.97098E+01
 -1       244-1.15150E+02 7.96704E+03-3.25140E+03 3.33466E+02-1.79323E+03-1.69796E+02
 -1       245-6.13818E+02 1.05065E+04 5.67985E+02 4.61375E+02 1.62077E+03 8.58382E+01
 -1       246 3.36620E+01 1.01180E+04-2.91003E+03-1.76050E-07-1.42788E+03 1.76422E-06
 -1       247-2.82729E+02 7.42237E+03-1.32700E+03 5.02095E-06-1.64330E+02 1.70402E-06
 -1       248-1.14158E+02-2.00429E+04-4.39513E+03 3.36165E-06-9.61459E+03-1.36596E-06
 -1       249 3.37889E-01-1.14267E+04-2.10048E+06-8.76896E-01-1.79576E+03-7.26565E-01
 -1       250-4.70231E-01-1.67232E+04-3.45298E+04 7.56808E-02 8.02075E+03 1.30888E+00
 -1       251-1.24563E-01-2.19932E+04-3.20503E+04 6.38180E-02 1.47796E+04 1.18390E-01
 -1       252 3.81476E-02-3.30083E+04-1.90074E+06-1.14225E-01-2.69784E+05-4.40800E-02
 -1       253 3.37889E-01-1.14274E+04-2.10048E+06-7.36546E-01-1.79650E+03-7.01910E-01
 -1       254-4.70231E-01-1.67235E+04-3.45294E+04 2.04804E-01 8.02101E+03 1.25983E+00
 -1       255-1.23571E-01-2.19931E+04-3.20498E+04 3.74391E-02 1.47798E+04 4.59814E-02
 -1       256 3.78020E-02-3.30084E+04-1.90074E+06-7.74265E-02-2.69784E+05-1.84860E-02
 -1       257-6.62167E-02-1.40762E+04-1.06728E+06-4.02764E-01 3.70372E+03 2.87888E-01
 -1       258 5.81401E-02-1.80327E+04-3.23850E+04-2.30529E-02 1.12631E+04-3.71409E-02
 -1       259-4.32774E-02-2.75285E+04-9.66283E+05-6.00076E-02-1.27680E+05 4.48298E-02
 -1       260-1.33801E-02-2.01953E+04-2.00276E+06 4.80629E-02-1.34879E+05 1.63376E-02
 -1       261-1.48490E-01-1.13612E+04-2.88101E+04 1.15769E-01 1.08231E+04 1.98125E-01
 -1       262 6.52961E-02-1.23497E+05-1.65431E+06-1.63964E-01-4.52918E+05-7.18480E-02
 -1       263-1.48143E-01-1.13611E+04-2.88097E+04 6.21110E-02 1.08234E+04 9.37668E-02
 -1       264 6.46542E-02-1.23497E+05-1.65431E+06-1.07623E-01-4.52918E+05-4.33641E-02
 -1       265 6.68260E-02-1.62572E+04-3.04690E+04-4.25597E-02 1.26478E+04-7.97159E-02
 -1       266-4.16857E-02-6.74436E+04-8.41503E+05-6.30112E-02-2.21118E+05 8.08576E-02
 -1       267-2.51651E-02-7.81225E+04-1.77699E+06 6.77036E-02-3.62762E+05 2.84088E-02
 -1       268-1.81459E-01-6.74201E+03-2.62000E+04 1.90876E-01 9.36777E+03 2.64544E-01
 -1       269 1.06180E-01-2.26328E+05-1.39513E+06-2.38305E-01-5.63879E+05-1.08635E-01
 -1       270-1.81429E-01-6.74191E+03-2.61997E+04 9.41318E-02 9.36803E+03 1.27435E-01
 -1       271 1.05106E-01-2.26328E+05-1.39513E+06-1.53357E-01-5.63879E+05-7.44158E-02
 -1       272 8.22834E-02-9.04569E+03-2.75617E+04-7.46805E-02 9.85588E+03-1.16564E-01
 -1       273-3.76746E-02-1.16552E+05-7.10626E+05-7.09228E-02-2.77264E+05 1.09004E-01
 -1       274-4.08961E-02-1.75326E+05-1.52394E+06 9.81388E-02-5.09110E+05 4.43428E-02
 -1       275-2.13510E-01-2.13120E+03-2.33196E+04 2.83499E-01 7.16996E+03 3.10928E-01
 -1       276 1.74871E-01-3.25504E+05-1.14762E+06-3.46370E-01-6.12045E+05-1.60372E-01
 -1       277-2.14107E-01-2.13108E+03-2.33195E+04 1.27863E-01 7.17025E+03 1.42445E-01
 -1       278 1.73162E-01-3.25505E+05-1.14762E+06-2.18577E-01-6.12045E+05-1.15471E-01
 -1       279 9.99933E-02-4.64507E+03-2.48651E+04-1.17193E-01 8.11017E+03-1.45432E-01
 -1       280-1.93030E-02-1.63825E+05-5.85446E+05-9.08785E-02-3.02433E+05 1.25254E-01
 -1       281-6.65525E-02-2.76444E+05-1.27056E+06 1.42638E-01-5.88176E+05 6.57344E-02
 -1       282-2.29963E-01 1.11488E+03-2.05687E+04 3.82984E-01 5.36380E+03 3.25282E-01
 -1       283 2.91950E-01-4.06743E+05-9.25201E+05-5.03894E-01-6.14049E+05-2.38298E-01
 -1       284-2.31470E-01 1.11499E+03-2.05687E+04 1.54456E-01 5.36407E+03 1.31309E-01
 -1       285 2.89290E-01-4.06744E+05-9.25202E+05-3.09396E-01-6.14049E+05-1.73000E-01
 -1       286 1.14484E-01-8.05532E+02-2.19970E+04-1.66528E-01 6.20088E+03-1.61759E-01
 -1       287 3.11058E-02-2.02818E+05-4.72871E+05-1.35856E-01-3.04337E+05 1.20122E-01
 -1       288-1.10423E-01-3.66582E+05-1.03585E+06 2.07150E-01-6.12959E+05 9.68730E-02
 -1       289-2.06826E-01 3.60954E+03-1.78950E+04 4.69120E-01 3.77035E+03 2.89270E-01
 -1       290 4.88471E-01-4.64876E+05-7.34131E+05-7.36223E-01-5.84531E+05-3.59518E-01
 -1       291-2.09698E-01 3.60957E+03-1.78952E+04 1.60512E-01 3.77055E+03 8.32048E-02
 -1       292 4.84417E-01-4.64877E+05-7.34132E+05-4.34482E-01-5.84531E+05-2.56309E-01
 -1       293 1.16448E-01 2.06743E+03-1.92636E+04-2.15429E-01 4.58112E+03-1.58023E-01
 -1       294 1.41096E-01-2.30637E+05-3.76002E+05-2.28505E-01-2.90377E+05 7.80814E-02
 -1       295-1.85015E-01-4.36146E+05-8.29348E+05 3.01528E-01-5.99072E+05 1.44711E-01
 -1       296-1.06656E-01 5.44095E+03-1.54139E+04 5.07501E-01 2.48307E+03 1.77510E-01
 -1       297 8.10708E-01-4.99057E+05-5.75255E+05-1.08140E+00-5.35996E+05-5.47968E-01
 -1       298-1.11449E-01 5.44080E+03-1.54143E+04 1.26936E-01 2.48314E+03-1.60816E-02
 -1       299 8.04696E-01-4.99057E+05-5.75256E+05-6.04330E-01-5.35997E+05-3.77557E-01
 -1       300 9.10411E-02 4.27190E+03-1.66817E+04-2.50813E-01 3.19173E+03-1.23354E-01
 -1       301 3.52543E-01-2.46812E+05-2.95325E+05-4.05004E-01-2.66754E+05-2.32536E-02
 -1       302-3.09189E-01-4.82187E+05-6.54565E+05 4.41217E-01-5.60018E+05 2.19356E-01
 -1       303 1.26460E-01 6.79538E+03-1.31633E+04 4.44138E-01 1.46504E+03-4.27553E-02
 -1       304 1.32510E+00-5.11385E+05-4.46376E+05-1.59344E+00-4.77867E+05-8.35409E-01
 -1       305 1.19073E-01 6.79489E+03-1.31640E+04 2.88488E-02 1.46488E+03-1.83646E-01
 -1       306 1.31649E+00-5.11386E+05-4.46377E+05-8.28642E-01-4.77868E+05-5.51578E-01
 -1       307 1.54087E-02 5.91725E+03-1.43224E+04-2.51359E-01 2.06361E+03-4.32299E-02
 -1       308 7.26704E-01-2.52299E+05-2.29761E+05-7.19305E-01-2.38200E+05-2.13889E-01
 -1       309-5.10788E-01-5.05353E+05-5.10811E+05 6.48562E-01-5.06708E+05 3.34543E-01
 -1       310 5.70929E-01 7.79055E+03-1.11714E+04 2.02771E-01 6.86273E+02-4.11107E-01
 -1       311 2.12352E+00-5.05250E+05-3.43753E+05-2.34063E+00-4.16778E+05-1.26191E+00
 -1       312 5.60506E-01 7.78956E+03-1.11724E+04-1.61866E-01 6.85781E+02-4.38335E-01
 -1       313 2.11178E+00-5.05251E+05-3.43753E+05-1.11031E+00-4.16779E+05-7.94816E-01
 -1       314-1.43907E-01 7.14060E+03-1.22096E+04-1.84702E-01 1.17140E+03 1.00494E-01
 -1       315 1.34858E+00-2.48734E+05-1.77454E+05-1.24357E+00-2.08044E+05-5.31660E-01
 -1       316-8.29047E-01-5.08389E+05-3.95131E+05 9.54574E-01-4.47140E+05 5.08080E-01
 -1       317 1.32996E+00 8.52294E+03-9.44158E+03-3.19930E-01 1.04019E+02-9.71318E-01
 -1       318 3.32249E+00-4.84399E+05-2.63156E+05-3.40946E+00-3.57022E+05-1.87601E+00
 -1       319 1.31595E+00 8.52127E+03-9.44297E+03-4.70150E-01 1.03103E+02-7.97114E-01
 -1       320 3.30739E+00-4.84399E+05-2.63157E+05-1.43234E+00-3.57024E+05-1.12390E+00
 -1       321-4.32350E-01 8.04396E+03-1.03553E+04-7.81114E-03 4.86661E+02 3.28999E-01
 -1       322 2.32876E+00-2.37942E+05-1.36292E+05-2.07215E+00-1.78458E+05-1.02185E+00
 -1       323-1.31730E+00-4.94857E+05-3.03557E+05 1.39512E+00-3.86761E+05 7.61872E-01
 -1       324 2.52269E+00 9.06242E+03-7.96432E+03-1.22920E+00-3.21537E+02-1.76701E+00
 -1       325 5.06613E+00-4.52364E+05-2.00475E+05-4.85533E+00-3.01115E+05-2.72906E+00
 -1       326 2.50737E+00 9.05998E+03-7.96612E+03-9.00177E-01-3.22943E+02-1.27287E+00
 -1       327 5.04899E+00-4.52363E+05-2.00477E+05-1.73621E+00-3.01116E+05-1.54859E+00
 -1       328-9.08600E-01 8.70998E+03-8.75513E+03 3.37664E-01-2.58992E+01 6.64328E-01
 -1       329 3.79650E+00-2.21655E+05-1.04215E+05-3.28464E+00-1.50717E+05-1.73241E+00
 -1       330-2.04023E+00-4.68392E+05-2.31931E+05 2.01794E+00-3.28968E+05 1.12167E+00
 -1       331 4.27304E+00 9.46070E+03-6.72140E+03-2.66708E+00-6.26428E+02-2.82499E+00
 -1       332 7.47556E+00-4.12192E+05-1.52026E+05-6.79034E+00-2.50294E+05-3.87974E+00
 -1       333 4.25466E+00 9.45765E+03-6.72359E+03-1.41363E+00-6.28300E+02-1.85372E+00
 -1       334 7.45730E+00-4.12188E+05-1.52027E+05-1.87385E+00-2.50295E+05-2.07383E+00
 -1       335-1.63321E+00 9.20092E+03-7.39557E+03 8.95053E-01-4.00192E+02 1.12709E+00
 -1       336 5.88332E+00-2.01369E+05-7.93702E+04-5.00492E+00-1.25458E+05-2.71319E+00
 -1       337-3.07670E+00-4.32276E+05-1.76365E+05 2.82642E+00-2.75636E+05 1.61235E+00
 -1       338 6.62634E+00 9.75511E+03-5.69042E+03-4.53272E+00-8.40870E+02-4.15680E+00
 -1       339 1.07020E+01-3.66348E+05-1.14669E+05-8.83681E+00-2.04934E+05-5.32946E+00
 -1       340 6.62797E+00 9.75216E+03-5.69291E+03-1.85244E+00-8.43039E+02-2.53170E+00
 -1       341 1.06993E+01-3.66339E+05-1.14671E+05-1.56296E+00-2.04935E+05-2.64736E+00
 -1       342-2.67316E+00 9.56314E+03-6.25763E+03 1.75643E+00-6.66777E+02 1.72172E+00
 -1       343 8.65491E+00-1.78300E+05-6.01783E+04-6.99157E+00-1.02885E+05-3.97515E+00
 -1       344-4.47697E+00-3.89260E+05-1.33455E+05 3.91863E+00-2.27568E+05 2.26385E+00
 -1       345 9.55827E+00 9.97363E+03-4.84818E+03-7.18656E+00-9.89631E+02-5.63078E+00
 -1       346 1.44770E+01-3.16731E+05-8.58195E+04-1.17617E+01-1.64857E+05-7.19110E+00
 -1       347 9.54002E+00 9.97241E+03-4.85081E+03-1.94497E+00-9.91555E+02-3.11553E+00
 -1       348 1.44615E+01-3.16713E+05-8.58210E+04-1.87892E-01-1.64857E+05-3.28106E+00
 -1       349-3.99672E+00 9.83056E+03-5.32024E+03 2.71911E+00-8.51683E+02 2.45310E+00
 -1       350 1.20855E+01-1.53383E+05-4.53335E+04-9.79653E+00-8.29193E+04-5.56043E+00
 -1       351-6.31745E+00-3.41522E+05-1.00341E+05 4.81474E+00-1.84864E+05 3.05023E+00
 -1       352 1.24456E+01 1.01363E+04-4.17086E+03-8.26638E+00-1.09021E+03-7.26759E+00
 -1       353 1.91433E+01-2.64744E+05-6.33874E+04-1.05977E+01-1.29552E+05-8.83319E+00
 -1       354 1.26083E+01 1.01405E+04-4.17325E+03-8.61974E-01-1.09114E+03-3.80763E+00
 -1       355 1.93208E+01-2.64708E+05-6.33888E+04 3.04267E+00-1.29549E+05-3.46471E+00
 -1       356-5.64958E+00 1.00265E+04-4.56210E+03 4.32786E+00-9.75664E+02 3.17902E+00
 -1       357 1.55908E+01-1.27309E+05-3.37805E+04-9.73830E+00-6.53151E+04-7.11389E+00
 -1       358-8.34912E+00-2.90703E+05-7.46887E+04 6.70636E+00-1.47176E+05 4.08486E+00
 -1       359 1.48184E+01 1.02680E+04-3.64361E+03-1.33539E+01-1.15910E+03-7.72504E+00
 -1       360 2.12031E+01-2.11360E+05-4.57125E+04-1.91564E+01-9.83350E+04-1.19806E+01
 -1       361 1.46412E+01 1.02828E+04-3.64516E+03 1.86881E+00-1.15645E+03-2.86056E+00
 -1       362 2.08564E+01-2.11298E+05-4.57129E+04 1.05523E+01-9.83244E+04-4.18966E+00
 -1       363-6.81496E+00 1.01685E+04-3.96492E+03 3.65626E+00-1.05790E+03 4.06502E+00
 -1       364 1.88324E+01-1.00563E+05-2.46739E+04-1.65461E+01-4.97294E+04-9.22628E+00
 -1       365-1.08037E+01-2.37974E+05-5.46238E+04 3.53659E+00-1.13905E+05 4.68239E+00
 -1       366 1.27528E+01 1.03733E+04-3.23267E+03 4.99534E+00-1.18438E+03-9.57255E+00
 -1       367 2.71163E+01-1.57300E+05-3.14520E+04 2.37006E+01-7.03697E+04-7.83328E+00
 -1       368 1.40508E+01 1.04122E+04-3.23320E+03 1.05537E+01-1.17838E+03-5.08088E+00
 -1       369 2.94681E+01-1.57182E+05-3.14512E+04 2.22279E+01-7.03589E+04 4.75291E-02
 -1       370-8.36910E+00 1.02571E+04-3.50672E+03 9.17157E+00-1.10615E+03 3.56057E+00
 -1       371 1.69737E+01-7.34708E+04-1.73466E+04 1.45114E+01-3.57665E+04-7.83915E+00
 -1       372-1.12807E+01-1.84151E+05-3.86440E+04 1.46337E+01-8.42857E+04 7.01078E+00
 -1       373 6.40792E+00 1.05513E+04-3.00741E+03-4.13384E+01-1.21948E+03 1.97875E+00
 -1       374 3.42389E+00-1.02832E+05-1.95950E+04-9.31870E+01-4.50148E+04-2.71171E+01
 -1       375 4.09953E+00 1.06195E+04-3.00088E+03 1.95271E+01-1.19415E+03 1.03464E+01
 -1       376-4.37964E+00-1.02668E+05-1.95935E+04 5.28554E+01-4.49511E+04-8.75091E+00
 -1       377-3.50347E+00 1.03178E+04-3.18867E+03-1.50898E+01-1.16157E+03 5.93911E+00
 -1       378 1.61042E+01-4.62481E+04-1.12369E+04-6.81847E+01-2.30071E+04-1.46293E+01
 -1       379-1.36769E+01-1.29659E+05-2.55654E+04-3.86289E+01-5.75888E+04 8.69813E-01
 -1       380-1.98965E+01 1.06056E+04-2.69435E+03 1.97073E+02-1.00813E+03-2.08179E+01
 -1       381 4.55352E+01-4.89336E+04-9.08753E+03 4.47354E+02-2.07072E+04 5.88863E+01
 -1       382-1.13566E+01 1.07680E+04-2.70556E+03 6.50338E+01-9.98915E+02-3.02738E+01
 -1       383 8.04577E+01-4.85353E+04-9.06104E+03 6.82304E+01-2.07544E+04 4.28395E+01
 -1       384-6.54629E+00 1.02425E+04-2.92318E+03 5.50653E+01-1.14286E+03-8.56275E+00
 -1       385-2.88406E+01-1.90242E+04-5.99696E+03 3.28535E+02-1.09880E+04 2.16233E+01
 -1       386 1.06164E+00-7.50062E+04-1.43533E+04 1.26290E+02-3.27012E+04 2.44508E+01
 -1       387-1.00308E+02 8.92946E+03-3.33975E+03-6.39006E+02-1.69364E+03 2.02266E+02
 -1       388-4.78639E+02 1.32804E+04 6.54813E+02-1.47495E+03 1.57675E+03-1.29365E+01
 -1       389-1.15150E+02 7.96704E+03-3.25140E+03-3.33466E+02-1.79323E+03 1.69796E+02
 -1       390-6.13818E+02 1.05065E+04 5.67985E+02-4.61375E+02 1.62077E+03-8.58382E+01
 -1       391 3.99621E+01 1.03643E+04-2.95735E+03-2.55136E+02-1.44688E+03 3.05509E+01
 -1       392-1.32708E+02 1.09006E+04-9.71215E+02-1.09967E+03 1.37533E+02 6.48460E+01
 -1       393-1.38935E+01-1.93786E+04-4.33372E+03-5.62990E+02-9.87914E+03-7.97098E+01
 -1       394-1.21216E+00-2.23067E+04 2.16962E+06 1.75776E-01 1.93669E+04 1.43848E+00
 -1       395 1.31875E-01 3.39697E+04 1.95925E+06-1.34101E-01 2.80205E+05-4.85595E-03
 -1       396-1.21216E+00-2.23064E+04 2.16962E+06 5.34163E-08 1.93689E+04-8.16368E-07
 -1       397 1.27862E-01 3.39697E+04 1.95925E+06-1.60903E-07 2.80205E+05-1.64549E-06
 -1       398-8.41151E-01-1.95138E+04 1.06732E+06 4.78909E-02 1.31026E+04 6.15280E-02
 -1       399-7.03864E-02 6.41084E+03 2.06493E+06 6.01026E-02 1.48375E+05 4.72645E-02
 -1       400 3.72557E-03 6.01602E+03 9.63491E+05-1.33763E-01 1.47670E+05-5.39480E-02
 -1       401-1.21216E+00-2.23066E+04 2.16962E+06 5.78461E-02 1.93679E+04 1.57475E+00
 -1       402 1.29869E-01 3.39697E+04 1.95925E+06-6.36322E-02 2.80205E+05 8.69585E-02
 -1       403-8.41150E-01-1.95134E+04 1.06732E+06 4.23119E-08 1.31046E+04-3.94115E-07
 -1       404-7.23922E-02 6.41082E+03 2.06493E+06-7.24116E-08 1.48375E+05-1.19554E-06
 -1       405 2.70422E-03 6.01608E+03 9.63490E+05-8.05055E-08 1.47670E+05-7.14177E-07
 -1       406 1.34811E-01 1.22391E+05 1.70048E+06-1.40236E-01 4.72679E+05 1.96514E-01
 -1       407 1.30946E-01 1.22391E+05 1.70048E+06-4.50222E-07 4.72679E+05-1.47872E-06
 -1       408-6.14077E-02 7.87583E+04 1.82980E+06 7.07796E-02 3.77083E+05-4.57295E-02
 -1       409-6.75032E-03 5.55294E+04 8.35778E+05-1.66916E-01 2.41821E+05 1.69135E-02
 -1       410 1.32879E-01 1.22391E+05 1.70048E+06-5.81202E-02 4.72679E+05 2.30088E-01
 -1       411-6.53464E-02 7.87582E+04 1.82980E+06-2.58426E-07 3.77083E+05-1.58115E-06
 -1       412-8.34073E-03 5.55295E+04 8.35777E+05-1.11678E-07 2.41822E+05-6.91566E-07
 -1       413 1.83606E-01 2.32209E+05 1.43145E+06-1.10618E-01 5.84411E+05 4.43075E-01
 -1       414 1.78294E-01 2.32209E+05 1.43144E+06-7.64538E-07 5.84410E+05-1.52566E-06
 -1       415-7.32469E-02 1.77738E+05 1.56587E+06 6.55227E-02 5.28862E+05-1.55190E-01
 -1       416 1.10826E-03 1.12751E+05 7.02582E+05-1.97955E-01 2.96898E+05 1.20315E-01
 -1       417 1.80950E-01 2.32209E+05 1.43145E+06-3.09129E-02 5.84411E+05 4.11021E-01
 -1       418-7.78349E-02 1.77738E+05 1.56587E+06-5.50463E-07 5.28863E+05-1.52621E-06
 -1       419-1.52235E-03 1.12751E+05 7.02581E+05-4.85738E-07 2.96898E+05-6.90513E-07
 -1       420 2.92528E-01 3.34966E+05 1.17524E+06-3.00973E-02 6.32818E+05 7.62307E-01
 -1       421 2.85528E-01 3.34966E+05 1.17524E+06-1.19329E-06 6.32817E+05-1.42257E-06
 -1       422-1.10272E-01 2.83726E+05 1.30332E+06 3.98572E-02 6.08700E+05-2.93732E-01
 -1       423 3.94926E-02 1.66425E+05 5.75939E+05-2.16241E-01 3.19990E+05 2.75665E-01
 -1       424 2.89028E-01 3.34966E+05 1.17524E+06 2.56646E-02 6.32817E+05 6.43959E-01
 -1       425-1.16428E-01 2.83726E+05 1.30332E+06-1.06663E-06 6.08700E+05-1.43654E-06
 -1       426 3.53905E-02 1.66425E+05 5.75937E+05-6.08683E-07 3.19990E+05-6.96174E-07
 -1       427 4.86382E-01 4.19320E+05 9.46033E+05 1.29395E-01 6.33448E+05 1.18611E+00
 -1       428 4.76907E-01 4.19320E+05 9.46028E+05-6.46620E-07 6.33446E+05-1.00290E-06
 -1       429-1.82437E-01 3.77082E+05 1.06061E+06-1.69115E-02 6.33128E+05-4.76049E-01
 -1       430 1.28097E-01 2.10222E+05 4.62718E+05-2.02194E-01 3.19401E+05 5.07046E-01
 -1       431 4.81644E-01 4.19320E+05 9.46030E+05 1.23270E-01 6.33447E+05 9.46108E-01
 -1       432-1.90674E-01 3.77082E+05 1.06062E+06-1.27325E-06 6.33129E+05-1.09647E-06
 -1       433 1.21848E-01 2.10222E+05 4.62716E+05-3.69131E-07 3.19400E+05-6.18431E-07
 -1       434 8.02102E-01 4.79394E+05 7.49641E+05 4.09902E-01 6.02080E+05 1.75071E+00
 -1       435 7.89408E-01 4.79394E+05 7.49635E+05-1.05569E-06 6.02077E+05-1.06009E-06
 -1       436-3.04730E-01 4.49178E+05 8.47823E+05-1.22047E-01 6.17738E+05-7.19141E-01
 -1       437 2.97364E-01 2.41505E+05 3.65862E+05-1.24563E-01 3.02921E+05 8.43925E-01
 -1       438 7.95755E-01 4.79394E+05 7.49638E+05 2.76737E-01 6.02078E+05 1.33649E+00
 -1       439-3.15814E-01 4.49178E+05 8.47825E+05-7.62348E-07 6.17739E+05-1.11507E-06
 -1       440 2.88141E-01 2.41505E+05 3.65859E+05-1.29385E-07 3.02920E+05-4.28189E-07
 -1       441 1.29222E+00 5.14746E+05 5.86759E+05 8.68154E-01 5.51473E+05 2.49586E+00
 -1       442 1.27556E+00 5.14745E+05 5.86752E+05-9.52825E-07 5.51469E+05-1.27948E-06
 -1       443-4.99312E-01 4.96844E+05 6.68187E+05-2.99994E-01 5.76760E+05-1.04198E+00
 -1       444 5.92265E-01 2.60097E+05 2.85663E+05 6.22704E-02 2.76976E+05 1.32115E+00
 -1       445 1.28389E+00 5.14745E+05 5.86756E+05 5.01602E-01 5.51471E+05 1.83445E+00
 -1       446-5.13990E-01 4.96844E+05 6.68190E+05-3.29841E-07 5.76762E+05-1.14710E-06
 -1       447 5.79136E-01 2.60097E+05 2.85659E+05-3.20475E-07 2.76974E+05-2.70426E-07
 -1       448 2.02710E+00 5.27632E+05 4.54912E+05 1.57553E+00 4.91334E+05 3.46333E+00
 -1       449 2.00626E+00 5.27630E+05 4.54903E+05-3.44757E-07 4.91329E+05-9.28026E-07
 -1       450-7.96866E-01 5.20960E+05 5.20819E+05-5.82358E-01 5.21405E+05-1.46497E+00
 -1       451 1.07586E+00 2.67218E+05 2.20865E+05 4.21046E-01 2.46398E+05 1.97824E+00
 -1       452 2.01668E+00 5.27631E+05 4.54907E+05 8.08868E-01 4.91331E+05 2.45706E+00
 -1       453-8.15621E-01 5.20961E+05 5.20822E+05-6.11863E-07 5.21408E+05-1.04896E-06
 -1       454 1.05804E+00 2.67217E+05 2.20860E+05 5.64370E-07 2.46395E+05-7.77711E-07
 -1       455 3.09443E+00 5.21645E+05 3.50128E+05 2.61080E+00 4.28416E+05 4.69201E+00
 -1       456 3.06966E+00 5.21643E+05 3.50118E+05-2.63587E-06 4.28409E+05-7.78002E-07
 -1       457-1.23755E+00 5.24431E+05 4.02496E+05-1.00761E+00 4.59892E+05-2.00885E+00
 -1       458 1.83132E+00 2.64722E+05 1.69470E+05 1.02937E+00 2.14550E+05 2.85641E+00
 -1       459 3.08205E+00 5.21644E+05 3.50123E+05 1.19510E+00 4.28413E+05 3.21438E+00
 -1       460-1.26036E+00 5.24432E+05 4.02501E+05-1.13714E-06 4.59895E+05-7.96559E-07
 -1       461 1.80851E+00 2.64720E+05 1.69464E+05-1.78547E-06 2.14546E+05-2.75758E-07
 -1       462 4.59268E+00 5.00679E+05 2.67978E+05 4.05451E+00 3.67071E+05 6.21162E+00
 -1       463 4.56828E+00 5.00677E+05 2.67966E+05 2.34712E-07 3.67063E+05-1.07130E-06
 -1       464-1.86940E+00 5.10985E+05 3.09021E+05-1.61358E+00 3.97769E+05-2.69072E+00
 -1       465 2.95878E+00 2.54605E+05 1.29261E+05 1.97977E+00 1.83586E+05 3.99329E+00
 -1       466 4.58048E+00 5.00678E+05 2.67972E+05 1.62300E+00 3.67067E+05 4.10247E+00
 -1       467-1.89398E+00 5.10986E+05 3.09026E+05 1.32800E-06 3.97773E+05-1.36188E-06
 -1       468 2.93257E+00 2.54602E+05 1.29254E+05-1.12917E-06 1.83581E+05-4.91218E-07
 -1       469 6.60942E+00 4.68380E+05 2.04190E+05 5.92489E+00 3.09822E+05 8.01868E+00
 -1       470 6.58700E+00 4.68381E+05 2.04178E+05-5.23334E-08 3.09813E+05-1.45846E-06
 -1       471-2.74389E+00 4.84386E+05 2.36043E+05-2.43906E+00 3.38476E+05-3.52169E+00
 -1       472 4.56397E+00 2.38725E+05 9.81079E+04 3.33467E+00 1.54749E+05 5.40847E+00
 -1       473 6.59821E+00 4.68381E+05 2.04184E+05 1.99154E+00 3.09817E+05 5.08680E+00
 -1       474-2.76730E+00 4.84387E+05 2.36049E+05-1.50277E-06 3.38480E+05-1.19004E-06
 -1       475 4.53744E+00 2.38722E+05 9.80993E+04 3.80601E-07 1.54743E+05-9.59912E-07
 -1       476 9.18040E+00 4.27873E+05 1.54959E+05 8.23849E+00 2.57893E+05 1.00785E+01
 -1       477 9.19356E+00 4.27879E+05 1.54945E+05-5.68865E-06 2.57884E+05 2.59919E-08
 -1       478-3.89640E+00 4.48016E+05 1.79522E+05-3.45573E+00 2.83885E+05-4.48401E+00
 -1       479 6.71771E+00 2.18670E+05 7.41155E+04 5.17657E+00 1.28632E+05 7.09091E+00
 -1       480 9.18698E+00 4.27876E+05 1.54952E+05 2.07292E+00 2.57889E+05 6.09494E+00
 -1       481-3.90103E+00 4.48015E+05 1.79529E+05-5.65905E-06 2.83890E+05-7.33481E-07
 -1       482 6.70592E+00 2.18669E+05 7.41061E+04-2.88205E-06 1.28626E+05 3.60540E-07
 -1       483 1.21840E+01 3.81673E+05 1.17056E+05 1.04343E+01 2.11634E+05 1.21700E+01
 -1       484 1.21918E+01 3.81690E+05 1.17041E+05 3.20890E-06 2.11626E+05 1.47379E-06
 -1       485-5.33307E+00 4.04695E+05 1.35941E+05-4.70045E+00 2.34786E+05-5.55860E+00
 -1       486 9.41445E+00 1.95717E+05 5.56811E+04 7.17673E+00 1.05394E+05 8.93137E+00
 -1       487 1.21879E+01 3.81682E+05 1.17049E+05 1.45380E+00 2.11630E+05 6.93357E+00
 -1       488-5.32256E+00 4.04690E+05 1.35948E+05 2.83264E-06 2.34791E+05 2.30106E-07
 -1       489 9.42000E+00 1.95721E+05 5.56714E+04 8.54147E-07 1.05390E+05-5.43170E-07
 -1       490 1.52315E+01 3.31704E+05 8.78287E+04 1.29144E+01 1.70836E+05 1.41961E+01
 -1       491 1.55248E+01 3.31743E+05 8.78153E+04 4.09047E-06 1.70834E+05-2.19005E-06
 -1       492-6.90426E+00 3.56647E+05 1.02356E+05-5.54756E+00 1.91252E+05-6.53030E+00
 -1       493 1.23270E+01 1.70844E+05 4.14899E+04 9.72807E+00 8.49192E+04 1.07639E+01
 -1       494 1.53781E+01 3.31723E+05 8.78220E+04-6.94635E-01 1.70835E+05 7.42634E+00
 -1       495-6.75373E+00 3.56634E+05 1.02363E+05-3.31697E-07 1.91254E+05 6.05843E-07
 -1       496 1.24555E+01 1.70859E+05 4.14811E+04-1.67754E-06 8.49188E+04 7.09270E-07
 -1       497 1.71584E+01 2.79378E+05 6.51404E+04 1.02090E+01 1.34955E+05 1.46553E+01
 -1       498 1.69676E+01 2.79452E+05 6.51300E+04-2.37126E-06 1.34967E+05 1.01918E-06
 -1       499-8.44922E+00 3.05549E+05 7.63728E+04-7.03830E+00 1.52909E+05-7.53254E+00
 -1       500 1.50057E+01 1.44763E+05 3.04861E+04 8.93145E+00 6.69264E+04 1.18979E+01
 -1       501 1.70630E+01 2.79415E+05 6.51352E+04-5.50870E+00 1.34961E+05 6.64614E+00
 -1       502-8.39791E+00 3.05522E+05 7.63789E+04 4.84319E-07 1.52908E+05-1.00957E-06
 -1       503 1.50729E+01 1.44801E+05 3.04790E+04 1.06018E-06 6.69348E+04-1.01994E-06
 -1       504 1.64355E+01 2.25640E+05 4.73013E+04 1.48224E+01 1.03287E+05 1.54326E+01
 -1       505 1.88817E+01 2.25787E+05 4.72965E+04-3.70204E-06 1.03310E+05 2.95946E-06
 -1       506-8.64383E+00 2.52596E+05 5.60779E+04-2.48546E+00 1.19139E+05-6.82454E+00
 -1       507 1.48053E+01 1.17971E+05 2.18247E+04 1.37972E+01 5.10463E+04 1.22053E+01
 -1       508 1.76586E+01 2.25714E+05 4.72989E+04-1.57564E+01 1.03299E+05 5.36693E+00
 -1       509-7.51642E+00 2.52546E+05 5.60818E+04-1.82347E-06 1.19127E+05 4.81525E-07
 -1       510 1.58515E+01 1.18052E+05 2.18249E+04-4.92511E-06 5.10686E+04 1.92189E-06
 -1       511 6.57900E+00 1.71209E+05 3.29041E+04-3.45601E+01 7.49204E+04 3.60492E+00
 -1       512 1.50219E+00 1.71426E+05 3.29144E+04-6.07677E-06 7.50164E+04-5.62969E-07
 -1       513-8.45853E+00 1.98642E+05 3.99287E+04-1.15378E+01 8.91498E+04-8.35013E+00
 -1       514 1.26267E+01 9.07986E+04 1.48400E+04-1.96143E+01 3.68575E+04 7.45251E+00
 -1       515 4.04059E+00 1.71318E+05 3.29092E+04-3.27918E+01 7.49684E+04-3.51879E+00
 -1       516-9.77284E+00 1.98541E+05 3.99291E+04-6.34253E-06 8.91361E+04 2.91858E-06
 -1       517 1.13860E+01 9.09469E+04 1.48401E+04-7.15932E-07 3.69124E+04-9.51084E-07
 -1       518-8.57107E+00 1.16104E+05 2.10061E+04 6.51898E+01 4.93401E+04 1.43754E+01
 -1       519 1.49430E+01 1.16604E+05 2.10151E+04 2.31160E-06 4.93560E+04 7.98081E-07
 -1       520 4.13230E+00 1.44103E+05 2.67902E+04 4.86662E+01 6.22492E+04 6.05837E+00
 -1       521-1.22699E+01 6.34351E+04 8.93506E+03 5.23421E+01 2.39503E+04 4.13815E+00
 -1       522 3.18595E+00 1.16354E+05 2.10106E+04-6.87166E+01 4.93480E+04-4.77417E-01
 -1       523 1.33478E+01 1.43977E+05 2.67777E+04 1.41619E-06 6.21658E+04-4.23825E-07
 -1       524-2.82046E+00 6.37103E+04 8.98217E+03-1.66021E-06 2.40257E+04 9.89519E-08
 -1       525-8.88255E+01 6.17408E+04 9.98653E+03-4.84091E+02 2.43472E+04-9.49130E+01
 -1       526-1.58506E+02 6.20326E+04 1.01202E+04-3.74615E-07 2.49640E+04-5.77721E-06
 -1       527-3.88191E+00 8.97306E+04 1.54064E+04-1.14463E+02 3.71551E+04-2.17446E+01
 -1       528-1.27010E+01 3.60334E+04 3.75210E+03-3.34260E+02 1.17999E+04-3.44584E+01
 -1       529-1.23666E+02 6.18867E+04 1.00534E+04-1.07241E+02 2.46556E+04-6.74883E+01
 -1       530-2.69557E+01 8.93557E+04 1.54118E+04-3.33428E-06 3.72099E+04-7.37011E-07
 -1       531-3.90018E+01 3.64446E+04 3.70435E+03-6.48168E-07 1.20236E+04-1.47950E-06
 -1       532 1.55378E+02 1.01979E+04 6.54869E+02 1.77882E+03 5.64232E+03 8.12094E+01
 -1       533 4.06544E+02 6.30648E+03 4.11670E+02 8.96437E-07 2.89738E+03 3.28362E-07
 -1       534 1.25487E+02 3.41222E+04 6.07771E+03 6.14221E+02 1.47606E+04 1.27476E+02
 -1       535-1.29230E+02 9.76796E+03-1.71370E+03 1.16622E+03 1.77836E+03-9.03471E+01
 -1       536 2.80961E+02 8.25217E+03 5.33269E+02 7.47078E+02 4.26985E+03 1.53008E+02
 -1       537 2.16223E+02 3.41576E+04 5.92352E+03 2.84524E-06 1.41153E+04-3.98509E-06
 -1       538-1.84892E+01 6.60181E+03-1.38964E+03-9.31101E-07 5.52606E+02 6.57980E-07
 -1       539-1.21216E+00-2.23067E+04 2.16962E+06-1.75776E-01 1.93669E+04-1.43848E+00
 -1       540 1.31875E-01 3.39697E+04 1.95925E+06 1.34101E-01 2.80205E+05 4.85491E-03
 -1       541-1.21216E+00-2.23066E+04 2.16962E+06-5.78460E-02 1.93679E+04-1.57475E+00
 -1       542 1.29869E-01 3.39697E+04 1.95925E+06 6.36320E-02 2.80205E+05-8.69607E-02
 -1       543-8.41151E-01-1.95138E+04 1.06732E+06-4.78910E-02 1.31026E+04-6.15289E-02
 -1       544-7.03864E-02 6.41084E+03 2.06493E+06-6.01027E-02 1.48375E+05-4.72658E-02
 -1       545 3.72557E-03 6.01602E+03 9.63491E+05 1.33763E-01 1.47670E+05 5.39477E-02
 -1       546 1.34811E-01 1.22391E+05 1.70048E+06 1.40235E-01 4.72679E+05-1.96516E-01
 -1       547 1.32879E-01 1.22391E+05 1.70048E+06 5.81196E-02 4.72679E+05-2.30090E-01
 -1       548-6.14076E-02 7.87583E+04 1.82980E+06-7.07800E-02 3.77083E+05 4.57280E-02
 -1       549-6.75032E-03 5.55294E+04 8.35778E+05 1.66916E-01 2.41821E+05-1.69142E-02
 -1       550 1.83606E-01 2.32209E+05 1.43145E+06 1.10618E-01 5.84411E+05-4.43077E-01
 -1       551 1.80950E-01 2.32209E+05 1.43145E+06 3.09118E-02 5.84411E+05-4.11023E-01
 -1       552-7.32470E-02 1.77738E+05 1.56587E+06-6.55233E-02 5.28862E+05 1.55188E-01
 -1       553 1.10828E-03 1.12751E+05 7.02582E+05 1.97955E-01 2.96898E+05-1.20316E-01
 -1       554 2.92528E-01 3.34966E+05 1.17524E+06 3.00968E-02 6.32818E+05-7.62309E-01
 -1       555 2.89028E-01 3.34966E+05 1.17524E+06-2.56661E-02 6.32817E+05-6.43962E-01
 -1       556-1.10272E-01 2.83726E+05 1.30332E+06-3.98579E-02 6.08700E+05 2.93730E-01
 -1       557 3.94925E-02 1.66425E+05 5.75939E+05 2.16241E-01 3.19990E+05-2.75666E-01
 -1       558 4.86382E-01 4.19320E+05 9.46033E+05-1.29398E-01 6.33448E+05-1.18611E+00
 -1       559 4.81644E-01 4.19320E+05 9.46030E+05-1.23272E-01 6.33447E+05-9.46110E-01
 -1       560-1.82437E-01 3.77082E+05 1.06061E+06 1.69103E-02 6.33128E+05 4.76048E-01
 -1       561 1.28097E-01 2.10222E+05 4.62718E+05 2.02194E-01 3.19401E+05-5.07046E-01
 -1       562 8.02102E-01 4.79394E+05 7.49641E+05-4.09903E-01 6.02080E+05-1.75071E+00
 -1       563 7.95755E-01 4.79394E+05 7.49638E+05-2.76738E-01 6.02078E+05-1.33650E+00
 -1       564-3.04730E-01 4.49178E+05 8.47823E+05 1.22045E-01 6.17738E+05 7.19139E-01
 -1       565 2.97364E-01 2.41505E+05 3.65862E+05 1.24563E-01 3.02921E+05-8.43926E-01
 -1       566 1.29222E+00 5.14746E+05 5.86759E+05-8.68157E-01 5.51473E+05-2.49587E+00
 -1       567 1.28389E+00 5.14745E+05 5.86756E+05-5.01604E-01 5.51471E+05-1.83445E+00
 -1       568-4.99312E-01 4.96844E+05 6.68187E+05 2.99993E-01 5.76760E+05 1.04198E+00
 -1       569 5.92265E-01 2.60097E+05 2.85663E+05-6.22724E-02 2.76976E+05-1.32115E+00
 -1       570 2.02710E+00 5.27632E+05 4.54912E+05-1.57554E+00 4.91334E+05-3.46333E+00
 -1       571 2.01668E+00 5.27631E+05 4.54907E+05-8.08870E-01 4.91331E+05-2.45706E+00
 -1       572-7.96866E-01 5.20960E+05 5.20819E+05 5.82355E-01 5.21405E+05 1.46497E+00
 -1       573 1.07586E+00 2.67218E+05 2.20865E+05-4.21047E-01 2.46398E+05-1.97824E+00
 -1       574 3.09443E+00 5.21645E+05 3.50128E+05-2.61081E+00 4.28416E+05-4.69202E+00
 -1       575 3.08205E+00 5.21644E+05 3.50123E+05-1.19510E+00 4.28413E+05-3.21438E+00
 -1       576-1.23755E+00 5.24431E+05 4.02496E+05 1.00761E+00 4.59892E+05 2.00885E+00
 -1       577 1.83132E+00 2.64722E+05 1.69470E+05-1.02937E+00 2.14550E+05-2.85641E+00
 -1       578 4.59268E+00 5.00679E+05 2.67978E+05-4.05452E+00 3.67071E+05-6.21162E+00
 -1       579 4.58048E+00 5.00678E+05 2.67972E+05-1.62300E+00 3.67067E+05-4.10247E+00
 -1       580-1.86940E+00 5.10985E+05 3.09021E+05 1.61358E+00 3.97769E+05 2.69072E+00
 -1       581 2.95878E+00 2.54605E+05 1.29261E+05-1.97977E+00 1.83586E+05-3.99329E+00
 -1       582 6.60942E+00 4.68380E+05 2.04190E+05-5.92490E+00 3.09822E+05-8.01868E+00
 -1       583 6.59821E+00 4.68381E+05 2.04184E+05-1.99154E+00 3.09817E+05-5.08680E+00
 -1       584-2.74389E+00 4.84386E+05 2.36043E+05 2.43906E+00 3.38476E+05 3.52169E+00
 -1       585 4.56397E+00 2.38725E+05 9.81079E+04-3.33467E+00 1.54749E+05-5.40847E+00
 -1       586 9.18040E+00 4.27873E+05 1.54959E+05-8.23849E+00 2.57893E+05-1.00785E+01
 -1       587 9.18698E+00 4.27876E+05 1.54952E+05-2.07292E+00 2.57889E+05-6.09494E+00
 -1       588-3.89640E+00 4.48016E+05 1.79522E+05 3.45574E+00 2.83885E+05 4.48401E+00
 -1       589 6.71771E+00 2.18670E+05 7.41155E+04-5.17657E+00 1.28632E+05-7.09091E+00
 -1       590 1.21840E+01 3.81673E+05 1.17056E+05-1.04343E+01 2.11634E+05-1.21700E+01
 -1       591 1.21879E+01 3.81682E+05 1.17049E+05-1.45380E+00 2.11630E+05-6.93357E+00
 -1       592-5.33307E+00 4.04695E+05 1.35941E+05 4.70045E+00 2.34786E+05 5.55860E+00
 -1       593 9.41445E+00 1.95717E+05 5.56811E+04-7.17673E+00 1.05394E+05-8.93137E+00
 -1       594 1.52315E+01 3.31704E+05 8.78287E+04-1.29144E+01 1.70836E+05-1.41961E+01
 -1       595 1.53781E+01 3.31723E+05 8.78220E+04 6.94636E-01 1.70835E+05-7.42634E+00
 -1       596-6.90426E+00 3.56647E+05 1.02356E+05 5.54755E+00 1.91252E+05 6.53030E+00
 -1       597 1.23270E+01 1.70844E+05 4.14899E+04-9.72808E+00 8.49192E+04-1.07639E+01
 -1       598 1.71584E+01 2.79378E+05 6.51404E+04-1.02090E+01 1.34955E+05-1.46552E+01
 -1       599 1.70630E+01 2.79415E+05 6.51352E+04 5.50869E+00 1.34961E+05-6.64614E+00
 -1       600-8.44922E+00 3.05549E+05 7.63728E+04 7.03830E+00 1.52909E+05 7.53254E+00
 -1       601 1.50057E+01 1.44763E+05 3.04861E+04-8.93144E+00 6.69264E+04-1.18979E+01
 -1       602 1.64355E+01 2.25640E+05 4.73013E+04-1.48224E+01 1.03287E+05-1.54326E+01
 -1       603 1.76586E+01 2.25714E+05 4.72989E+04 1.57564E+01 1.03299E+05-5.36692E+00
 -1       604-8.64383E+00 2.52596E+05 5.60779E+04 2.48546E+00 1.19139E+05 6.82454E+00
 -1       605 1.48053E+01 1.17971E+05 2.18247E+04-1.37972E+01 5.10463E+04-1.22054E+01
 -1       606 6.57900E+00 1.71209E+05 3.29041E+04 3.45601E+01 7.49204E+04-3.60492E+00
 -1       607 4.04060E+00 1.71318E+05 3.29092E+04 3.27918E+01 7.49684E+04 3.51878E+00
 -1       608-8.45853E+00 1.98642E+05 3.99287E+04 1.15378E+01 8.91498E+04 8.35013E+00
 -1       609 1.26267E+01 9.07986E+04 1.48400E+04 1.96143E+01 3.68575E+04-7.45251E+00
 -1       610-8.57107E+00 1.16104E+05 2.10061E+04-6.51898E+01 4.93401E+04-1.43754E+01
 -1       611 3.18595E+00 1.16354E+05 2.10106E+04 6.87166E+01 4.93480E+04 4.77417E-01
 -1       612 4.13230E+00 1.44103E+05 2.67902E+04-4.86662E+01 6.22492E+04-6.05837E+00
 -1       613-1.22699E+01 6.34351E+04 8.93506E+03-5.23421E+01 2.39503E+04-4.13815E+00
 -1       614-8.88255E+01 6.17408E+04 9.98653E+03 4.84091E+02 2.43472E+04 9.49130E+01
 -1       615-1.23666E+02 6.18867E+04 1.00534E+04 1.07241E+02 2.46556E+04 6.74883E+01
 -1       616-3.88191E+00 8.97306E+04 1.54064E+04 1.14463E+02 3.71551E+04 2.17446E+01
 -1       617-1.27010E+01 3.60334E+04 3.75210E+03 3.34260E+02 1.17999E+04 3.44584E+01
 -1       618 1.55378E+02 1.01979E+04 6.54869E+02-1.77882E+03 5.64232E+03-8.12094E+01
 -1       619 2.80961E+02 8.25217E+03 5.33269E+02-7.47078E+02 4.26985E+03-1.53008E+02
 -1       620 1.25487E+02 3.41222E+04 6.07771E+03-6.14221E+02 1.47606E+04-1.27476E+02
 -1       621-1.29230E+02 9.76796E+03-1.71370E+03-1.16622E+03 1.77836E+03 9.03471E+01
 -3
    1PSTEP                        19          10           1          
  100CL  110 5.00000E-01         621                     0   10           1
 -4  DISP        4    1
 -5  D1          1    2    1    0
 -5  D2          1    2    2    0
 -5  D3          1    2    3    0
 -5  ALL         1    2    0    0    1ALL
 -1         1 0.00000E+00 0.00000E+00 0.00000E+00
 -1         2 0.00000E+00 0.00000E+00 0.00000E+00
 -1         3 6.30329E-10 3.72971E-02-1.95765E-03
 -1         4-5.49491E-10 3.64935E-02-1.27900E-02
 -1         5 0.00000E+00 0.00000E+00 0.00000E+00
 -1         6 0.00000E+00 0.00000E+00 0.00000E+00
 -1         7 1.52233E-14 3.72971E-02-1.95765E-03
 -1         8 1.27320E-14 3.64935E-02-1.27900E-02
 -1         9 0.00000E+00 0.00000E+00 0.00000E+00
 -1        10-1.08817E-10 9.49103E-03-2.98028E-04
 -1        11 4.07346E-11 3.68931E-02-7.37036E-03
 -1        12 1.29083E-10 9.26721E-03-5.83857E-03
 -1        13 0.00000E+00 0.00000E+00 0.00000E+00
 -1        14 0.00000E+00 0.00000E+00 0.00000E+00
 -1        15 3.15307E-10 3.72971E-02-1.95765E-03
 -1        16-2.74770E-10 3.64935E-02-1.27900E-02
 -1        17 0.00000E+00 0.00000E+00 0.00000E+00
 -1        18 3.86675E-15 9.49103E-03-2.98027E-04
 -1        19 1.39803E-14 3.68931E-02-7.37037E-03
 -1        20 2.73771E-15 9.26721E-03-5.83858E-03
 -1        21 1.67567E-09 1.44153E-01-1.39867E-02
 -1        22-1.21074E-09 1.41231E-01-3.45320E-02
 -1        23 5.79296E-14 1.44153E-01-1.39867E-02
 -1        24 5.27685E-14 1.41231E-01-3.45320E-02
 -1        25-5.19941E-10 8.25117E-02-6.17917E-03
 -1        26 2.32773E-10 1.42691E-01-2.42566E-02
 -1        27 4.19344E-10 8.07856E-02-2.20069E-02
 -1        28 8.37914E-10 1.44153E-01-1.39867E-02
 -1        29-6.05430E-10 1.41231E-01-3.45320E-02
 -1        30 3.32696E-14 8.25117E-02-6.17916E-03
 -1        31 5.53864E-14 1.42691E-01-2.42566E-02
 -1        32 2.96446E-14 8.07856E-02-2.20069E-02
 -1        33 3.21933E-09 3.12725E-01-4.36641E-02
 -1        34-2.09002E-09 3.06758E-01-7.27349E-02
 -1        35 1.23757E-13 3.12725E-01-4.36641E-02
 -1        36 1.16469E-13 3.06758E-01-7.27349E-02
 -1        37-1.15441E-09 2.21230E-01-2.62465E-02
 -1        38 5.65077E-10 3.09742E-01-5.81967E-02
 -1        39 7.89460E-10 2.16882E-01-5.11984E-02
 -1        40 1.60973E-09 3.12725E-01-4.36641E-02
 -1        41-1.04510E-09 3.06758E-01-7.27349E-02
 -1        42 8.78831E-14 2.21230E-01-2.62465E-02
 -1        43 1.20032E-13 3.09742E-01-5.81967E-02
 -1        44 8.19180E-14 2.16882E-01-5.11984E-02
 -1        45 5.37247E-09 5.34990E-01-9.61219E-02
 -1        46-3.33671E-09 5.25382E-01-1.32544E-01
 -1        47 2.07654E-13 5.34990E-01-9.61219E-02
 -1        48 1.98240E-13 5.25382E-01-1.32544E-01
 -1        49-2.06396E-09 4.17642E-01-6.68101E-02
 -1        50 1.01845E-09 5.30186E-01-1.14330E-01
 -1        51 1.29752E-09 4.09914E-01-9.96974E-02
 -1        52 2.68625E-09 5.34990E-01-9.61219E-02
 -1        53-1.66850E-09 5.25382E-01-1.32544E-01
 -1        54 1.63247E-13 4.17642E-01-6.68101E-02
 -1        55 2.03160E-13 5.30186E-01-1.14330E-01
 -1        56 1.54810E-13 4.09914E-01-9.96974E-02
 -1        57 8.24286E-09 8.03215E-01-1.74440E-01
 -1        58-5.19497E-09 7.89643E-01-2.17110E-01
 -1        59 3.06734E-13 8.03215E-01-1.74440E-01
 -1        60 2.95161E-13 7.89643E-01-2.17110E-01
 -1        61-3.30821E-09 6.63821E-01-1.31924E-01
 -1        62 1.52477E-09 7.96430E-01-1.95773E-01
 -1        63 2.03448E-09 6.52260E-01-1.71602E-01
 -1        64 4.12137E-09 8.03215E-01-1.74440E-01
 -1        65-2.59771E-09 7.89643E-01-2.17110E-01
 -1        66 2.55035E-13 6.63821E-01-1.31924E-01
 -1        67 3.00973E-13 7.96430E-01-1.95773E-01
 -1        68 2.44810E-13 6.52260E-01-1.71602E-01
 -1        69 1.18848E-08 1.11027E+00-2.80064E-01
 -1        70-8.07593E-09 1.09262E+00-3.27982E-01
 -1        71 4.14830E-13 1.11027E+00-2.80064E-01
 -1        72 4.01167E-13 1.09262E+00-3.27982E-01
 -1        73-4.93559E-09 9.52307E-01-2.23801E-01
 -1        74 1.90560E-09 1.10145E+00-3.04021E-01
 -1        75 3.15313E-09 9.36702E-01-2.69214E-01
 -1        76 5.94219E-09 1.11027E+00-2.80064E-01
 -1        77-4.03834E-09 1.09262E+00-3.27982E-01
 -1        78 3.60196E-13 9.52307E-01-2.23801E-01
 -1        79 4.08171E-13 1.10145E+00-3.04021E-01
 -1        80 3.47437E-13 9.36702E-01-2.69214E-01
 -1        81 1.62178E-08 1.44978E+00-4.13191E-01
 -1        82-1.26654E-08 1.42810E+00-4.65474E-01
 -1        83 5.28939E-13 1.44978E+00-4.13191E-01
 -1        84 5.14377E-13 1.42810E+00-4.65474E-01
 -1        85-6.95225E-09 1.27633E+00-3.43216E-01
 -1        86 1.77793E-09 1.43894E+00-4.39331E-01
 -1        87 4.91136E-09 1.25666E+00-3.93420E-01
 -1        88 8.10851E-09 1.44978E+00-4.13191E-01
 -1        89-6.33327E-09 1.42810E+00-4.65474E-01
 -1        90 4.69915E-13 1.27633E+00-3.43216E-01
 -1        91 5.22002E-13 1.43894E+00-4.39331E-01
 -1        92 4.54996E-13 1.25666E+00-3.93420E-01
 -1        93 2.09002E-08 1.81617E+00-5.73109E-01
 -1        94-2.00827E-08 1.79062E+00-6.28993E-01
 -1        95 6.46172E-13 1.81617E+00-5.73109E-01
 -1        96 6.28348E-13 1.79062E+00-6.28993E-01
 -1        97-9.27205E-09 1.62993E+00-4.89873E-01
 -1        98 4.11207E-10 1.80339E+00-6.01049E-01
 -1        99 7.73652E-09 1.60629E+00-5.44046E-01
 -1       100 1.04494E-08 1.81617E+00-5.73109E-01
 -1       101-1.00422E-08 1.79062E+00-6.28993E-01
 -1       102 5.87012E-13 1.62993E+00-4.89873E-01
 -1       103 6.37264E-13 1.80339E+00-6.01049E-01
 -1       104 5.69752E-13 1.60629E+00-5.44046E-01
 -1       105 2.51389E-08 2.20466E+00-7.58464E-01
 -1       106-3.21079E-08 2.17547E+00-8.17299E-01
 -1       107 7.63086E-13 2.20466E+00-7.58464E-01
 -1       108 7.45028E-13 2.17547E+00-8.17299E-01
 -1       109-1.16396E-08 2.00792E+00-6.62709E-01
 -1       110-3.48119E-09 2.19007E+00-7.87880E-01
 -1       111 1.23201E-08 1.98052E+00-7.20145E-01
 -1       112 1.25684E-08 2.20466E+00-7.58464E-01
 -1       113-1.60552E-08 2.17547E+00-8.17299E-01
 -1       114 7.04266E-13 2.00792E+00-6.62709E-01
 -1       115 7.53745E-13 2.19007E+00-7.87880E-01
 -1       116 6.86076E-13 1.98052E+00-7.20145E-01
 -1       117 2.74244E-08 2.61121E+00-9.67480E-01
 -1       118-5.14950E-08 2.57867E+00-1.02872E+00
 -1       119 8.83277E-13 2.61121E+00-9.67480E-01
 -1       120 8.64068E-13 2.57867E+00-1.02872E+00
 -1       121-1.35175E-08 2.40591E+00-8.60136E-01
 -1       122-1.20303E-08 2.59494E+00-9.98098E-01
 -1       123 1.97504E-08 2.37501E+00-9.20238E-01
 -1       124 1.37107E-08 2.61121E+00-9.67480E-01
 -1       125-2.57492E-08 2.57867E+00-1.02872E+00
 -1       126 8.22976E-13 2.40591E+00-8.60136E-01
 -1       127 8.73790E-13 2.59494E+00-9.98098E-01
 -1       128 8.05883E-13 2.37501E+00-9.20238E-01
 -1       129 2.51804E-08 3.03243E+00-1.19812E+00
 -1       130-8.23634E-08 2.99685E+00-1.26130E+00
 -1       131 9.93497E-13 3.03243E+00-1.19812E+00
 -1       132 9.76359E-13 2.99685E+00-1.26130E+00
 -1       133-1.39332E-08 2.82018E+00-1.08023E+00
 -1       134-2.85866E-08 3.01464E+00-1.22971E+00
 -1       135 3.16931E-08 2.78608E+00-1.14249E+00
 -1       136 1.25885E-08 3.03243E+00-1.19812E+00
 -1       137-4.11836E-08 2.99685E+00-1.26130E+00
 -1       138 9.37944E-13 2.82018E+00-1.08023E+00
 -1       139 9.84480E-13 3.01464E+00-1.22971E+00
 -1       140 9.22466E-13 2.78608E+00-1.14249E+00
 -1       141 1.43589E-08 3.46547E+00-1.44819E+00
 -1       142-1.30690E-07 3.42719E+00-1.51294E+00
 -1       143 1.09685E-12 3.46547E+00-1.44819E+00
 -1       144 1.08412E-12 3.42719E+00-1.51294E+00
 -1       145-1.12814E-08 3.24763E+00-1.32086E+00
 -1       146-5.81521E-08 3.44633E+00-1.48056E+00
 -1       147 5.06038E-08 3.21065E+00-1.38487E+00
 -1       148 7.17738E-09 3.46547E+00-1.44819E+00
 -1       149-6.53468E-08 3.42719E+00-1.51294E+00
 -1       150 1.04593E-12 3.24763E+00-1.32086E+00
 -1       151 1.09009E-12 3.44633E+00-1.48056E+00
 -1       152 1.02856E-12 3.21065E+00-1.38487E+00
 -1       153-1.09760E-08 3.90800E+00-1.71543E+00
 -1       154-2.04665E-07 3.86734E+00-1.78143E+00
 -1       155 1.20102E-12 3.90800E+00-1.71543E+00
 -1       156 1.18593E-12 3.86734E+00-1.78143E+00
 -1       157-3.11770E-09 3.68568E+00-1.57980E+00
 -1       158-1.07829E-07 3.88767E+00-1.74843E+00
 -1       159 8.00037E-08 3.64617E+00-1.64521E+00
 -1       160-5.48715E-09 3.90800E+00-1.71543E+00
 -1       161-1.02333E-07 3.86734E+00-1.78143E+00
 -1       162 1.14942E-12 3.68568E+00-1.57980E+00
 -1       163 1.19398E-12 3.88767E+00-1.74843E+00
 -1       164 1.13288E-12 3.64617E+00-1.64521E+00
 -1       165-5.88166E-08 4.35807E+00-1.99759E+00
 -1       166-3.15322E-07 4.31538E+00-2.06458E+00
 -1       167 1.29077E-12 4.35807E+00-1.99759E+00
 -1       168 1.26975E-12 4.31538E+00-2.06458E+00
 -1       169 1.40629E-08 4.13220E+00-1.85479E+00
 -1       170-1.86983E-07 4.33672E+00-2.03109E+00
 -1       171 1.24581E-07 4.09049E+00-1.92131E+00
 -1       172-2.94102E-08 4.35807E+00-1.99759E+00
 -1       173-1.57661E-07 4.31538E+00-2.06458E+00
 -1       174 1.24538E-12 4.13220E+00-1.85479E+00
 -1       175 1.27962E-12 4.33672E+00-2.03109E+00
 -1       176 1.22577E-12 4.09049E+00-1.92131E+00
 -1       177-1.39084E-07 4.81406E+00-2.29242E+00
 -1       178-4.74960E-07 4.76966E+00-2.36018E+00
 -1       179 1.36100E-12 4.81406E+00-2.29242E+00
 -1       180 1.33780E-12 4.76966E+00-2.36018E+00
 -1       181 4.47357E-08 4.58541E+00-2.14356E+00
 -1       182-3.07278E-07 4.79186E+00-2.32630E+00
 -1       183 1.90648E-07 4.54183E+00-2.21096E+00
 -1       184-6.95182E-08 4.81406E+00-2.29242E+00
 -1       185-2.37457E-07 4.76966E+00-2.36018E+00
 -1       186 1.32472E-12 4.58541E+00-2.14356E+00
 -1       187 1.35010E-12 4.79186E+00-2.32630E+00
 -1       188 1.30840E-12 4.54183E+00-2.21096E+00
 -1       189-2.61651E-07 5.27462E+00-2.59771E+00
 -1       190-7.00531E-07 5.22884E+00-2.66605E+00
 -1       191 1.43920E-12 5.27462E+00-2.59771E+00
 -1       192 1.41998E-12 5.22884E+00-2.66605E+00
 -1       193 9.44594E-08 5.04385E+00-2.44389E+00
 -1       194-4.80017E-07 5.25173E+00-2.63188E+00
 -1       195 2.84375E-07 4.99871E+00-2.51196E+00
 -1       196-1.30850E-07 5.27462E+00-2.59771E+00
 -1       197-3.50301E-07 5.22884E+00-2.66605E+00
 -1       198 1.39529E-12 5.04385E+00-2.44389E+00
 -1       199 1.42957E-12 5.25173E+00-2.63188E+00
 -1       200 1.38236E-12 4.99871E+00-2.51196E+00
 -1       201-4.34356E-07 5.73861E+00-2.91129E+00
 -1       202-9.92218E-07 5.69176E+00-2.98006E+00
 -1       203 1.50385E-12 5.73861E+00-2.91129E+00
 -1       204 1.49407E-12 5.69176E+00-2.98006E+00
 -1       205 1.67243E-07 5.50625E+00-2.75360E+00
 -1       206-7.17275E-07 5.71518E+00-2.94568E+00
 -1       207 4.15989E-07 5.45989E+00-2.82217E+00
 -1       208-2.16993E-07 5.73861E+00-2.91129E+00
 -1       209-4.95817E-07 5.69176E+00-2.98006E+00
 -1       210 1.45980E-12 5.50625E+00-2.75360E+00
 -1       211 1.49950E-12 5.71518E+00-2.94568E+00
 -1       212 1.45307E-12 5.45989E+00-2.82217E+00
 -1       213-6.50653E-07 6.20504E+00-3.23105E+00
 -1       214-1.39200E-06 6.15742E+00-3.30012E+00
 -1       215 1.55795E-12 6.20504E+00-3.23105E+00
 -1       216 1.54910E-12 6.15742E+00-3.30012E+00
 -1       217 2.68240E-07 5.97158E+00-3.07053E+00
 -1       218-1.00581E-06 6.18123E+00-3.26558E+00
 -1       219 5.77628E-07 5.92430E+00-3.13947E+00
 -1       220-3.25652E-07 6.20504E+00-3.23105E+00
 -1       221-6.96934E-07 6.15742E+00-3.30012E+00
 -1       222 1.52643E-12 5.97158E+00-3.07053E+00
 -1       223 1.55343E-12 6.18123E+00-3.26558E+00
 -1       224 1.51478E-12 5.92430E+00-3.13947E+00
 -1       225-8.88360E-07 6.67303E+00-3.55491E+00
 -1       226-1.72228E-06 6.62496E+00-3.62415E+00
 -1       227 1.62210E-12 6.67303E+00-3.55491E+00
 -1       228 1.60859E-12 6.62496E+00-3.62415E+00
 -1       229 3.81095E-07 6.43889E+00-3.39260E+00
 -1       230-1.36488E-06 6.64900E+00-3.58953E+00
 -1       231 8.11463E-07 6.39101E+00-3.46176E+00
 -1       232-4.42972E-07 6.67303E+00-3.55491E+00
 -1       233-8.56794E-07 6.62496E+00-3.62415E+00
 -1       234 1.58413E-12 6.43889E+00-3.39260E+00
 -1       235 1.61581E-12 6.64899E+00-3.58953E+00
 -1       236 1.57663E-12 6.39101E+00-3.46176E+00
 -1       237-1.05583E-06 7.14178E+00-3.88081E+00
 -1       238-2.49294E-06 7.09357E+00-3.95010E+00
 -1       239 1.72993E-12 7.14178E+00-3.88081E+00
 -1       240 1.71745E-12 7.09357E+00-3.95010E+00
 -1       241 5.17720E-07 6.90736E+00-3.71773E+00
 -1       242-1.54375E-06 7.11768E+00-3.91545E+00
 -1       243 9.25763E-07 6.85918E+00-3.78701E+00
 -1       244-5.30014E-07 7.14178E+00-3.88081E+00
 -1       245-1.26338E-06 7.09357E+00-3.95010E+00
 -1       246 1.66589E-12 6.90736E+00-3.71773E+00
 -1       247 1.72258E-12 7.11767E+00-3.91546E+00
 -1       248 1.65587E-12 6.85918E+00-3.78701E+00
 -1       249 0.00000E+00 0.00000E+00 0.00000E+00
 -1       250 0.00000E+00 0.00000E+00 0.00000E+00
 -1       251-6.30299E-10 3.72971E-02-1.95765E-03
 -1       252 5.49516E-10 3.64935E-02-1.27900E-02
 -1       253 0.00000E+00 0.00000E+00 0.00000E+00
 -1       254 0.00000E+00 0.00000E+00 0.00000E+00
 -1       255-3.15277E-10 3.72971E-02-1.95765E-03
 -1       256 2.74796E-10 3.64935E-02-1.27900E-02
 -1       257 0.00000E+00 0.00000E+00 0.00000E+00
 -1       258 1.08825E-10 9.49103E-03-2.98028E-04
 -1       259-4.07068E-11 3.68931E-02-7.37036E-03
 -1       260-1.29078E-10 9.26721E-03-5.83857E-03
 -1       261-1.67556E-09 1.44153E-01-1.39867E-02
 -1       262 1.21084E-09 1.41231E-01-3.45320E-02
 -1       263-8.37798E-10 1.44153E-01-1.39867E-02
 -1       264 6.05536E-10 1.41231E-01-3.45320E-02
 -1       265 5.20008E-10 8.25117E-02-6.17917E-03
 -1       266-2.32662E-10 1.42691E-01-2.42566E-02
 -1       267-4.19285E-10 8.07856E-02-2.20069E-02
 -1       268-3.21908E-09 3.12725E-01-4.36641E-02
 -1       269 2.09025E-09 3.06758E-01-7.27349E-02
 -1       270-1.60948E-09 3.12725E-01-4.36641E-02
 -1       271 1.04533E-09 3.06758E-01-7.27349E-02
 -1       272 1.15458E-09 2.21230E-01-2.62465E-02
 -1       273-5.64837E-10 3.09742E-01-5.81967E-02
 -1       274-7.89296E-10 2.16882E-01-5.11984E-02
 -1       275-5.37206E-09 5.34990E-01-9.61219E-02
 -1       276 3.33711E-09 5.25382E-01-1.32544E-01
 -1       277-2.68584E-09 5.34990E-01-9.61219E-02
 -1       278 1.66889E-09 5.25382E-01-1.32544E-01
 -1       279 2.06429E-09 4.17642E-01-6.68101E-02
 -1       280-1.01805E-09 5.30186E-01-1.14330E-01
 -1       281-1.29721E-09 4.09914E-01-9.96974E-02
 -1       282-8.24225E-09 8.03215E-01-1.74440E-01
 -1       283 5.19555E-09 7.89643E-01-2.17110E-01
 -1       284-4.12076E-09 8.03215E-01-1.74440E-01
 -1       285 2.59830E-09 7.89643E-01-2.17110E-01
 -1       286 3.30872E-09 6.63821E-01-1.31924E-01
 -1       287-1.52417E-09 7.96430E-01-1.95773E-01
 -1       288-2.03399E-09 6.52260E-01-1.71602E-01
 -1       289-1.18839E-08 1.11027E+00-2.80064E-01
 -1       290 8.07673E-09 1.09262E+00-3.27982E-01
 -1       291-5.94136E-09 1.11027E+00-2.80064E-01
 -1       292 4.03914E-09 1.09262E+00-3.27982E-01
 -1       293 4.93631E-09 9.52307E-01-2.23801E-01
 -1       294-1.90479E-09 1.10145E+00-3.04021E-01
 -1       295-3.15243E-09 9.36702E-01-2.69214E-01
 -1       296-1.62168E-08 1.44978E+00-4.13191E-01
 -1       297 1.26664E-08 1.42810E+00-4.65474E-01
 -1       298-8.10745E-09 1.44978E+00-4.13191E-01
 -1       299 6.33430E-09 1.42810E+00-4.65474E-01
 -1       300 6.95319E-09 1.27633E+00-3.43216E-01
 -1       301-1.77689E-09 1.43894E+00-4.39331E-01
 -1       302-4.91045E-09 1.25666E+00-3.93420E-01
 -1       303-2.08989E-08 1.81617E+00-5.73109E-01
 -1       304 2.00839E-08 1.79062E+00-6.28993E-01
 -1       305-1.04481E-08 1.81617E+00-5.73109E-01
 -1       306 1.00435E-08 1.79062E+00-6.28993E-01
 -1       307 9.27322E-09 1.62993E+00-4.89873E-01
 -1       308-4.09934E-10 1.80339E+00-6.01049E-01
 -1       309-7.73538E-09 1.60629E+00-5.44046E-01
 -1       310-2.51374E-08 2.20466E+00-7.58464E-01
 -1       311 3.21094E-08 2.17547E+00-8.17299E-01
 -1       312-1.25669E-08 2.20466E+00-7.58464E-01
 -1       313 1.60567E-08 2.17547E+00-8.17299E-01
 -1       314 1.16410E-08 2.00792E+00-6.62709E-01
 -1       315 3.48269E-09 2.19007E+00-7.87880E-01
 -1       316-1.23188E-08 1.98052E+00-7.20145E-01
 -1       317-2.74226E-08 2.61121E+00-9.67480E-01
 -1       318 5.14967E-08 2.57867E+00-1.02872E+00
 -1       319-1.37089E-08 2.61121E+00-9.67480E-01
 -1       320 2.57509E-08 2.57867E+00-1.02872E+00
 -1       321 1.35192E-08 2.40591E+00-8.60136E-01
 -1       322 1.20320E-08 2.59494E+00-9.98098E-01
 -1       323-1.97488E-08 2.37501E+00-9.20238E-01
 -1       324-2.51784E-08 3.03243E+00-1.19812E+00
 -1       325 8.23654E-08 2.99685E+00-1.26130E+00
 -1       326-1.25865E-08 3.03243E+00-1.19812E+00
 -1       327 4.11855E-08 2.99685E+00-1.26130E+00
 -1       328 1.39351E-08 2.82018E+00-1.08023E+00
 -1       329 2.85885E-08 3.01464E+00-1.22971E+00
 -1       330-3.16912E-08 2.78608E+00-1.14249E+00
 -1       331-1.43567E-08 3.46547E+00-1.44819E+00
 -1       332 1.30692E-07 3.42719E+00-1.51294E+00
 -1       333-7.17519E-09 3.46547E+00-1.44819E+00
 -1       334 6.53490E-08 3.42719E+00-1.51294E+00
 -1       335 1.12835E-08 3.24763E+00-1.32086E+00
 -1       336 5.81542E-08 3.44633E+00-1.48056E+00
 -1       337-5.06018E-08 3.21065E+00-1.38487E+00
 -1       338 1.09784E-08 3.90800E+00-1.71543E+00
 -1       339 2.04668E-07 3.86734E+00-1.78143E+00
 -1       340 5.48955E-09 3.90800E+00-1.71543E+00
 -1       341 1.02335E-07 3.86734E+00-1.78143E+00
 -1       342 3.12000E-09 3.68568E+00-1.57980E+00
 -1       343 1.07831E-07 3.88767E+00-1.74843E+00
 -1       344-8.00014E-08 3.64617E+00-1.64521E+00
 -1       345 5.88191E-08 4.35807E+00-1.99759E+00
 -1       346 3.15324E-07 4.31538E+00-2.06458E+00
 -1       347 2.94128E-08 4.35807E+00-1.99759E+00
 -1       348 1.57664E-07 4.31538E+00-2.06458E+00
 -1       349-1.40604E-08 4.13220E+00-1.85479E+00
 -1       350 1.86985E-07 4.33672E+00-2.03109E+00
 -1       351-1.24579E-07 4.09049E+00-1.92131E+00
 -1       352 1.39087E-07 4.81406E+00-2.29242E+00
 -1       353 4.74963E-07 4.76966E+00-2.36018E+00
 -1       354 6.95210E-08 4.81406E+00-2.29242E+00
 -1       355 2.37460E-07 4.76966E+00-2.36018E+00
 -1       356-4.47330E-08 4.58541E+00-2.14356E+00
 -1       357 3.07281E-07 4.79186E+00-2.32630E+00
 -1       358-1.90645E-07 4.54183E+00-2.21096E+00
 -1       359 2.61654E-07 5.27462E+00-2.59771E+00
 -1       360 7.00534E-07 5.22884E+00-2.66605E+00
 -1       361 1.30853E-07 5.27462E+00-2.59771E+00
 -1       362 3.50303E-07 5.22884E+00-2.66605E+00
 -1       363-9.44566E-08 5.04385E+00-2.44389E+00
 -1       364 4.80020E-07 5.25173E+00-2.63188E+00
 -1       365-2.84372E-07 4.99871E+00-2.51196E+00
 -1       366 4.34359E-07 5.73861E+00-2.91129E+00
 -1       367 9.92221E-07 5.69176E+00-2.98006E+00
 -1       368 2.16996E-07 5.73861E+00-2.91129E+00
 -1       369 4.95820E-07 5.69176E+00-2.98006E+00
 -1       370-1.67240E-07 5.50625E+00-2.75360E+00
 -1       371 7.17278E-07 5.71518E+00-2.94568E+00
 -1       372-4.15986E-07 5.45989E+00-2.82217E+00
 -1       373 6.50656E-07 6.20504E+00-3.23105E+00
 -1       374 1.39200E-06 6.15742E+00-3.30012E+00
 -1       375 3.25655E-07 6.20504E+00-3.23105E+00
 -1       376 6.96937E-07 6.15742E+00-3.30012E+00
 -1       377-2.68237E-07 5.97158E+00-3.07053E+00
 -1       378 1.00581E-06 6.18123E+00-3.26558E+00
 -1       379-5.77625E-07 5.92430E+00-3.13947E+00
 -1       380 8.88363E-07 6.67303E+00-3.55491E+00
 -1       381 1.72229E-06 6.62496E+00-3.62415E+00
 -1       382 4.42975E-07 6.67303E+00-3.55491E+00
 -1       383 8.56797E-07 6.62496E+00-3.62415E+00
 -1       384-3.81092E-07 6.43889E+00-3.39260E+00
 -1       385 1.36488E-06 6.64900E+00-3.58953E+00
 -1       386-8.11460E-07 6.39101E+00-3.46176E+00
 -1       387 1.05584E-06 7.14178E+00-3.88081E+00
 -1       388 2.49294E-06 7.09357E+00-3.95010E+00
 -1       389 5.30017E-07 7.14178E+00-3.88081E+00
 -1       390 1.26338E-06 7.09357E+00-3.95010E+00
 -1       391-5.17716E-07 6.90736E+00-3.71773E+00
 -1       392 1.54375E-06 7.11768E+00-3.91545E+00
 -1       393-9.25760E-07 6.85918E+00-3.78701E+00
 -1       394 0.00000E+00 0.00000E+00 0.00000E+00
 -1       395 1.22545E-09 3.81003E-02 8.86778E-03
 -1       396 0.00000E+00 0.00000E+00 0.00000E+00
 -1       397 1.75843E-14 3.81003E-02 8.86778E-03
 -1       398 0.00000E+00 0.00000E+00 0.00000E+00
 -1       399-3.64080E-10 9.71469E-03 5.24568E-03
 -1       400 9.27423E-10 3.77009E-02 3.45171E-03
 -1       401 0.00000E+00 0.00000E+00 0.00000E+00
 -1       402 6.12461E-10 3.81003E-02 8.86778E-03
 -1       403 0.00000E+00 0.00000E+00 0.00000E+00
 -1       404 5.04687E-15 9.71469E-03 5.24568E-03
 -1       405 1.64059E-14 3.77009E-02 3.45171E-03
 -1       406 2.01975E-09 1.47073E-01 6.55176E-03
 -1       407 6.27421E-14 1.47073E-01 6.55177E-03
 -1       408-8.63190E-10 8.42383E-02 9.65131E-03
 -1       409 1.84729E-09 1.45614E-01-3.72007E-03
 -1       410 1.00964E-09 1.47073E-01 6.55177E-03
 -1       411 3.70197E-14 8.42383E-02 9.65131E-03
 -1       412 6.03736E-14 1.45614E-01-3.72007E-03
 -1       413 2.36494E-09 3.18691E-01-1.45981E-02
 -1       414 1.30517E-13 3.18691E-01-1.45981E-02
 -1       415-1.15880E-09 2.25579E-01-1.29224E-03
 -1       416 2.79156E-09 3.15709E-01-2.91338E-02
 -1       417 1.18217E-09 3.18691E-01-1.45981E-02
 -1       418 9.41715E-14 2.25579E-01-1.29225E-03
 -1       419 1.27112E-13 3.15709E-01-2.91338E-02
 -1       420 2.09346E-09 5.44597E-01-5.97025E-02
 -1       421 2.16679E-13 5.44597E-01-5.97024E-02
 -1       422-1.20903E-09 4.25370E-01-3.39217E-02
 -1       423 3.73219E-09 5.39793E-01-7.79146E-02
 -1       424 1.04635E-09 5.44597E-01-5.97025E-02
 -1       425 1.72009E-13 4.25370E-01-3.39217E-02
 -1       426 2.12294E-13 5.39793E-01-7.79146E-02
 -1       427 8.37581E-10 8.16787E-01-1.31771E-01
 -1       428 3.17685E-13 8.16787E-01-1.31771E-01
 -1       429-8.88331E-10 6.75381E-01-9.22462E-02
 -1       430 4.53914E-09 8.10000E-01-1.53108E-01
 -1       431 4.18287E-10 8.16787E-01-1.31771E-01
 -1       432 2.65769E-13 6.75381E-01-9.22463E-02
 -1       433 3.12264E-13 8.10000E-01-1.53108E-01
 -1       434-2.05374E-09 1.12792E+00-2.32146E-01
 -1       435 4.29364E-13 1.12792E+00-2.32146E-01
 -1       436 4.53178E-11 9.67911E-01-1.78388E-01
 -1       437 4.91401E-09 1.11909E+00-2.56107E-01
 -1       438-1.02754E-09 1.12792E+00-2.32146E-01
 -1       439 3.72649E-13 9.67911E-01-1.78388E-01
 -1       440 4.22266E-13 1.11909E+00-2.56107E-01
 -1       441-7.63919E-09 1.47146E+00-3.60908E-01
 -1       442 5.43670E-13 1.47146E+00-3.60908E-01
 -1       443 2.00076E-09 1.29601E+00-2.93011E-01
 -1       444 4.28726E-09 1.46062E+00-3.87051E-01
 -1       445-3.82050E-09 1.47146E+00-3.60908E-01
 -1       446 4.84934E-13 1.29601E+00-2.93011E-01
 -1       447 5.36444E-13 1.46062E+00-3.87051E-01
 -1       448-1.75617E-08 1.84172E+00-5.17224E-01
 -1       449 6.62509E-13 1.84172E+00-5.17223E-01
 -1       450 5.62778E-09 1.65357E+00-4.35699E-01
 -1       451 1.66638E-09 1.82894E+00-5.45168E-01
 -1       452-8.78197E-09 1.84172E+00-5.17224E-01
 -1       453 6.03865E-13 1.65357E+00-4.35699E-01
 -1       454 6.54518E-13 1.82894E+00-5.45167E-01
 -1       455-3.42862E-08 2.23385E+00-6.99628E-01
 -1       456 7.79893E-13 2.23385E+00-6.99628E-01
 -1       457 1.19196E-08 2.03532E+00-6.05273E-01
 -1       458-4.57724E-09 2.21926E+00-7.29047E-01
 -1       459-1.71444E-08 2.23385E+00-6.99628E-01
 -1       460 7.22059E-13 2.03532E+00-6.05273E-01
 -1       461 7.71283E-13 2.21926E+00-7.29047E-01
 -1       462-6.13945E-08 2.64375E+00-9.06241E-01
 -1       463 8.98253E-13 2.64375E+00-9.06241E-01
 -1       464 2.23487E-08 2.43681E+00-8.00035E-01
 -1       465-1.69907E-08 2.62748E+00-9.36862E-01
 -1       466-3.06986E-08 2.64375E+00-9.06241E-01
 -1       467 8.41259E-13 2.43681E+00-8.00035E-01
 -1       468 8.90953E-13 2.62748E+00-9.36861E-01
 -1       469-1.03929E-07 3.06800E+00-1.13493E+00
 -1       470 1.00648E-12 3.06800E+00-1.13493E+00
 -1       471 3.90257E-08 2.85427E+00-1.01796E+00
 -1       472-3.93788E-08 3.05021E+00-1.16653E+00
 -1       473-5.19658E-08 3.06800E+00-1.13493E+00
 -1       474 9.56810E-13 2.85427E+00-1.01797E+00
 -1       475 9.99473E-13 3.05021E+00-1.16653E+00
 -1       476-1.68668E-07 3.50375E+00-1.38344E+00
 -1       477 1.11045E-12 3.50375E+00-1.38344E+00
 -1       478 6.48865E-08 3.28460E+00-1.25685E+00
 -1       479-7.71713E-08 3.48461E+00-1.41581E+00
 -1       480-8.43329E-08 3.50375E+00-1.38344E+00
 -1       481 1.06270E-12 3.28460E+00-1.25685E+00
 -1       482 1.10326E-12 3.48461E+00-1.41581E+00
 -1       483-2.64370E-07 3.94865E+00-1.64944E+00
 -1       484 1.21374E-12 3.94865E+00-1.64944E+00
 -1       485 1.03777E-07 3.72519E+00-1.51439E+00
 -1       486-1.37655E-07 3.92833E+00-1.68244E+00
 -1       487-1.32184E-07 3.94865E+00-1.64944E+00
 -1       488 1.16370E-12 3.72519E+00-1.51439E+00
 -1       489 1.20767E-12 3.92833E+00-1.68244E+00
 -1       490-4.01008E-07 4.40076E+00-1.93061E+00
 -1       491 1.30627E-12 4.40076E+00-1.93061E+00
 -1       492 1.60629E-07 4.17391E+00-1.78827E+00
 -1       493-2.30031E-07 4.37941E+00-1.96410E+00
 -1       494-2.00484E-07 4.40076E+00-1.93061E+00
 -1       495 1.26667E-12 4.17391E+00-1.78827E+00
 -1       496 1.29800E-12 4.37941E+00-1.96410E+00
 -1       497-5.89905E-07 4.85846E+00-2.22467E+00
 -1       498 1.37918E-12 4.85846E+00-2.22467E+00
 -1       499 2.40478E-07 4.62900E+00-2.07617E+00
 -1       500-3.64137E-07 4.83626E+00-2.25854E+00
 -1       501-2.94963E-07 4.85846E+00-2.22467E+00
 -1       502 1.34473E-12 4.62900E+00-2.07617E+00
 -1       503 1.37089E-12 4.83626E+00-2.25854E+00
 -1       504-8.34962E-07 5.32041E+00-2.52937E+00
 -1       505 1.45091E-12 5.32041E+00-2.52937E+00
 -1       506 3.49758E-07 5.08898E+00-2.37582E+00
 -1       507-5.49695E-07 5.29751E+00-2.56354E+00
 -1       508-4.17320E-07 5.32041E+00-2.52937E+00
 -1       509 1.41095E-12 5.08898E+00-2.37582E+00
 -1       510 1.44454E-12 5.29751E+00-2.56354E+00
 -1       511-1.14533E-06 5.78546E+00-2.84252E+00
 -1       512 1.50609E-12 5.78546E+00-2.84252E+00
 -1       513 4.85547E-07 5.55261E+00-2.68502E+00
 -1       514-7.84955E-07 5.76204E+00-2.87691E+00
 -1       515-5.72982E-07 5.78546E+00-2.84252E+00
 -1       516 1.47658E-12 5.55261E+00-2.68502E+00
 -1       517 1.50565E-12 5.76204E+00-2.87690E+00
 -1       518-1.45077E-06 6.25265E+00-3.16199E+00
 -1       519 1.56068E-12 6.25265E+00-3.16199E+00
 -1       520 6.61752E-07 6.01885E+00-3.00159E+00
 -1       521-1.06867E-06 6.22884E+00-3.19652E+00
 -1       522-7.23887E-07 6.25265E+00-3.16199E+00
 -1       523 1.54153E-12 6.01885E+00-3.00159E+00
 -1       524 1.56002E-12 6.22884E+00-3.19652E+00
 -1       525-1.84012E-06 6.72110E+00-3.48568E+00
 -1       526 1.62736E-12 6.72109E+00-3.48568E+00
 -1       527 7.87617E-07 6.48676E+00-3.32343E+00
 -1       528-1.29922E-06 6.69706E+00-3.52029E+00
 -1       529-9.24398E-07 6.72109E+00-3.48568E+00
 -1       530 1.59819E-12 6.48676E+00-3.32343E+00
 -1       531 1.62525E-12 6.69706E+00-3.52029E+00
 -1       532-1.55779E-06 7.19001E+00-3.81152E+00
 -1       533 1.73039E-12 7.19000E+00-3.81152E+00
 -1       534 1.06901E-06 6.95553E+00-3.64845E+00
 -1       535-1.54480E-06 7.16589E+00-3.84617E+00
 -1       536-7.63329E-07 7.19000E+00-3.81152E+00
 -1       537 1.68397E-12 6.95554E+00-3.64845E+00
 -1       538 1.72859E-12 7.16589E+00-3.84617E+00
 -1       539 0.00000E+00 0.00000E+00 0.00000E+00
 -1       540-1.22541E-09 3.81003E-02 8.86778E-03
 -1       541 0.00000E+00 0.00000E+00 0.00000E+00
 -1       542-6.12426E-10 3.81003E-02 8.86778E-03
 -1       543 0.00000E+00 0.00000E+00 0.00000E+00
 -1       544 3.64090E-10 9.71469E-03 5.24568E-03
 -1       545-9.27390E-10 3.77009E-02 3.45171E-03
 -1       546-2.01962E-09 1.47073E-01 6.55176E-03
 -1       547-1.00951E-09 1.47073E-01 6.55177E-03
 -1       548 8.63264E-10 8.42383E-02 9.65131E-03
 -1       549-1.84717E-09 1.45614E-01-3.72007E-03
 -1       550-2.36468E-09 3.18691E-01-1.45981E-02
 -1       551-1.18190E-09 3.18691E-01-1.45981E-02
 -1       552 1.15899E-09 2.25579E-01-1.29224E-03
 -1       553-2.79131E-09 3.15709E-01-2.91338E-02
 -1       554-2.09303E-09 5.44597E-01-5.97025E-02
 -1       555-1.04592E-09 5.44597E-01-5.97025E-02
 -1       556 1.20937E-09 4.25370E-01-3.39217E-02
 -1       557-3.73177E-09 5.39793E-01-7.79146E-02
 -1       558-8.36945E-10 8.16787E-01-1.31771E-01
 -1       559-4.17651E-10 8.16787E-01-1.31771E-01
 -1       560 8.88862E-10 6.75381E-01-9.22462E-02
 -1       561-4.53852E-09 8.10000E-01-1.53108E-01
 -1       562 2.05460E-09 1.12792E+00-2.32146E-01
 -1       563 1.02840E-09 1.12792E+00-2.32146E-01
 -1       564-4.45731E-11 9.67911E-01-1.78388E-01
 -1       565-4.91316E-09 1.11909E+00-2.56107E-01
 -1       566 7.64028E-09 1.47146E+00-3.60908E-01
 -1       567 3.82158E-09 1.47146E+00-3.60908E-01
 -1       568-1.99979E-09 1.29601E+00-2.93011E-01
 -1       569-4.28618E-09 1.46062E+00-3.87051E-01
 -1       570 1.75630E-08 1.84172E+00-5.17224E-01
 -1       571 8.78329E-09 1.84172E+00-5.17224E-01
 -1       572-5.62658E-09 1.65357E+00-4.35699E-01
 -1       573-1.66507E-09 1.82894E+00-5.45168E-01
 -1       574 3.42877E-08 2.23385E+00-6.99628E-01
 -1       575 1.71460E-08 2.23385E+00-6.99628E-01
 -1       576-1.19182E-08 2.03532E+00-6.05273E-01
 -1       577 4.57878E-09 2.21926E+00-7.29047E-01
 -1       578 6.13963E-08 2.64375E+00-9.06241E-01
 -1       579 3.07003E-08 2.64375E+00-9.06241E-01
 -1       580-2.23470E-08 2.43681E+00-8.00035E-01
 -1       581 1.69925E-08 2.62748E+00-9.36862E-01
 -1       582 1.03931E-07 3.06800E+00-1.13493E+00
 -1       583 5.19678E-08 3.06800E+00-1.13493E+00
 -1       584-3.90238E-08 2.85427E+00-1.01796E+00
 -1       585 3.93808E-08 3.05021E+00-1.16653E+00
 -1       586 1.68671E-07 3.50375E+00-1.38344E+00
 -1       587 8.43351E-08 3.50375E+00-1.38344E+00
 -1       588-6.48844E-08 3.28460E+00-1.25685E+00
 -1       589 7.71735E-08 3.48461E+00-1.41581E+00
 -1       590 2.64372E-07 3.94865E+00-1.64944E+00
 -1       591 1.32186E-07 3.94865E+00-1.64944E+00
 -1       592-1.03775E-07 3.72519E+00-1.51439E+00
 -1       593 1.37657E-07 3.92833E+00-1.68244E+00
 -1       594 4.01011E-07 4.40076E+00-1.93061E+00
 -1       595 2.00487E-07 4.40076E+00-1.93061E+00
 -1       596-1.60627E-07 4.17391E+00-1.78827E+00
 -1       597 2.30034E-07 4.37941E+00-1.96410E+00
 -1       598 5.89908E-07 4.85846E+00-2.22467E+00
 -1       599 2.94966E-07 4.85846E+00-2.22467E+00
 -1       600-2.40476E-07 4.62900E+00-2.07617E+00
 -1       601 3.64140E-07 4.83626E+00-2.25854E+00
 -1       602 8.34965E-07 5.32041E+00-2.52937E+00
 -1       603 4.17323E-07 5.32041E+00-2.52937E+00
 -1       604-3.49756E-07 5.08898E+00-2.37582E+00
 -1       605 5.49698E-07 5.29751E+00-2.56354E+00
 -1       606 1.14533E-06 5.78546E+00-2.84252E+00
 -1       607 5.72985E-07 5.78546E+00-2.84252E+00
 -1       608-4.85544E-07 5.55261E+00-2.68502E+00
 -1       609 7.84958E-07 5.76204E+00-2.87691E+00
 -1       610 1.45078E-06 6.25265E+00-3.16199E+00
 -1       611 7.23890E-07 6.25265E+00-3.16199E+00
 -1       612-6.61748E-07 6.01885E+00-3.00159E+00
 -1       613 1.06867E-06 6.22884E+00-3.19652E+00
 -1       614 1.84012E-06 6.72110E+00-3.48568E+00
 -1       615 9.24402E-07 6.72109E+00-3.48568E+00
 -1       616-7.87614E-07 6.48676E+00-3.32343E+00
 -1       617 1.29922E-06 6.69706E+00-3.52029E+00
 -1       618 1.55779E-06 7.19001E+00-3.81152E+00
 -1       619 7.63332E-07 7.19000E+00-3.81152E+00
 -1       620-1.06900E-06 6.95553E+00-3.64845E+00
 -1       621 1.54480E-06 7.16589E+00-3.84617E+00
 -3
    1PSTEP                        20          10           1          
  100CL  110 5.00000E-01         621                     0   10           1
 -4  STRESS      6    1
 -5  SXX         1    4    1    1
 -5  SYY         1    4    2    2
 -5  SZZ         1    4    3    3
 -5  SXY         1    4    1    2
 -5  SYZ         1    4    2    3
 -5  SZX         1    4    3    1
 -1         1 5.46593E-01-1.27993E+04-2.23130E+06 1.40627E+00-2.44657E+03 7.38167E-01
 -1         2-5.68906E-01-1.91234E+04-3.90129E+04-1.97476E-01 8.90254E+03-1.43136E+00
 -1         3-1.38290E-01-2.44664E+04-3.61107E+04-7.55732E-02 1.63059E+04-1.36029E-01
 -1         4 3.71270E-02-3.93276E+04-2.00664E+06 1.36524E-01-3.02824E+05 5.35674E-02
 -1         5 5.46593E-01-1.28014E+04-2.23130E+06 3.29025E-08-2.44822E+03-1.62410E-07
 -1         6-5.68907E-01-1.91240E+04-3.90119E+04 4.78321E-08 8.90317E+03-1.36242E-08
 -1         7-1.36131E-01-2.44663E+04-3.61098E+04-2.26359E-08 1.63063E+04-1.80713E-08
 -1         8 3.66299E-02-3.93279E+04-2.00664E+06-7.08820E-08-3.02824E+05-3.48666E-07
 -1         9-1.15162E-02-1.59478E+04-1.13491E+06 6.33814E-01 3.90208E+03-3.44117E-01
 -1        10 6.42831E-02-2.01986E+04-3.65248E+04 2.68846E-02 1.24290E+04 4.41772E-02
 -1        11-5.06806E-02-3.19291E+04-1.02125E+06 6.80778E-02-1.43464E+05-5.12201E-02
 -1        12-1.05642E-02-2.36206E+04-2.12152E+06-5.47503E-02-1.51692E+05-2.26140E-02
 -1        13 5.46593E-01-1.28004E+04-2.23130E+06 1.21188E+00-2.44739E+03 6.96799E-01
 -1        14-5.68906E-01-1.91237E+04-3.90124E+04-3.48679E-01 8.90286E+03-1.37153E+00
 -1        15-1.37211E-01-2.44663E+04-3.61103E+04-4.36963E-02 1.63061E+04-5.09011E-02
 -1        16 3.68785E-02-3.93277E+04-2.00664E+06 9.20506E-02-3.02824E+05 1.32034E-02
 -1        17-1.15162E-02-1.59498E+04-1.13491E+06 5.40714E-08 3.90073E+03-9.11905E-08
 -1        18 6.53623E-02-2.01986E+04-3.65253E+04 2.69508E-08 1.24289E+04 1.20861E-09
 -1        19-4.98420E-02-3.19292E+04-1.02125E+06-2.42777E-08-1.43464E+05-1.68968E-07
 -1        20-1.08127E-02-2.36205E+04-2.12152E+06-2.34146E-08-1.51692E+05-2.36176E-07
 -1        21-1.65644E-01-1.22345E+04-3.22618E+04-1.37674E-01 1.17121E+04-2.22050E-01
 -1        22 7.27695E-02-1.45522E+05-1.72793E+06 2.05146E-01-5.02900E+05 7.60429E-02
 -1        23-1.64877E-01-1.22343E+04-3.22611E+04 3.60078E-08 1.17127E+04-8.84457E-09
 -1        24 7.13558E-02-1.45523E+05-1.72793E+06-1.06952E-07-5.02901E+05-3.11584E-07
 -1        25 7.44106E-02-1.79079E+04-3.42246E+04 5.06382E-02 1.38201E+04 9.02129E-02
 -1        26-4.65638E-02-7.88987E+04-8.80027E+05 7.62744E-02-2.45674E+05-9.46978E-02
 -1        27-2.68709E-02-9.23772E+04-1.86659E+06-8.34119E-02-4.04522E+05-3.17272E-02
 -1        28-1.65261E-01-1.22344E+04-3.22614E+04-7.28579E-02 1.17124E+04-1.02690E-01
 -1        29 7.20626E-02-1.45523E+05-1.72793E+06 1.34269E-01-5.02900E+05 3.50235E-02
 -1        30 7.58731E-02-1.79080E+04-3.42250E+04 5.94299E-09 1.38198E+04 1.29101E-08
 -1        31-4.68817E-02-7.88989E+04-8.80026E+05-6.15508E-08-2.45674E+05-1.52556E-07
 -1        32-2.78263E-02-9.23770E+04-1.86659E+06-6.28198E-08-4.04522E+05-3.26973E-07
 -1        33-2.02761E-01-6.94456E+03-2.91292E+04-2.25439E-01 9.91646E+03-2.92762E-01
 -1        34 1.22843E-01-2.63863E+05-1.43712E+06 3.01832E-01-6.18157E+05 1.07857E-01
 -1        35-2.02715E-01-6.94425E+03-2.91286E+04-1.78548E-07 9.91709E+03-1.15132E-08
 -1        36 1.20417E-01-2.63864E+05-1.43712E+06-3.92556E-07-6.18158E+05-4.20168E-07
 -1        37 9.18881E-02-9.62674E+03-3.07464E+04 8.85553E-02 1.05341E+04 1.29788E-01
 -1        38-4.00409E-02-1.35425E+05-7.33076E+05 8.98145E-02-3.04129E+05-1.29745E-01
 -1        39-4.66510E-02-2.05257E+05-1.58154E+06-1.23877E-01-5.61325E+05-4.51705E-02
 -1        40-2.02738E-01-6.94441E+03-2.91289E+04-1.09911E-01 9.91678E+03-1.39012E-01
 -1        41 1.21630E-01-2.63864E+05-1.43712E+06 1.95008E-01-6.18157E+05 6.28912E-02
 -1        42 9.22946E-02-9.62688E+03-3.07467E+04-7.57005E-08 1.05338E+04 1.11387E-08
 -1        43-4.12245E-02-1.35426E+05-7.33076E+05-1.96678E-07-3.04129E+05-1.93240E-07
 -1        44-4.85707E-02-2.05256E+05-1.58154E+06-8.79766E-08-5.61325E+05-3.19772E-07
 -1        45-2.38585E-01-1.78394E+03-2.56835E+04-3.31653E-01 7.33635E+03-3.40544E-01
 -1        46 2.04591E-01-3.74974E+05-1.16324E+06 4.38703E-01-6.61520E+05 1.54201E-01
 -1        47-2.39957E-01-1.78357E+03-2.56832E+04 5.48994E-08 7.33700E+03-2.23937E-08
 -1        48 2.00680E-01-3.74975E+05-1.16324E+06-1.09313E-06-6.61520E+05-2.15442E-07
 -1        49 1.11753E-01-4.63979E+03-2.75154E+04 1.37758E-01 8.45011E+03 1.60147E-01
 -1        50-1.70377E-02-1.88389E+05-5.94438E+05 1.18162E-01-3.27086E+05-1.52535E-01
 -1        51-7.75140E-02-3.20080E+05-1.29920E+06-1.80839E-01-6.40030E+05-6.39893E-02
 -1        52-2.39271E-01-1.78375E+03-2.56833E+04-1.47922E-01 7.33668E+03-1.54797E-01
 -1        53 2.02635E-01-3.74975E+05-1.16324E+06 2.79660E-01-6.61520E+05 9.99120E-02
 -1        54 1.11090E-01-4.63997E+03-2.75156E+04-7.06502E-08 8.44979E+03-5.53527E-08
 -1        55-1.96735E-02-1.88389E+05-5.94438E+05-3.57521E-07-3.27086E+05-2.33662E-07
 -1        56-8.06824E-02-3.20079E+05-1.29920E+06-7.17590E-07-6.40030E+05-2.85812E-07
 -1        57-2.56635E-01 1.76161E+03-2.24103E+04-4.43216E-01 5.25450E+03-3.52607E-01
 -1        58 3.42200E-01-4.62878E+05-9.21341E+05 6.35396E-01-6.53798E+05 2.26090E-01
 -1        59-2.60069E-01 1.76193E+03-2.24103E+04 9.21924E-08 5.25510E+03 2.15194E-08
 -1        60 3.36114E-01-4.62879E+05-9.21341E+05-6.25223E-07-6.53799E+05-4.61407E-08
 -1        61 1.27883E-01-3.77038E+02-2.41028E+04 1.93751E-01 6.23318E+03 1.76317E-01
 -1        62 4.28286E-02-2.30563E+05-4.71862E+05 1.77418E-01-3.24265E+05-1.53558E-01
 -1        63-1.29332E-01-4.19469E+05-1.04164E+06-2.61878E-01-6.57499E+05-9.22588E-02
 -1        64-2.58352E-01 1.76177E+03-2.24103E+04-1.76193E-01 5.25480E+03-1.42195E-01
 -1        65 3.39157E-01-4.62878E+05-9.21341E+05 3.96123E-01-6.53798E+05 1.52134E-01
 -1        66 1.25480E-01-3.77222E+02-2.41028E+04 1.99976E-07 6.23286E+03-3.10582E-08
 -1        67 3.80743E-02-2.30564E+05-4.71862E+05 3.07111E-08-3.24265E+05 2.30381E-09
 -1        68-1.34330E-01-4.19469E+05-1.04164E+06-2.53659E-07-6.57499E+05-3.29496E-07
 -1        69-2.29899E-01 4.42206E+03-1.92636E+04-5.35997E-01 3.46571E+03-3.09885E-01
 -1        70 5.71577E-01-5.22681E+05-7.17494E+05 9.22847E-01-6.12828E+05 3.40611E-01
 -1        71-2.36421E-01 4.42218E+03-1.92641E+04-2.33840E-07 3.46613E+03-6.78240E-08
 -1        72 5.62326E-01-5.22683E+05-7.17495E+05 1.09059E-06-6.12829E+05-4.49178E-07
 -1        73 1.29809E-01 2.74181E+03-2.08758E+04 2.47742E-01 4.39210E+03 1.70387E-01
 -1        74 1.71041E-01-2.59134E+05-3.68368E+05 2.94911E-01-3.04677E+05-1.17209E-01
 -1        75-2.16670E-01-4.93156E+05-8.19070E+05-3.79148E-01-6.33016E+05-1.36894E-01
 -1        76-2.33160E-01 4.42212E+03-1.92639E+04-1.78758E-01 3.46592E+03-9.01268E-02
 -1        77 5.66951E-01-5.22682E+05-7.17494E+05 5.55371E-01-6.12828E+05 2.28586E-01
 -1        78 1.24831E-01 2.74168E+03-2.08757E+04-3.16482E-07 4.39184E+03 2.48567E-09
 -1        79 1.63160E-01-2.59135E+05-3.68369E+05-2.80811E-07-3.04677E+05-3.34484E-07
 -1        80-2.24338E-01-4.93156E+05-8.19070E+05-4.88271E-07-6.33016E+05-4.20391E-08
 -1        81-1.16185E-01 6.32546E+03-1.63806E+04-5.69585E-01 2.06215E+03-1.86422E-01
 -1        82 9.45738E-01-5.54592E+05-5.51427E+05 1.34687E+00-5.53267E+05 5.21603E-01
 -1        83-1.27051E-01 6.32513E+03-1.63814E+04 9.91610E-07 2.06225E+03 1.29141E-07
 -1        84 9.32065E-01-5.54594E+05-5.51428E+05-1.11516E-06-5.53268E+05-8.99378E-08
 -1        85 1.00808E-01 5.08170E+03-1.78610E+04 2.84240E-01 2.85279E+03 1.31146E-01
 -1        86 4.15220E-01-2.74138E+05-2.83894E+05 5.13625E-01-2.75600E+05-2.11505E-02
 -1        87-3.61225E-01-5.38867E+05-6.34344E+05-5.51373E-01-5.82736E+05-2.07995E-01
 -1        88-1.21618E-01 6.32529E+03-1.63810E+04-1.33106E-01 2.06220E+03 1.57425E-02
 -1        89 9.38901E-01-5.54593E+05-5.51427E+05 7.70653E-01-5.53267E+05 3.41111E-01
 -1        90 9.21144E-02 5.08172E+03-1.78607E+04-1.40561E-07 2.85265E+03 3.45406E-08
 -1        91 4.02955E-01-2.74139E+05-2.83895E+05 2.77062E-08-2.75601E+05 1.10151E-07
 -1        92-3.72687E-01-5.38866E+05-6.34344E+05 5.16101E-07-5.82736E+05-2.34433E-07
 -1        93 1.47522E-01 7.69881E+03-1.38016E+04-4.81210E-01 9.87243E+02 5.07654E-02
 -1        94 1.54034E+00-5.62011E+05-4.19541E+05 1.97187E+00-4.85712E+05 8.00409E-01
 -1        95 1.30798E-01 7.69768E+03-1.38031E+04-2.54004E-06 9.86839E+02-2.69779E-07
 -1        96 1.52086E+00-5.62014E+05-4.19542E+05-3.89672E-07-4.85714E+05-7.39259E-08
 -1        97 1.51257E-02 6.78727E+03-1.51400E+04 2.78324E-01 1.63802E+03 4.38500E-02
 -1        98 8.44786E-01-2.77161E+05-2.16662E+05 8.97007E-01-2.42361E+05 1.64236E-01
 -1        99-5.94802E-01-5.58427E+05-4.85511E+05-8.05349E-01-5.19220E+05-3.19187E-01
 -1       100 1.39160E-01 7.69824E+03-1.38024E+04-1.00855E-02 9.87041E+02 1.92422E-01
 -1       101 1.53060E+00-5.62013E+05-4.19541E+05 1.05443E+00-4.85713E+05 5.04056E-01
 -1       102 1.33119E-03 6.78760E+03-1.51394E+04 2.78599E-07 1.63809E+03-1.80420E-07
 -1       103 8.26689E-01-2.77163E+05-2.16663E+05-2.08610E-06-2.42362E+05-2.11246E-07
 -1       104-6.11377E-01-5.58426E+05-4.85511E+05-1.07447E-06-5.19219E+05-3.42590E-07
 -1       105 6.49611E-01 8.68378E+03-1.15521E+04-1.82716E-01 1.94255E+02 4.40911E-01
 -1       106 2.45935E+00-5.49517E+05-3.16770E+05 2.87851E+00-4.17271E+05 1.21618E+00
 -1       107 6.26041E-01 8.68141E+03-1.15542E+04-2.50196E-06 1.93138E+02-3.73715E-07
 -1       108 2.43290E+00-5.49520E+05-3.16771E+05 6.99077E-07-4.17273E+05-2.70059E-07
 -1       109-1.64952E-01 8.02605E+03-1.27358E+04 1.92490E-01 7.07024E+02-1.09642E-01
 -1       110 1.55578E+00-2.70422E+05-1.64153E+05 1.52930E+00-2.08537E+05 4.75882E-01
 -1       111-9.61969E-01-5.55823E+05-3.68261E+05-1.17786E+00-4.51281E+05-4.87951E-01
 -1       112 6.37826E-01 8.68259E+03-1.15531E+04 2.23208E-01 1.93697E+02 4.58379E-01
 -1       113 2.44613E+00-5.49518E+05-3.16771E+05 1.41129E+00-4.17272E+05 7.33135E-01
 -1       114-1.85099E-01 8.02689E+03-1.27349E+04-1.87120E-06 7.07398E+02-1.78113E-07
 -1       115 1.53077E+00-2.70424E+05-1.64154E+05-6.11976E-07-2.08539E+05-9.14788E-08
 -1       116-9.84931E-01-5.55821E+05-3.68260E+05-4.08391E-07-4.51280E+05 2.27721E-08
 -1       117 1.50648E+00 9.39227E+03-9.62669E+03 4.44603E-01-3.74774E+02 1.02657E+00
 -1       118 3.83370E+00-5.21789E+05-2.37805E+05 4.16772E+00-3.52259E+05 1.81591E+00
 -1       119 1.47482E+00 9.38826E+03-9.62960E+03 2.06396E-06-3.76795E+02-2.22079E-07
 -1       120 3.80004E+00-5.21791E+05-2.37807E+05-2.82396E-06-3.52261E+05 1.13724E-06
 -1       121-4.90661E-01 8.91981E+03-1.06547E+04-2.29369E-02 1.74458E+01-3.50154E-01
 -1       122 2.67260E+00-2.56203E+05-1.23709E+05 2.51968E+00-1.76316E+05 9.57572E-01
 -1       123-1.52290E+00-5.35672E+05-2.77427E+05-1.71117E+00-3.84611E+05-7.35582E-01
 -1       124 1.49065E+00 9.39026E+03-9.62815E+03 5.96038E-01-3.75784E+02 8.29758E-01
 -1       125 3.81687E+00-5.21790E+05-2.37806E+05 1.82280E+00-3.52260E+05 1.04401E+00
 -1       126-5.18278E-01 8.92136E+03-1.06534E+04-1.32700E-06 1.82292E+01-5.84768E-07
 -1       127 2.63993E+00-2.56206E+05-1.23711E+05-9.49427E-08-1.76318E+05 3.80689E-07
 -1       128-1.55296E+00-5.35671E+05-2.77426E+05-1.48591E-06-3.84610E+05 1.45618E-07
 -1       129 2.85256E+00 9.90301E+03-8.00574E+03 1.52196E+00-7.71228E+02 1.84918E+00
 -1       130 5.82327E+00-4.83011E+05-1.77731E+05 5.90355E+00-2.92971E+05 2.64882E+00
 -1       131 2.81796E+00 9.89713E+03-8.00943E+03-1.65285E-06-7.74274E+02-2.89726E-07
 -1       132 5.78525E+00-4.83011E+05-1.77733E+05-1.38790E-07-2.92973E+05-5.80206E-08
 -1       133-1.02820E+00 9.56415E+03-8.88361E+03-4.34798E-01-4.78165E+02-6.98863E-01
 -1       134 4.33997E+00-2.36558E+05-9.28630E+04 3.96005E+00-1.46870E+05 1.65516E+00
 -1       135-2.35002E+00-5.02399E+05-2.07914E+05-2.46054E+00-3.22509E+05-1.08689E+00
 -1       136 2.83526E+00 9.90007E+03-8.00759E+03 1.11438E+00-7.72751E+02 1.31827E+00
 -1       137 5.80426E+00-4.83011E+05-1.77732E+05 2.22187E+00-2.92972E+05 1.44526E+00
 -1       138-1.06134E+00 9.56660E+03-8.88195E+03 1.45722E-07-4.76891E+02 5.96028E-08
 -1       139 4.30366E+00-2.36560E+05-9.28654E+04 8.94601E-07-1.46873E+05 4.30924E-07
 -1       140-2.38586E+00-5.02398E+05-2.07914E+05 1.94541E-06-3.22508E+05-9.43556E-08
 -1       141 4.82780E+00 1.02725E+04-6.66045E+03 3.21004E+00-1.03953E+03 2.93191E+00
 -1       142 8.55912E+00-4.36630E+05-1.32315E+05 8.21046E+00-2.40324E+05 3.77098E+00
 -1       143 4.78625E+00 1.02651E+04-6.66487E+03 2.21564E-06-1.04354E+03 4.83251E-07
 -1       144 8.52096E+00-4.36624E+05-1.32317E+05-1.66886E-06-2.40326E+05-3.38787E-06
 -1       145-1.84591E+00 1.00291E+04-7.39930E+03-1.09342E+00-8.23130E+02-1.17504E+00
 -1       146 6.70255E+00-2.13183E+05-6.94839E+04 5.98966E+00-1.20680E+05 2.61637E+00
 -1       147-3.53004E+00-4.59810E+05-1.55162E+05-3.42971E+00-2.66578E+05-1.56558E+00
 -1       148 4.80703E+00 1.02688E+04-6.66266E+03 1.73481E+00-1.04154E+03 1.90999E+00
 -1       149 8.54004E+00-4.36627E+05-1.32316E+05 2.43856E+00-2.40325E+05 1.94093E+00
 -1       150-1.88398E+00 1.00324E+04-7.39726E+03 1.52319E-06-8.21337E+02 1.27782E-07
 -1       151 6.66267E+00-2.13182E+05-6.94870E+04 4.30550E-07-1.20684E+05-1.57647E-06
 -1       152-3.56813E+00-4.59811E+05-1.55161E+05-3.31727E-06-2.66577E+05-6.30110E-07
 -1       153 7.48359E+00 1.05405E+04-5.55873E+03 5.39960E+00-1.21558E+03 4.28273E+00
 -1       154 1.21958E+01-3.85320E+05-9.80697E+04 1.06521E+01-1.94358E+05 5.18203E+00
 -1       155 7.48732E+00 1.05331E+04-5.56368E+03 4.93770E-07-1.22020E+03-8.11683E-07
 -1       156 1.21899E+01-3.85302E+05-9.80723E+04-4.57676E-06-1.94360E+05 1.59352E-06
 -1       157-3.01949E+00 1.03654E+04-6.17321E+03-2.10163E+00-1.05487E+03-1.78089E+00
 -1       158 9.83034E+00-1.87393E+05-5.18124E+04 8.33388E+00-9.77845E+04 3.85028E+00
 -1       159-5.11639E+00-4.10959E+05-1.15318E+05-4.72727E+00-2.17298E+05-2.20015E+00
 -1       160 7.48546E+00 1.05368E+04-5.56121E+03 2.28179E+00-1.21789E+03 2.59578E+00
 -1       161 1.21928E+01-3.85311E+05-9.80710E+04 2.14250E+00-1.94359E+05 2.47760E+00
 -1       162-3.03840E+00 1.03692E+04-6.17083E+03 1.86105E-07-1.05267E+03-6.68673E-07
 -1       163 9.82924E+00-1.87387E+05-5.18162E+04-2.16688E-06-9.77895E+04-1.71554E-07
 -1       164-5.13844E+00-4.10965E+05-1.15317E+05-4.67576E-06-2.17297E+05-1.94092E-07
 -1       165 1.07930E+01 1.07358E+04-4.66904E+03 8.47903E+00-1.32782E+03 5.76290E+00
 -1       166 1.64163E+01-3.31046E+05-7.22112E+04 1.40695E+01-1.54592E+05 6.99215E+00
 -1       167 1.07515E+01 1.07324E+04-4.67423E+03 9.49455E-07-1.33191E+03-1.74747E-06
 -1       168 1.64027E+01-3.31008E+05-7.22136E+04-2.91847E-07-1.54591E+05 2.19123E-06
 -1       169-4.51323E+00 1.06093E+04-5.17573E+03-3.23628E+00-1.20412E+03-2.51976E+00
 -1       170 1.36728E+01-1.60160E+05-3.84396E+04 1.15950E+01-7.79558E+04 5.40072E+00
 -1       171-7.18186E+00-3.58162E+05-8.52507E+04-5.80235E+00-1.74446E+05-2.96437E+00
 -1       172 1.07723E+01 1.07341E+04-4.67163E+03 2.43591E+00-1.32986E+03 3.17916E+00
 -1       173 1.64095E+01-3.31027E+05-7.22124E+04 6.33595E-01-1.54592E+05 3.06932E+00
 -1       174-4.53211E+00 1.06122E+04-5.17317E+03 6.81015E-07-1.20179E+03-1.34656E-06
 -1       175 1.36453E+01-1.60140E+05-3.84440E+04 6.81356E-07-7.79603E+04 1.09290E-07
 -1       176-7.19160E+00-3.58175E+05-8.52494E+04 1.09258E-06-1.74446E+05 4.86007E-07
 -1       177 1.40530E+01 1.08794E+04-3.96084E+03 9.83165E+00-1.39582E+03 7.39661E+00
 -1       178 2.15178E+01-2.75189E+05-5.25550E+04 1.28137E+01-1.20258E+05 8.57700E+00
 -1       179 1.44210E+01 1.08880E+04-3.96543E+03-4.54045E-06-1.39792E+03 6.45186E-08
 -1       180 2.18809E+01-2.75111E+05-5.25573E+04-4.18690E-07-1.20253E+05 7.38237E-09
 -1       181-6.37922E+00 1.07850E+04-4.37840E+03-5.08807E+00-1.29466E+03-3.24455E+00
 -1       182 1.75813E+01-1.32160E+05-2.82592E+04 1.16253E+01-6.08209E+04 6.91489E+00
 -1       183-9.44593E+00-3.03079E+05-6.24785E+04-7.98748E+00-1.37398E+05-3.96946E+00
 -1       184 1.42370E+01 1.08837E+04-3.96314E+03 1.29726E+00-1.39687E+03 3.86989E+00
 -1       185 2.16994E+01-2.75150E+05-5.25561E+04-3.05381E+00-1.20256E+05 3.20137E+00
 -1       186-6.21599E+00 1.07845E+04-4.37584E+03-1.54706E-06-1.29308E+03-3.53541E-07
 -1       187 1.79469E+01-1.32114E+05-2.82631E+04-1.86048E-06-6.08232E+04-5.42765E-07
 -1       188-9.27109E+00-3.03106E+05-6.24776E+04-8.85110E-07-1.37401E+05 1.11195E-06
 -1       189 1.67337E+01 1.09963E+04-3.41370E+03 1.55272E+01-1.43768E+03 7.81593E+00
 -1       190 2.36440E+01-2.18638E+05-3.74148E+04 2.23503E+01-9.04759E+04 1.16494E+01
 -1       191 1.63318E+01 1.10296E+04-3.41687E+03-4.94003E-08-1.43244E+03 1.43841E-08
 -1       192 2.30721E+01-2.18498E+05-3.74146E+04-8.39879E-08-9.04538E+04 1.56586E-07
 -1       193-7.69515E+00 1.09102E+04-3.75674E+03-4.42798E+00-1.34769E+03-4.12736E+00
 -1       194 2.10109E+01-1.03838E+05-2.04099E+04 1.92224E+01-4.59368E+04 9.00446E+00
 -1       195-1.20756E+01-2.46827E+05-4.50670E+04-4.40082E+00-1.05327E+05-4.53774E+00
 -1       196 1.65327E+01 1.10129E+04-3.41529E+03-1.82374E+00-1.43506E+03 2.88845E+00
 -1       197 2.33580E+01-2.18568E+05-3.74147E+04-1.15437E+01-9.04649E+04 3.89140E+00
 -1       198-7.71210E+00 1.09004E+04-3.75474E+03-1.27718E-06-1.34755E+03 6.87242E-07
 -1       199 2.05236E+01-1.03744E+05-2.04157E+04-1.75728E-06-4.59326E+04-1.27551E-07
 -1       200-1.21802E+01-2.46882E+05-4.50660E+04-2.12695E-06-1.05331E+05 1.02638E-06
 -1       201 1.44044E+01 1.10947E+04-2.99198E+03-4.67098E+00-1.44065E+03 9.66326E+00
 -1       202 2.92969E+01-1.62002E+05-2.54604E+04-2.63201E+01-6.42442E+04 7.45408E+00
 -1       203 1.73404E+01 1.11818E+04-2.99242E+03-5.37155E-08-1.42891E+03 1.35039E-06
 -1       204 3.39528E+01-1.61733E+05-2.54598E+04-2.73495E-06-6.42252E+04-1.71718E-06
 -1       205-9.45200E+00 1.09853E+04-3.28488E+03-1.05063E+01-1.37149E+03-3.59092E+00
 -1       206 1.88941E+01-7.54606E+04-1.42307E+04-1.56690E+01-3.28313E+04 7.61035E+00
 -1       207-1.25572E+01-1.90118E+05-3.15077E+04-1.68361E+01-7.72899E+04-6.82553E+00
 -1       208 1.58724E+01 1.11383E+04-2.99220E+03-1.12596E+01-1.43478E+03 5.13699E+00
 -1       209 3.16248E+01-1.61868E+05-2.54601E+04-2.53827E+01-6.42347E+04-4.49192E-01
 -1       210-8.18515E+00 1.09587E+04-3.28400E+03-1.57475E-06-1.37742E+03 6.48181E-07
 -1       211 2.26904E+01-7.52840E+04-1.42259E+04-9.96813E-07-3.28165E+04-7.43589E-07
 -1       212-1.05144E+01-1.90208E+05-3.15091E+04 2.20393E-07-7.73102E+04-2.08425E-06
 -1       213 7.24240E+00 1.12718E+04-2.75939E+03 4.57522E+01-1.46338E+03-2.08697E+00
 -1       214 3.01175E+00-1.05407E+05-1.57365E+04 1.04171E+02-4.08465E+04 2.66820E+01
 -1       215 2.01960E+00 1.14298E+04-2.74864E+03 1.91411E-07-1.41145E+03 1.68989E-06
 -1       216-1.19982E+01-1.05027E+05-1.57297E+04 8.90440E-06-4.07100E+04 1.06956E-06
 -1       217-3.95762E+00 1.10315E+04-2.95641E+03 1.62108E+01-1.40987E+03-5.99311E+00
 -1       218 1.62870E+01-4.71767E+04-9.18207E+03 7.58818E+01-2.10252E+04 1.44952E+01
 -1       219-1.42748E+01-1.33245E+05-2.06478E+04 4.36476E+01-5.24390E+04-6.49646E-01
 -1       220 4.63100E+00 1.13508E+04-2.75402E+03-2.26449E+01-1.43742E+03-1.05264E+01
 -1       221-4.49324E+00-1.05217E+05-1.57331E+04-5.91221E+01-4.07782E+04 8.53395E+00
 -1       222-5.10035E+00 1.09664E+04-2.95622E+03 6.69444E-07-1.41694E+03 1.31734E-06
 -1       223 6.16975E+00-4.68634E+04-9.21061E+03 4.05573E-07-2.09820E+04 1.92550E-06
 -1       224-1.94548E+01-1.33432E+05-2.06488E+04 1.60010E-06-5.24369E+04-1.01834E-07
 -1       225-2.24699E+01 1.13620E+04-2.46367E+03-2.17046E+02-1.23015E+03 2.10665E+01
 -1       226 4.24859E+01-4.97338E+04-7.20314E+03-5.06023E+02-1.84863E+04-5.97983E+01
 -1       227-3.15910E+00 1.17204E+04-2.48044E+03 1.35980E-06-1.21498E+03 9.99766E-07
 -1       228 1.12062E+02-4.88401E+04-7.16465E+03 6.46190E-07-1.86177E+04-6.39878E-06
 -1       229-7.40188E+00 1.09469E+04-2.69163E+03-6.03932E+01-1.37447E+03 8.71478E+00
 -1       230-3.15125E+01-1.90427E+04-4.94290E+03-3.67929E+02-1.00161E+04-2.16571E+01
 -1       231 8.93841E-01-7.65825E+04-1.14908E+04-1.41943E+02-2.95122E+04-2.43189E+01
 -1       232-1.28145E+01 1.15412E+04-2.47206E+03-6.94731E+01-1.22256E+03 3.06785E+01
 -1       233 7.72740E+01-4.92869E+04-7.18390E+03-8.28158E+01-1.85520E+04-4.40845E+01
 -1       234-3.60497E-01 1.08463E+04-2.70518E+03-2.24046E-07-1.41956E+03 7.47162E-07
 -1       235 1.29317E+01-1.85229E+04-4.82522E+03 1.89220E-06-9.95807E+03-3.32130E-06
 -1       236 2.81878E+01-7.67821E+04-1.14938E+04 5.05383E-06-2.96643E+04-2.09271E-06
 -1       237-1.13344E+02 9.41896E+03-3.11751E+03 6.91425E+02-1.92854E+03-2.05035E+02
 -1       238-4.98580E+02 1.49684E+04 5.10259E+02 1.65781E+03 1.37164E+03 2.35851E+01
 -1       239-1.46894E+02 7.28260E+03-2.95630E+03 2.51532E-06-2.11272E+03-1.03283E-06
 -1       240-7.69198E+02 8.75658E+03 3.58407E+02-4.32628E-06 1.59840E+03 3.24501E-06
 -1       241 4.51521E+01 1.10250E+04-2.68765E+03 2.80673E+02-1.69024E+03-3.09437E+01
 -1       242-1.49768E+02 1.19768E+04-9.20399E+02 1.21782E+03-2.29880E+01-6.15202E+01
 -1       243-6.34936E+00-1.91186E+04-3.45034E+03 6.37709E+02-8.90069E+03 8.08939E+01
 -1       244-1.30119E+02 8.35078E+03-3.03691E+03 3.54911E+02-2.02063E+03-1.72118E+02
 -1       245-6.33889E+02 1.18625E+04 4.34333E+02 5.37652E+02 1.48502E+03 9.68152E+01
 -1       246 3.80347E+01 1.07596E+04-2.64694E+03 2.66457E-06-1.66665E+03 1.35434E-07
 -1       247-3.01852E+02 8.07178E+03-1.28373E+03 8.78225E-07-3.12366E+02 3.29351E-06
 -1       248-1.06878E+02-1.98470E+04-3.50198E+03-2.15868E-06-8.58361E+03-1.56822E-06
 -1       249 5.46593E-01-1.27993E+04-2.23130E+06-1.40627E+00-2.44657E+03-7.38168E-01
 -1       250-5.68907E-01-1.91234E+04-3.90129E+04 1.97476E-01 8.90254E+03 1.43136E+00
 -1       251-1.38290E-01-2.44664E+04-3.61107E+04 7.55732E-02 1.63059E+04 1.36029E-01
 -1       252 3.71270E-02-3.93276E+04-2.00664E+06-1.36524E-01-3.02824E+05-5.35677E-02
 -1       253 5.46593E-01-1.28004E+04-2.23130E+06-1.21188E+00-2.44739E+03-6.96799E-01
 -1       254-5.68907E-01-1.91237E+04-3.90124E+04 3.48679E-01 8.90286E+03 1.37153E+00
 -1       255-1.37211E-01-2.44663E+04-3.61103E+04 4.36963E-02 1.63061E+04 5.09011E-02
 -1       256 3.68785E-02-3.93277E+04-2.00664E+06-9.20507E-02-3.02824E+05-1.32039E-02
 -1       257-1.15164E-02-1.59478E+04-1.13491E+06-6.33814E-01 3.90208E+03 3.44117E-01
 -1       258 6.42831E-02-2.01986E+04-3.65248E+04-2.68847E-02 1.24290E+04-4.41772E-02
 -1       259-5.06806E-02-3.19291E+04-1.02125E+06-6.80778E-02-1.43464E+05 5.12200E-02
 -1       260-1.05642E-02-2.36206E+04-2.12152E+06 5.47503E-02-1.51692E+05 2.26138E-02
 -1       261-1.65644E-01-1.22345E+04-3.22618E+04 1.37674E-01 1.17121E+04 2.22050E-01
 -1       262 7.27694E-02-1.45522E+05-1.72793E+06-2.05146E-01-5.02900E+05-7.60433E-02
 -1       263-1.65261E-01-1.22344E+04-3.22614E+04 7.28579E-02 1.17124E+04 1.02690E-01
 -1       264 7.20626E-02-1.45523E+05-1.72793E+06-1.34270E-01-5.02900E+05-3.50240E-02
 -1       265 7.44106E-02-1.79079E+04-3.42246E+04-5.06382E-02 1.38201E+04-9.02129E-02
 -1       266-4.65638E-02-7.88987E+04-8.80027E+05-7.62746E-02-2.45674E+05 9.46976E-02
 -1       267-2.68709E-02-9.23772E+04-1.86659E+06 8.34118E-02-4.04522E+05 3.17269E-02
 -1       268-2.02761E-01-6.94456E+03-2.91292E+04 2.25440E-01 9.91646E+03 2.92762E-01
 -1       269 1.22843E-01-2.63863E+05-1.43712E+06-3.01831E-01-6.18157E+05-1.07857E-01
 -1       270-2.02738E-01-6.94441E+03-2.91289E+04 1.09911E-01 9.91678E+03 1.39012E-01
 -1       271 1.21630E-01-2.63864E+05-1.43712E+06-1.95007E-01-6.18157E+05-6.28919E-02
 -1       272 9.18881E-02-9.62674E+03-3.07464E+04-8.85551E-02 1.05341E+04-1.29788E-01
 -1       273-4.00409E-02-1.35425E+05-7.33076E+05-8.98139E-02-3.04129E+05 1.29745E-01
 -1       274-4.66510E-02-2.05257E+05-1.58154E+06 1.23877E-01-5.61325E+05 4.51701E-02
 -1       275-2.38585E-01-1.78394E+03-2.56835E+04 3.31653E-01 7.33635E+03 3.40544E-01
 -1       276 2.04591E-01-3.74974E+05-1.16324E+06-4.38702E-01-6.61520E+05-1.54201E-01
 -1       277-2.39271E-01-1.78375E+03-2.56833E+04 1.47922E-01 7.33668E+03 1.54797E-01
 -1       278 2.02635E-01-3.74975E+05-1.16324E+06-2.79661E-01-6.61520E+05-9.99123E-02
 -1       279 1.11753E-01-4.63979E+03-2.75154E+04-1.37758E-01 8.45011E+03-1.60147E-01
 -1       280-1.70377E-02-1.88389E+05-5.94438E+05-1.18163E-01-3.27086E+05 1.52535E-01
 -1       281-7.75140E-02-3.20080E+05-1.29920E+06 1.80840E-01-6.40030E+05 6.39888E-02
 -1       282-2.56635E-01 1.76161E+03-2.24103E+04 4.43216E-01 5.25450E+03 3.52607E-01
 -1       283 3.42200E-01-4.62878E+05-9.21341E+05-6.35395E-01-6.53798E+05-2.26090E-01
 -1       284-2.58352E-01 1.76177E+03-2.24103E+04 1.76193E-01 5.25480E+03 1.42196E-01
 -1       285 3.39157E-01-4.62878E+05-9.21341E+05-3.96123E-01-6.53798E+05-1.52134E-01
 -1       286 1.27883E-01-3.77038E+02-2.41028E+04-1.93751E-01 6.23318E+03-1.76317E-01
 -1       287 4.28285E-02-2.30563E+05-4.71862E+05-1.77418E-01-3.24265E+05 1.53558E-01
 -1       288-1.29332E-01-4.19469E+05-1.04164E+06 2.61879E-01-6.57499E+05 9.22585E-02
 -1       289-2.29899E-01 4.42206E+03-1.92636E+04 5.35997E-01 3.46571E+03 3.09885E-01
 -1       290 5.71577E-01-5.22681E+05-7.17494E+05-9.22846E-01-6.12828E+05-3.40612E-01
 -1       291-2.33160E-01 4.42212E+03-1.92639E+04 1.78758E-01 3.46592E+03 9.01266E-02
 -1       292 5.66951E-01-5.22682E+05-7.17494E+05-5.55370E-01-6.12828E+05-2.28586E-01
 -1       293 1.29809E-01 2.74181E+03-2.08758E+04-2.47742E-01 4.39210E+03-1.70387E-01
 -1       294 1.71041E-01-2.59134E+05-3.68368E+05-2.94911E-01-3.04677E+05 1.17209E-01
 -1       295-2.16670E-01-4.93156E+05-8.19070E+05 3.79148E-01-6.33016E+05 1.36894E-01
 -1       296-1.16185E-01 6.32546E+03-1.63806E+04 5.69583E-01 2.06215E+03 1.86422E-01
 -1       297 9.45737E-01-5.54592E+05-5.51427E+05-1.34688E+00-5.53267E+05-5.21601E-01
 -1       298-1.21618E-01 6.32529E+03-1.63810E+04 1.33106E-01 2.06220E+03-1.57425E-02
 -1       299 9.38901E-01-5.54593E+05-5.51427E+05-7.70654E-01-5.53267E+05-3.41110E-01
 -1       300 1.00808E-01 5.08170E+03-1.78610E+04-2.84240E-01 2.85279E+03-1.31146E-01
 -1       301 4.15220E-01-2.74138E+05-2.83894E+05-5.13627E-01-2.75600E+05 2.11505E-02
 -1       302-3.61225E-01-5.38867E+05-6.34344E+05 5.51372E-01-5.82736E+05 2.07995E-01
 -1       303 1.47521E-01 7.69881E+03-1.38016E+04 4.81214E-01 9.87243E+02-5.07654E-02
 -1       304 1.54034E+00-5.62011E+05-4.19541E+05-1.97187E+00-4.85712E+05-8.00410E-01
 -1       305 1.39160E-01 7.69824E+03-1.38024E+04 1.00851E-02 9.87041E+02-1.92422E-01
 -1       306 1.53060E+00-5.62013E+05-4.19541E+05-1.05443E+00-4.85713E+05-5.04057E-01
 -1       307 1.51257E-02 6.78727E+03-1.51400E+04-2.78323E-01 1.63802E+03-4.38499E-02
 -1       308 8.44786E-01-2.77161E+05-2.16662E+05-8.97004E-01-2.42361E+05-1.64236E-01
 -1       309-5.94802E-01-5.58427E+05-4.85511E+05 8.05349E-01-5.19220E+05 3.19187E-01
 -1       310 6.49611E-01 8.68378E+03-1.15521E+04 1.82721E-01 1.94255E+02-4.40910E-01
 -1       311 2.45935E+00-5.49517E+05-3.16770E+05-2.87851E+00-4.17271E+05-1.21618E+00
 -1       312 6.37826E-01 8.68259E+03-1.15531E+04-2.23208E-01 1.93697E+02-4.58379E-01
 -1       313 2.44613E+00-5.49518E+05-3.16771E+05-1.41129E+00-4.17272E+05-7.33137E-01
 -1       314-1.64952E-01 8.02605E+03-1.27358E+04-1.92488E-01 7.07024E+02 1.09642E-01
 -1       315 1.55578E+00-2.70422E+05-1.64153E+05-1.52930E+00-2.08537E+05-4.75883E-01
 -1       316-9.61968E-01-5.55823E+05-3.68261E+05 1.17786E+00-4.51281E+05 4.87950E-01
 -1       317 1.50648E+00 9.39227E+03-9.62669E+03-4.44607E-01-3.74774E+02-1.02657E+00
 -1       318 3.83370E+00-5.21789E+05-2.37805E+05-4.16772E+00-3.52259E+05-1.81591E+00
 -1       319 1.49065E+00 9.39026E+03-9.62815E+03-5.96037E-01-3.75784E+02-8.29758E-01
 -1       320 3.81687E+00-5.21790E+05-2.37806E+05-1.82280E+00-3.52260E+05-1.04401E+00
 -1       321-4.90662E-01 8.91981E+03-1.06547E+04 2.29393E-02 1.74458E+01 3.50155E-01
 -1       322 2.67260E+00-2.56203E+05-1.23709E+05-2.51968E+00-1.76316E+05-9.57572E-01
 -1       323-1.52290E+00-5.35672E+05-2.77427E+05 1.71116E+00-3.84611E+05 7.35581E-01
 -1       324 2.85256E+00 9.90301E+03-8.00574E+03-1.52196E+00-7.71228E+02-1.84918E+00
 -1       325 5.82327E+00-4.83011E+05-1.77731E+05-5.90356E+00-2.92971E+05-2.64882E+00
 -1       326 2.83526E+00 9.90007E+03-8.00759E+03-1.11438E+00-7.72751E+02-1.31827E+00
 -1       327 5.80426E+00-4.83011E+05-1.77732E+05-2.22187E+00-2.92972E+05-1.44526E+00
 -1       328-1.02820E+00 9.56415E+03-8.88361E+03 4.34798E-01-4.78165E+02 6.98863E-01
 -1       329 4.33997E+00-2.36558E+05-9.28630E+04-3.96005E+00-1.46870E+05-1.65516E+00
 -1       330-2.35002E+00-5.02399E+05-2.07914E+05 2.46054E+00-3.22509E+05 1.08688E+00
 -1       331 4.82780E+00 1.02725E+04-6.66045E+03-3.21004E+00-1.03953E+03-2.93191E+00
 -1       332 8.55912E+00-4.36630E+05-1.32315E+05-8.21046E+00-2.40324E+05-3.77098E+00
 -1       333 4.80703E+00 1.02688E+04-6.66266E+03-1.73480E+00-1.04154E+03-1.90999E+00
 -1       334 8.54004E+00-4.36627E+05-1.32316E+05-2.43856E+00-2.40325E+05-1.94093E+00
 -1       335-1.84591E+00 1.00291E+04-7.39930E+03 1.09341E+00-8.23130E+02 1.17504E+00
 -1       336 6.70255E+00-2.13183E+05-6.94839E+04-5.98966E+00-1.20680E+05-2.61637E+00
 -1       337-3.53004E+00-4.59810E+05-1.55162E+05 3.42972E+00-2.66578E+05 1.56558E+00
 -1       338 7.48359E+00 1.05405E+04-5.55873E+03-5.39960E+00-1.21558E+03-4.28273E+00
 -1       339 1.21958E+01-3.85320E+05-9.80697E+04-1.06521E+01-1.94358E+05-5.18203E+00
 -1       340 7.48546E+00 1.05368E+04-5.56121E+03-2.28179E+00-1.21789E+03-2.59578E+00
 -1       341 1.21928E+01-3.85311E+05-9.80710E+04-2.14250E+00-1.94359E+05-2.47760E+00
 -1       342-3.01949E+00 1.03654E+04-6.17321E+03 2.10163E+00-1.05487E+03 1.78089E+00
 -1       343 9.83034E+00-1.87393E+05-5.18124E+04-8.33388E+00-9.77845E+04-3.85028E+00
 -1       344-5.11639E+00-4.10959E+05-1.15318E+05 4.72727E+00-2.17298E+05 2.20015E+00
 -1       345 1.07930E+01 1.07358E+04-4.66904E+03-8.47904E+00-1.32782E+03-5.76289E+00
 -1       346 1.64163E+01-3.31046E+05-7.22112E+04-1.40695E+01-1.54592E+05-6.99215E+00
 -1       347 1.07723E+01 1.07341E+04-4.67163E+03-2.43591E+00-1.32986E+03-3.17916E+00
 -1       348 1.64095E+01-3.31027E+05-7.22124E+04-6.33598E-01-1.54592E+05-3.06932E+00
 -1       349-4.51323E+00 1.06093E+04-5.17573E+03 3.23628E+00-1.20412E+03 2.51976E+00
 -1       350 1.36728E+01-1.60160E+05-3.84396E+04-1.15950E+01-7.79558E+04-5.40072E+00
 -1       351-7.18186E+00-3.58162E+05-8.52507E+04 5.80235E+00-1.74446E+05 2.96437E+00
 -1       352 1.40530E+01 1.08794E+04-3.96084E+03-9.83164E+00-1.39582E+03-7.39661E+00
 -1       353 2.15178E+01-2.75189E+05-5.25550E+04-1.28137E+01-1.20258E+05-8.57700E+00
 -1       354 1.42370E+01 1.08837E+04-3.96314E+03-1.29726E+00-1.39687E+03-3.86989E+00
 -1       355 2.16994E+01-2.75150E+05-5.25561E+04 3.05380E+00-1.20256E+05-3.20137E+00
 -1       356-6.37922E+00 1.07850E+04-4.37840E+03 5.08807E+00-1.29466E+03 3.24455E+00
 -1       357 1.75813E+01-1.32160E+05-2.82592E+04-1.16253E+01-6.08209E+04-6.91488E+00
 -1       358-9.44593E+00-3.03079E+05-6.24785E+04 7.98747E+00-1.37398E+05 3.96946E+00
 -1       359 1.67337E+01 1.09963E+04-3.41370E+03-1.55272E+01-1.43768E+03-7.81593E+00
 -1       360 2.36440E+01-2.18638E+05-3.74148E+04-2.23503E+01-9.04759E+04-1.16494E+01
 -1       361 1.65327E+01 1.10129E+04-3.41529E+03 1.82374E+00-1.43506E+03-2.88845E+00
 -1       362 2.33580E+01-2.18568E+05-3.74147E+04 1.15437E+01-9.04649E+04-3.89140E+00
 -1       363-7.69515E+00 1.09102E+04-3.75674E+03 4.42799E+00-1.34769E+03 4.12736E+00
 -1       364 2.10109E+01-1.03838E+05-2.04099E+04-1.92224E+01-4.59368E+04-9.00446E+00
 -1       365-1.20756E+01-2.46827E+05-4.50670E+04 4.40082E+00-1.05327E+05 4.53774E+00
 -1       366 1.44044E+01 1.10947E+04-2.99198E+03 4.67098E+00-1.44065E+03-9.66326E+00
 -1       367 2.92969E+01-1.62002E+05-2.54604E+04 2.63201E+01-6.42442E+04-7.45408E+00
 -1       368 1.58724E+01 1.11383E+04-2.99220E+03 1.12596E+01-1.43478E+03-5.13699E+00
 -1       369 3.16248E+01-1.61868E+05-2.54601E+04 2.53827E+01-6.42347E+04 4.49189E-01
 -1       370-9.45200E+00 1.09853E+04-3.28488E+03 1.05063E+01-1.37149E+03 3.59092E+00
 -1       371 1.88941E+01-7.54606E+04-1.42307E+04 1.56690E+01-3.28313E+04-7.61035E+00
 -1       372-1.25572E+01-1.90118E+05-3.15077E+04 1.68361E+01-7.72899E+04 6.82554E+00
 -1       373 7.24240E+00 1.12718E+04-2.75939E+03-4.57522E+01-1.46338E+03 2.08696E+00
 -1       374 3.01175E+00-1.05407E+05-1.57365E+04-1.04171E+02-4.08465E+04-2.66820E+01
 -1       375 4.63100E+00 1.13508E+04-2.75402E+03 2.26448E+01-1.43742E+03 1.05264E+01
 -1       376-4.49324E+00-1.05217E+05-1.57331E+04 5.91221E+01-4.07782E+04-8.53395E+00
 -1       377-3.95762E+00 1.10315E+04-2.95641E+03-1.62108E+01-1.40987E+03 5.99310E+00
 -1       378 1.62870E+01-4.71767E+04-9.18207E+03-7.58818E+01-2.10252E+04-1.44952E+01
 -1       379-1.42748E+01-1.33245E+05-2.06478E+04-4.36477E+01-5.24390E+04 6.49650E-01
 -1       380-2.24699E+01 1.13620E+04-2.46367E+03 2.17046E+02-1.23015E+03-2.10665E+01
 -1       381 4.24859E+01-4.97338E+04-7.20314E+03 5.06023E+02-1.84863E+04 5.97983E+01
 -1       382-1.28145E+01 1.15412E+04-2.47206E+03 6.94731E+01-1.22256E+03-3.06785E+01
 -1       383 7.72740E+01-4.92869E+04-7.18390E+03 8.28158E+01-1.85520E+04 4.40845E+01
 -1       384-7.40188E+00 1.09469E+04-2.69163E+03 6.03932E+01-1.37447E+03-8.71479E+00
 -1       385-3.15125E+01-1.90427E+04-4.94290E+03 3.67929E+02-1.00161E+04 2.16572E+01
 -1       386 8.93841E-01-7.65825E+04-1.14908E+04 1.41943E+02-2.95122E+04 2.43189E+01
 -1       387-1.13344E+02 9.41896E+03-3.11751E+03-6.91425E+02-1.92854E+03 2.05035E+02
 -1       388-4.98580E+02 1.49684E+04 5.10259E+02-1.65781E+03 1.37164E+03-2.35851E+01
 -1       389-1.30119E+02 8.35078E+03-3.03691E+03-3.54911E+02-2.02063E+03 1.72118E+02
 -1       390-6.33889E+02 1.18625E+04 4.34333E+02-5.37652E+02 1.48502E+03-9.68152E+01
 -1       391 4.51521E+01 1.10250E+04-2.68765E+03-2.80673E+02-1.69024E+03 3.09437E+01
 -1       392-1.49768E+02 1.19768E+04-9.20399E+02-1.21782E+03-2.29880E+01 6.15202E+01
 -1       393-6.34936E+00-1.91186E+04-3.45034E+03-6.37709E+02-8.90069E+03-8.08939E+01
 -1       394-1.27729E+00-2.58071E+04 2.30943E+06 3.17807E-01 2.21303E+04 1.53294E+00
 -1       395 1.41524E-01 4.07222E+04 2.07218E+06-1.40634E-01 3.15186E+05 7.76159E-04
 -1       396-1.27729E+00-2.58063E+04 2.30943E+06-2.37702E-08 2.21323E+04 1.75798E-07
 -1       397 1.37253E-01 4.07222E+04 2.07217E+06 2.75338E-08 3.15186E+05 3.61321E-07
 -1       398-9.22741E-01-2.24789E+04 1.13496E+06 3.07476E-02 1.48423E+04 4.83106E-02
 -1       399-7.48079E-02 8.14093E+03 2.19149E+06 6.37086E-02 1.67085E+05 4.81520E-02
 -1       400 1.71628E-03 8.15998E+03 1.01791E+06-1.45706E-01 1.65951E+05-5.76368E-02
 -1       401-1.27729E+00-2.58067E+04 2.30943E+06 2.06104E-01 2.21313E+04 1.67675E+00
 -1       402 1.39388E-01 4.07222E+04 2.07218E+06-6.32364E-02 3.15186E+05 9.58747E-02
 -1       403-9.22741E-01-2.24780E+04 1.13496E+06-1.67318E-09 1.48445E+04 8.42600E-08
 -1       404-7.69430E-02 8.14093E+03 2.19149E+06-5.26141E-09 1.67085E+05 2.55262E-07
 -1       405 6.51810E-04 8.16006E+03 1.01791E+06-2.00323E-08 1.65951E+05 1.57224E-07
 -1       406 1.47490E-01 1.44990E+05 1.77882E+06-1.40781E-01 5.25791E+05 2.19693E-01
 -1       407 1.43266E-01 1.44990E+05 1.77882E+06 1.93948E-07 5.25790E+05 3.40820E-07
 -1       408-6.66147E-02 9.35249E+04 1.92538E+06 7.31398E-02 4.21223E+05-5.26193E-02
 -1       409-8.95016E-03 6.63979E+04 8.73210E+05-1.81766E-01 2.68831E+05 2.05154E-02
 -1       410 1.45378E-01 1.44990E+05 1.77882E+06-5.08977E-02 5.25791E+05 2.50278E-01
 -1       411-7.08631E-02 9.35249E+04 1.92539E+06 1.63101E-07 4.21223E+05 3.37103E-07
 -1       412-1.06851E-02 6.63981E+04 8.73209E+05 1.41057E-07 2.68831E+05 1.58330E-07
 -1       413 2.03071E-01 2.71493E+05 1.47644E+06-9.71040E-02 6.41683E+05 4.87764E-01
 -1       414 1.97238E-01 2.71493E+05 1.47644E+06 2.03859E-07 6.41682E+05 4.30120E-07
 -1       415-8.07281E-02 2.08746E+05 1.62748E+06 6.30074E-02 5.84082E+05-1.71800E-01
 -1       416 2.37158E-04 1.32296E+05 7.23609E+05-2.12889E-01 3.25808E+05 1.34793E-01
 -1       417 2.00155E-01 2.71493E+05 1.47644E+06-1.19354E-02 6.41683E+05 4.45406E-01
 -1       418-8.57573E-02 2.08746E+05 1.62748E+06 9.00060E-08 5.84083E+05 3.26931E-07
 -1       419-2.66246E-03 1.32296E+05 7.23607E+05-7.62189E-08 3.25808E+05 1.86703E-07
 -1       420 3.24540E-01 3.86740E+05 1.19256E+06 8.10215E-03 6.84963E+05 8.33018E-01
 -1       421 3.16818E-01 3.86740E+05 1.19255E+06-1.47713E-07 6.84962E+05 1.15379E-07
 -1       422-1.22311E-01 3.29266E+05 1.33444E+06 2.79723E-02 6.63400E+05-3.22122E-01
 -1       423 4.30186E-02 1.92488E+05 5.83413E+05-2.26413E-01 3.46144E+05 3.05600E-01
 -1       424 3.20679E-01 3.86740E+05 1.19256E+06 6.28688E-02 6.84962E+05 6.95568E-01
 -1       425-1.29088E-01 3.29266E+05 1.33444E+06 2.06247E-07 6.63400E+05 2.91218E-07
 -1       426 3.84658E-02 1.92488E+05 5.83411E+05-2.08002E-07 3.46144E+05 1.61237E-07
 -1       427 5.39669E-01 4.78107E+05 9.43002E+05 2.07208E-01 6.75361E+05 1.28816E+00
 -1       428 5.29194E-01 4.78106E+05 9.42997E+05 1.57721E-06 6.75358E+05 3.28444E-07
 -1       429-2.02536E-01 4.32335E+05 1.06774E+06-4.43690E-02 6.80142E+05-5.18677E-01
 -1       430 1.41470E-01 2.39939E+05 4.60282E+05-1.99332E-01 3.40301E+05 5.58076E-01
 -1       431 5.34431E-01 4.78107E+05 9.43000E+05 1.87244E-01 6.75359E+05 1.01830E+00
 -1       432-2.11633E-01 4.32335E+05 1.06774E+06 1.91231E-07 6.80143E+05 3.67810E-07
 -1       433 1.34510E-01 2.39939E+05 4.60279E+05 5.37476E-07 3.40300E+05 1.60367E-07
 -1       434 8.89711E-01 5.39964E+05 7.33293E+05 5.48429E-01 6.32049E+05 1.89003E+00
 -1       435 8.75642E-01 5.39963E+05 7.33287E+05-4.92991E-07 6.32046E+05 9.10605E-08
 -1       436-3.38156E-01 5.08809E+05 8.38129E+05-1.73865E-01 6.53670E+05-7.78838E-01
 -1       437 3.29704E-01 2.72197E+05 3.57004E+05-9.52697E-02 3.17753E+05 9.22643E-01
 -1       438 8.82676E-01 5.39964E+05 7.33290E+05 3.78597E-01 6.32047E+05 1.43294E+00
 -1       439-3.50428E-01 5.08810E+05 8.38131E+05 9.39605E-07 6.53671E+05 2.06790E-08
 -1       440 3.19403E-01 2.72197E+05 3.57001E+05 3.45769E-07 3.17752E+05 8.76012E-08
 -1       441 1.43339E+00 5.73027E+05 5.62915E+05 1.09668E+00 5.69989E+05 2.67861E+00
 -1       442 1.41487E+00 5.73026E+05 5.62908E+05-9.39000E-07 5.69984E+05 6.81521E-07
 -1       443-5.53918E-01 5.56219E+05 6.48090E+05-3.88510E-01 6.01003E+05-1.12181E+00
 -1       444 6.58161E-01 2.89681E+05 2.73258E+05 1.38565E-01 2.86023E+05 1.43484E+00
 -1       445 1.42413E+00 5.73027E+05 5.62911E+05 6.55292E-01 5.69987E+05 1.95897E+00
 -1       446-5.70214E-01 5.56220E+05 6.48093E+05-6.46252E-07 6.01005E+05 3.13426E-07
 -1       447 6.43462E-01 2.89680E+05 2.73253E+05-6.31765E-08 2.86021E+05 3.14781E-07
 -1       448 2.24964E+00 5.80915E+05 4.27904E+05 1.93358E+00 5.00088E+05 3.69528E+00
 -1       449 2.22636E+00 5.80912E+05 4.27896E+05 5.36113E-07 5.00081E+05-3.86370E-08
 -1       450-8.84158E-01 5.76697E+05 4.95392E+05-7.24449E-01 5.35046E+05-1.56798E+00
 -1       451 1.19772E+00 2.94312E+05 2.07042E+05 5.74504E-01 2.50536E+05 2.13437E+00
 -1       452 2.23800E+00 5.80913E+05 4.27900E+05 1.03081E+00 5.00084E+05 2.61333E+00
 -1       453-9.05058E-01 5.76698E+05 4.95396E+05 2.12739E-07 5.35049E+05 3.24424E-07
 -1       454 1.17772E+00 2.94310E+05 2.07037E+05-3.80720E-07 2.50533E+05-1.14815E-07
 -1       455 3.43733E+00 5.68451E+05 3.22909E+05 3.14943E+00 4.29564E+05 4.97766E+00
 -1       456 3.40952E+00 5.68449E+05 3.22899E+05 1.66954E-06 4.29556E+05 4.15459E-07
 -1       457-1.37401E+00 5.74439E+05 3.75381E+05-1.22571E+00 4.64852E+05-2.13769E+00
 -1       458 2.04217E+00 2.88572E+05 1.55670E+05 1.30195E+00 2.14878E+05 3.06195E+00
 -1       459 3.42342E+00 5.68450E+05 3.22904E+05 1.50266E+00 4.29560E+05 3.40545E+00
 -1       460-1.39955E+00 5.74440E+05 3.75386E+05 6.64107E-07 4.64856E+05 3.81755E-07
 -1       461 2.01648E+00 2.88570E+05 1.55664E+05-7.05671E-07 2.14874E+05-2.09536E-07
 -1       462 5.10845E+00 5.40492E+05 2.42375E+05 4.83728E+00 3.62780E+05 6.55325E+00
 -1       463 5.08067E+00 5.40490E+05 2.42364E+05 8.32197E-07 3.62770E+05 7.43928E-07
 -1       464-2.07779E+00 5.54268E+05 2.82607E+05-1.93582E+00 3.96208E+05-2.84717E+00
 -1       465 3.30496E+00 2.74947E+05 1.16367E+05 2.42743E+00 1.81201E+05 4.25358E+00
 -1       466 5.09456E+00 5.40491E+05 2.42369E+05 2.03078E+00 3.62775E+05 4.33022E+00
 -1       467-2.10558E+00 5.54269E+05 2.82612E+05 3.25372E-06 3.96212E+05 2.63933E-07
 -1       468 3.27524E+00 2.74943E+05 1.16360E+05 1.16302E-06 1.81196E+05 3.37815E-07
 -1       469 7.36508E+00 5.01348E+05 1.81204E+05 7.02097E+00 3.02022E+05 8.41459E+00
 -1       470 7.33921E+00 5.01348E+05 1.81192E+05 3.08798E-06 3.02011E+05-6.43294E-07
 -1       471-3.05438E+00 5.20757E+05 2.11744E+05-2.89987E+00 3.32439E+05-3.70618E+00
 -1       472 5.10676E+00 2.55630E+05 8.65937E+04 4.02417E+00 1.50624E+05 5.72572E+00
 -1       473 7.35214E+00 5.01348E+05 1.81198E+05 2.50366E+00 3.02016E+05 5.35108E+00
 -1       474-3.08121E+00 5.20758E+05 2.11750E+05-1.36225E-06 3.32444E+05 1.32744E-07
 -1       475 5.07653E+00 2.55626E+05 8.65852E+04-1.07285E-06 1.50618E+05-1.07131E-06
 -1       476 1.02536E+01 4.54548E+05 1.35025E+05 9.72455E+00 2.48179E+05 1.05231E+01
 -1       477 1.02655E+01 4.54553E+05 1.35012E+05 2.07754E-06 2.48168E+05-1.05869E-06
 -1       478-4.34620E+00 4.77823E+05 1.58057E+05-4.08796E+00 2.75135E+05-4.69439E+00
 -1       479 7.53162E+00 2.32414E+05 6.41788E+04 6.18789E+00 1.23568E+05 7.46255E+00
 -1       480 1.02595E+01 4.54551E+05 1.35019E+05 2.66889E+00 2.48174E+05 6.39327E+00
 -1       481-4.35319E+00 4.77822E+05 1.58064E+05 2.25082E-06 2.75140E+05-3.81522E-07
 -1       482 7.51680E+00 2.32412E+05 6.41696E+04 1.98943E-06 1.23562E+05-1.63560E-07
 -1       483 1.36537E+01 4.02816E+05 1.00254E+05 1.23231E+01 2.01254E+05 1.26478E+01
 -1       484 1.36620E+01 4.02834E+05 1.00241E+05-1.00446E-07 2.01245E+05 1.87554E-06
 -1       485-5.96381E+00 4.28595E+05 1.17568E+05-5.54487E+00 2.24744E+05-5.79129E+00
 -1       486 1.05780E+01 2.06682E+05 4.73461E+04 8.55333E+00 1.00017E+05 9.34736E+00
 -1       487 1.36578E+01 4.02825E+05 1.00248E+05 2.06233E+00 2.01249E+05 7.25835E+00
 -1       488-5.95373E+00 4.28590E+05 1.17575E+05 3.97213E-06 2.24749E+05-3.42150E-07
 -1       489 1.05840E+01 2.06686E+05 4.73367E+04 3.22050E-07 1.00012E+05 1.09440E-06
 -1       490 1.71400E+01 3.48142E+05 7.40383E+04 1.52835E+01 1.60726E+05 1.46963E+01
 -1       491 1.74501E+01 3.48184E+05 7.40255E+04 2.48287E-06 1.60723E+05-1.25430E-06
 -1       492-7.75177E+00 3.75433E+05 8.70556E+04-6.57030E+00 1.81008E+05-6.77382E+00
 -1       493 1.38983E+01 1.79444E+05 3.46841E+04 1.15605E+01 7.96949E+04 1.12064E+01
 -1       494 1.72950E+01 3.48163E+05 7.40319E+04-2.33466E-01 1.60724E+05 7.76943E+00
 -1       495-7.59262E+00 3.75419E+05 8.70623E+04-1.11493E-06 1.81011E+05 1.73619E-06
 -1       496 1.40326E+01 1.79460E+05 3.46757E+04 1.36361E-06 7.96942E+04-1.38830E-06
 -1       497 1.94895E+01 2.91907E+05 5.41432E+04 1.24518E+01 1.25788E+05 1.51230E+01
 -1       498 1.93101E+01 2.91989E+05 5.41332E+04-3.26747E-06 1.25799E+05-8.25102E-07
 -1       499-9.52892E+00 3.20033E+05 6.39735E+04-8.34362E+00 1.43268E+05-7.78630E+00
 -1       500 1.69754E+01 1.51399E+05 2.50925E+04 1.08391E+01 6.21900E+04 1.23318E+01
 -1       501 1.93998E+01 2.91948E+05 5.41382E+04-5.53058E+00 1.25794E+05 6.98006E+00
 -1       502-9.46351E+00 3.20002E+05 6.39793E+04-9.40590E-07 1.43268E+05 5.42989E-07
 -1       503 1.70696E+01 1.51441E+05 2.50856E+04-4.52305E-06 6.21986E+04 1.98424E-07
 -1       504 1.88757E+01 2.34966E+05 3.88525E+04 1.79605E+01 9.55364E+04 1.59249E+01
 -1       505 2.14305E+01 2.35130E+05 3.88481E+04 6.60996E-07 9.55584E+04 3.19025E-07
 -1       506-9.89202E+00 2.63531E+05 4.63480E+04-3.34522E+00 1.10674E+05-7.03859E+00
 -1       507 1.69827E+01 1.22999E+05 1.77150E+04 1.64601E+01 4.70294E+04 1.25986E+01
 -1       508 2.01531E+01 2.35048E+05 3.88503E+04-1.68035E+01 9.55474E+04 5.69406E+00
 -1       509-8.70466E+00 2.63476E+05 4.63517E+04 8.03557E-07 1.10662E+05-2.58224E-06
 -1       510 1.80594E+01 1.23089E+05 1.77156E+04 1.99638E-06 4.70524E+04 3.79740E-07
 -1       511 8.77886E+00 1.77913E+05 2.67765E+04-3.73214E+01 6.88886E+04 3.80222E+00
 -1       512 3.69315E+00 1.78162E+05 2.67850E+04-1.08158E-07 6.89888E+04 7.14834E-07
 -1       513-9.74626E+00 2.06682E+05 3.26308E+04-1.36943E+01 8.22495E+04-8.61549E+00
 -1       514 1.45482E+01 9.45111E+04 1.18967E+04-2.08227E+01 3.37129E+04 7.68107E+00
 -1       515 6.23601E+00 1.78038E+05 2.67808E+04-3.60682E+01 6.89387E+04-3.31962E+00
 -1       516-1.10107E+01 2.06569E+05 3.26311E+04-2.30516E-06 8.22371E+04 2.57651E-07
 -1       517 1.34730E+01 9.46803E+04 1.18961E+04-4.78457E-07 3.37694E+04 1.59281E-06
 -1       518-8.82735E+00 1.20626E+05 1.70065E+04 7.57252E+01 4.52646E+04 1.50799E+01
 -1       519 1.51305E+01 1.21179E+05 1.70172E+04-8.13826E-06 4.52694E+04-2.02245E-06
 -1       520 3.49449E+00 1.49772E+05 2.17162E+04 5.38183E+01 5.71868E+04 6.09989E+00
 -1       521-1.19524E+01 6.60581E+04 7.05765E+03 5.98183E+01 2.17708E+04 4.29877E+00
 -1       522 3.15159E+00 1.20903E+05 1.70118E+04-7.51765E+01 4.52670E+04-2.55855E-01
 -1       523 1.29275E+01 1.49625E+05 2.17052E+04-7.56998E-07 5.70982E+04-6.95237E-07
 -1       524-2.58400E+00 6.63692E+04 7.10571E+03 1.68913E-07 2.18503E+04-7.12049E-07
 -1       525-9.13797E+01 6.43470E+04 7.99731E+03-5.43052E+02 2.21848E+04-9.63681E+01
 -1       526-1.60789E+02 6.47370E+04 8.11611E+03 1.92122E-06 2.28561E+04 5.83376E-07
 -1       527-4.09576E+00 9.34106E+04 1.23999E+04-1.29903E+02 3.40386E+04-2.23688E+01
 -1       528-1.54043E+01 3.77112E+04 2.87631E+03-3.73654E+02 1.06352E+04-3.53596E+01
 -1       529-1.26084E+02 6.45420E+04 8.05671E+03-1.22270E+02 2.25204E+04-6.78709E+01
 -1       530-2.68125E+01 9.30025E+04 1.24040E+04-4.73653E-06 3.41089E+04-5.56657E-07
 -1       531-4.04540E+01 3.81918E+04 2.82051E+03 7.51313E-07 1.08623E+04 1.41337E-06
 -1       532 1.33236E+02 1.18817E+04 5.15896E+02 1.96580E+03 5.95595E+03 7.16307E+01
 -1       533 3.82178E+02 7.30386E+03 3.15061E+02 4.79324E-06 3.03488E+03 4.56064E-06
 -1       534 1.32463E+02 3.60721E+04 5.04071E+03 6.89414E+02 1.38863E+04 1.29195E+02
 -1       535-1.46248E+02 1.08672E+04-1.68404E+03 1.28541E+03 1.75825E+03-9.59069E+01
 -1       536 2.57707E+02 9.59279E+03 4.15479E+02 8.26971E+02 4.49541E+03 1.45225E+02
 -1       537 2.22223E+02 3.60424E+04 4.89572E+03 3.58242E-06 1.31730E+04 2.53226E-06
 -1       538-3.85520E+01 7.24104E+03-1.33584E+03 1.87057E-06 5.16290E+02-4.23509E-07
 -1       539-1.27729E+00-2.58071E+04 2.30943E+06-3.17807E-01 2.21303E+04-1.53294E+00
 -1       540 1.41524E-01 4.07222E+04 2.07218E+06 1.40634E-01 3.15186E+05-7.75886E-04
 -1       541-1.27729E+00-2.58067E+04 2.30943E+06-2.06104E-01 2.21313E+04-1.67674E+00
 -1       542 1.39388E-01 4.07222E+04 2.07218E+06 6.32365E-02 3.15186E+05-9.58742E-02
 -1       543-9.22741E-01-2.24789E+04 1.13496E+06-3.07475E-02 1.48423E+04-4.83105E-02
 -1       544-7.48079E-02 8.14093E+03 2.19149E+06-6.37086E-02 1.67085E+05-4.81517E-02
 -1       545 1.71627E-03 8.15998E+03 1.01791E+06 1.45706E-01 1.65951E+05 5.76369E-02
 -1       546 1.47490E-01 1.44990E+05 1.77882E+06 1.40781E-01 5.25791E+05-2.19692E-01
 -1       547 1.45378E-01 1.44990E+05 1.77882E+06 5.08979E-02 5.25791E+05-2.50278E-01
 -1       548-6.66147E-02 9.35249E+04 1.92538E+06-7.31398E-02 4.21223E+05 5.26197E-02
 -1       549-8.95016E-03 6.63979E+04 8.73210E+05 1.81766E-01 2.68831E+05-2.05152E-02
 -1       550 2.03071E-01 2.71493E+05 1.47644E+06 9.71042E-02 6.41683E+05-4.87763E-01
 -1       551 2.00154E-01 2.71493E+05 1.47644E+06 1.19357E-02 6.41683E+05-4.45405E-01
 -1       552-8.07282E-02 2.08746E+05 1.62748E+06-6.30071E-02 5.84082E+05 1.71800E-01
 -1       553 2.37178E-04 1.32296E+05 7.23609E+05 2.12890E-01 3.25808E+05-1.34793E-01
 -1       554 3.24540E-01 3.86740E+05 1.19256E+06-8.10071E-03 6.84963E+05-8.33017E-01
 -1       555 3.20679E-01 3.86740E+05 1.19256E+06-6.28683E-02 6.84962E+05-6.95567E-01
 -1       556-1.22311E-01 3.29266E+05 1.33444E+06-2.79720E-02 6.63400E+05 3.22123E-01
 -1       557 4.30186E-02 1.92488E+05 5.83413E+05 2.26414E-01 3.46144E+05-3.05600E-01
 -1       558 5.39669E-01 4.78107E+05 9.43002E+05-2.07209E-01 6.75361E+05-1.28816E+00
 -1       559 5.34431E-01 4.78107E+05 9.43000E+05-1.87243E-01 6.75359E+05-1.01830E+00
 -1       560-2.02535E-01 4.32335E+05 1.06774E+06 4.43699E-02 6.80142E+05 5.18678E-01
 -1       561 1.41470E-01 2.39939E+05 4.60282E+05 1.99332E-01 3.40301E+05-5.58075E-01
 -1       562 8.89711E-01 5.39964E+05 7.33293E+05-5.48429E-01 6.32049E+05-1.89003E+00
 -1       563 8.82677E-01 5.39964E+05 7.33290E+05-3.78598E-01 6.32047E+05-1.43294E+00
 -1       564-3.38156E-01 5.08809E+05 8.38129E+05 1.73863E-01 6.53670E+05 7.78838E-01
 -1       565 3.29704E-01 2.72197E+05 3.57004E+05 9.52698E-02 3.17753E+05-9.22642E-01
 -1       566 1.43339E+00 5.73027E+05 5.62915E+05-1.09668E+00 5.69989E+05-2.67861E+00
 -1       567 1.42413E+00 5.73027E+05 5.62911E+05-6.55294E-01 5.69987E+05-1.95897E+00
 -1       568-5.53918E-01 5.56219E+05 6.48090E+05 3.88511E-01 6.01003E+05 1.12181E+00
 -1       569 6.58161E-01 2.89681E+05 2.73258E+05-1.38566E-01 2.86023E+05-1.43484E+00
 -1       570 2.24964E+00 5.80915E+05 4.27904E+05-1.93358E+00 5.00088E+05-3.69528E+00
 -1       571 2.23800E+00 5.80913E+05 4.27900E+05-1.03081E+00 5.00084E+05-2.61333E+00
 -1       572-8.84158E-01 5.76697E+05 4.95392E+05 7.24450E-01 5.35046E+05 1.56797E+00
 -1       573 1.19772E+00 2.94312E+05 2.07042E+05-5.74503E-01 2.50536E+05-2.13437E+00
 -1       574 3.43733E+00 5.68451E+05 3.22909E+05-3.14943E+00 4.29564E+05-4.97767E+00
 -1       575 3.42342E+00 5.68450E+05 3.22904E+05-1.50266E+00 4.29560E+05-3.40545E+00
 -1       576-1.37401E+00 5.74439E+05 3.75381E+05 1.22571E+00 4.64852E+05 2.13769E+00
 -1       577 2.04217E+00 2.88572E+05 1.55670E+05-1.30195E+00 2.14878E+05-3.06195E+00
 -1       578 5.10845E+00 5.40492E+05 2.42375E+05-4.83729E+00 3.62780E+05-6.55325E+00
 -1       579 5.09456E+00 5.40491E+05 2.42369E+05-2.03078E+00 3.62775E+05-4.33022E+00
 -1       580-2.07779E+00 5.54268E+05 2.82607E+05 1.93582E+00 3.96208E+05 2.84717E+00
 -1       581 3.30496E+00 2.74947E+05 1.16367E+05-2.42743E+00 1.81201E+05-4.25358E+00
 -1       582 7.36508E+00 5.01348E+05 1.81204E+05-7.02096E+00 3.02022E+05-8.41459E+00
 -1       583 7.35214E+00 5.01348E+05 1.81198E+05-2.50365E+00 3.02016E+05-5.35109E+00
 -1       584-3.05438E+00 5.20757E+05 2.11744E+05 2.89987E+00 3.32439E+05 3.70618E+00
 -1       585 5.10676E+00 2.55630E+05 8.65937E+04-4.02417E+00 1.50624E+05-5.72572E+00
 -1       586 1.02536E+01 4.54548E+05 1.35025E+05-9.72457E+00 2.48179E+05-1.05230E+01
 -1       587 1.02595E+01 4.54551E+05 1.35019E+05-2.66890E+00 2.48174E+05-6.39327E+00
 -1       588-4.34620E+00 4.77823E+05 1.58057E+05 4.08796E+00 2.75135E+05 4.69440E+00
 -1       589 7.53162E+00 2.32414E+05 6.41788E+04-6.18790E+00 1.23568E+05-7.46255E+00
 -1       590 1.36537E+01 4.02816E+05 1.00254E+05-1.23231E+01 2.01254E+05-1.26478E+01
 -1       591 1.36578E+01 4.02825E+05 1.00248E+05-2.06233E+00 2.01249E+05-7.25835E+00
 -1       592-5.96381E+00 4.28595E+05 1.17568E+05 5.54487E+00 2.24744E+05 5.79129E+00
 -1       593 1.05780E+01 2.06682E+05 4.73461E+04-8.55332E+00 1.00017E+05-9.34736E+00
 -1       594 1.71400E+01 3.48142E+05 7.40383E+04-1.52835E+01 1.60726E+05-1.46963E+01
 -1       595 1.72950E+01 3.48163E+05 7.40319E+04 2.33470E-01 1.60724E+05-7.76943E+00
 -1       596-7.75177E+00 3.75433E+05 8.70556E+04 6.57030E+00 1.81008E+05 6.77382E+00
 -1       597 1.38983E+01 1.79444E+05 3.46841E+04-1.15605E+01 7.96949E+04-1.12064E+01
 -1       598 1.94895E+01 2.91907E+05 5.41432E+04-1.24518E+01 1.25788E+05-1.51230E+01
 -1       599 1.93998E+01 2.91948E+05 5.41382E+04 5.53058E+00 1.25794E+05-6.98006E+00
 -1       600-9.52892E+00 3.20033E+05 6.39735E+04 8.34363E+00 1.43268E+05 7.78630E+00
 -1       601 1.69754E+01 1.51399E+05 2.50925E+04-1.08390E+01 6.21900E+04-1.23318E+01
 -1       602 1.88757E+01 2.34966E+05 3.88525E+04-1.79605E+01 9.55364E+04-1.59249E+01
 -1       603 2.01531E+01 2.35048E+05 3.88503E+04 1.68035E+01 9.55474E+04-5.69406E+00
 -1       604-9.89202E+00 2.63531E+05 4.63480E+04 3.34523E+00 1.10674E+05 7.03859E+00
 -1       605 1.69827E+01 1.22999E+05 1.77150E+04-1.64601E+01 4.70294E+04-1.25986E+01
 -1       606 8.77886E+00 1.77913E+05 2.67765E+04 3.73214E+01 6.88886E+04-3.80222E+00
 -1       607 6.23601E+00 1.78038E+05 2.67808E+04 3.60682E+01 6.89387E+04 3.31962E+00
 -1       608-9.74626E+00 2.06682E+05 3.26308E+04 1.36943E+01 8.22495E+04 8.61549E+00
 -1       609 1.45482E+01 9.45111E+04 1.18967E+04 2.08227E+01 3.37129E+04-7.68107E+00
 -1       610-8.82735E+00 1.20626E+05 1.70065E+04-7.57252E+01 4.52646E+04-1.50799E+01
 -1       611 3.15159E+00 1.20903E+05 1.70118E+04 7.51765E+01 4.52670E+04 2.55853E-01
 -1       612 3.49449E+00 1.49772E+05 2.17162E+04-5.38183E+01 5.71868E+04-6.09989E+00
 -1       613-1.19524E+01 6.60581E+04 7.05765E+03-5.98183E+01 2.17708E+04-4.29877E+00
 -1       614-9.13797E+01 6.43470E+04 7.99731E+03 5.43052E+02 2.21848E+04 9.63681E+01
 -1       615-1.26084E+02 6.45420E+04 8.05671E+03 1.22270E+02 2.25204E+04 6.78709E+01
 -1       616-4.09576E+00 9.34106E+04 1.23999E+04 1.29902E+02 3.40386E+04 2.23688E+01
 -1       617-1.54043E+01 3.77112E+04 2.87631E+03 3.73654E+02 1.06352E+04 3.53596E+01
 -1       618 1.33236E+02 1.18817E+04 5.15896E+02-1.96580E+03 5.95595E+03-7.16307E+01
 -1       619 2.57707E+02 9.59279E+03 4.15479E+02-8.26971E+02 4.49541E+03-1.45225E+02
 -1       620 1.32463E+02 3.60721E+04 5.04071E+03-6.89414E+02 1.38863E+04-1.29195E+02
 -1       621-1.46248E+02 1.08672E+04-1.68404E+03-1.28541E+03 1.75825E+03 9.59069E+01
 -3
    1PSTEP                        21          11           1          
  100CL  111 5.75000E-01         621                     0   11           1
 -4  DISP        4    1
 -5  D1          1    2    1    0
 -5  D2          1    2    2    0
 -5  D3          1    2    3    0
 -5  ALL         1    2    0    0    1ALL
 -1         1 0.00000E+00 0.00000E+00 0.00000E+00
 -1         2 0.00000E+00 0.00000E+00 0.00000E+00
 -1         3 7.93907E-10 4.02850E-02-2.28324E-03
 -1         4-8.85511E-10 3.93490E-02-1.39688E-02
 -1         5 0.00000E+00 0.00000E+00 0.00000E+00
 -1         6 0.00000E+00 0.00000E+00 0.00000E+00
 -1         7 1.68179E-13 4.02850E-02-2.28325E-03
 -1         8 1.23395E-13 3.93490E-02-1.39688E-02
 -1         9 0.00000E+00 0.00000E+00 0.00000E+00
 -1        10-1.43139E-10 1.02643E-02-3.48170E-04
 -1        11-4.55492E-11 3.98145E-02-8.12198E-03
 -1        12 2.18279E-10 1.00030E-02-6.33493E-03
 -1        13 0.00000E+00 0.00000E+00 0.00000E+00
 -1        14 0.00000E+00 0.00000E+00 0.00000E+00
 -1        15 3.97186E-10 4.02850E-02-2.28325E-03
 -1        16-4.42696E-10 3.93490E-02-1.39688E-02
 -1        17 0.00000E+00 0.00000E+00 0.00000E+00
 -1        18 4.28313E-14 1.02643E-02-3.48169E-04
 -1        19 1.45760E-13 3.98145E-02-8.12198E-03
 -1        20 2.17935E-14 1.00030E-02-6.33493E-03
 -1        21 2.06158E-09 1.55288E-01-1.62396E-02
 -1        22-1.86676E-09 1.51907E-01-3.83067E-02
 -1        23 6.46389E-13 1.55288E-01-1.62396E-02
 -1        24 5.55304E-13 1.51907E-01-3.83067E-02
 -1        25-6.48455E-10 8.90081E-02-7.19104E-03
 -1        26 9.76989E-11 1.53597E-01-2.72700E-02
 -1        27 6.66967E-10 8.70043E-02-2.42289E-02
 -1        28 1.03117E-09 1.55288E-01-1.62396E-02
 -1        29-9.33201E-10 1.51907E-01-3.83067E-02
 -1        30 3.71395E-13 8.90081E-02-7.19104E-03
 -1        31 6.00850E-13 1.53597E-01-2.72700E-02
 -1        32 3.03105E-13 8.70043E-02-2.42289E-02
 -1        33 3.90277E-09 3.35883E-01-5.04550E-02
 -1        34-3.09277E-09 3.29023E-01-8.15248E-02
 -1        35 1.39066E-12 3.35883E-01-5.04550E-02
 -1        36 1.25731E-12 3.29023E-01-8.15248E-02
 -1        37-1.40980E-09 2.37973E-01-3.04018E-02
 -1        38 4.05402E-10 3.32453E-01-6.59868E-02
 -1        39 1.19943E-09 2.32958E-01-5.71367E-02
 -1        40 1.95208E-09 3.35883E-01-5.04550E-02
 -1        41-1.54593E-09 3.29023E-01-8.15248E-02
 -1        42 9.88477E-13 2.37973E-01-3.04018E-02
 -1        43 1.32391E-12 3.32453E-01-6.59868E-02
 -1        44 8.75835E-13 2.32958E-01-5.71367E-02
 -1        45 6.44730E-09 5.72794E-01-1.10530E-01
 -1        46-4.75669E-09 5.61826E-01-1.49254E-01
 -1        47 2.35308E-12 5.72794E-01-1.10530E-01
 -1        48 2.18103E-12 5.61826E-01-1.49254E-01
 -1        49-2.48808E-09 4.47868E-01-7.70128E-02
 -1        50 8.45862E-10 5.67310E-01-1.29889E-01
 -1        51 1.89348E-09 4.39016E-01-1.12070E-01
 -1        52 3.22472E-09 5.72794E-01-1.10530E-01
 -1        53-2.37754E-09 5.61826E-01-1.49254E-01
 -1        54 1.84792E-12 4.47868E-01-7.70128E-02
 -1        55 2.26713E-12 5.67310E-01-1.29889E-01
 -1        56 1.69386E-12 4.39016E-01-1.12070E-01
 -1        57 9.81962E-09 8.57201E-01-1.99617E-01
 -1        58-7.16241E-09 8.41812E-01-2.44744E-01
 -1        59 3.48754E-12 8.57201E-01-1.99617E-01
 -1        60 3.28031E-12 8.41812E-01-2.44744E-01
 -1        61-3.95254E-09 7.09584E-01-1.51330E-01
 -1        62 1.32940E-09 8.49507E-01-2.22178E-01
 -1        63 2.86385E-09 6.96432E-01-1.93404E-01
 -1        64 4.91130E-09 8.57201E-01-1.99617E-01
 -1        65-3.58001E-09 8.41812E-01-2.44744E-01
 -1        66 2.90225E-12 7.09584E-01-1.51330E-01
 -1        67 3.38394E-12 8.49507E-01-2.22178E-01
 -1        68 2.71097E-12 6.96432E-01-1.93404E-01
 -1        69 1.40807E-08 1.18110E+00-3.18968E-01
 -1        70-1.08140E-08 1.16122E+00-3.69388E-01
 -1        71 4.75169E-12 1.18110E+00-3.18968E-01
 -1        72 4.51324E-12 1.16122E+00-3.69388E-01
 -1        73-5.85880E-09 1.01468E+00-2.55490E-01
 -1        74 1.63456E-09 1.17116E+00-3.44176E-01
 -1        75 4.29910E-09 9.97043E-01-3.03395E-01
 -1        76 7.04227E-09 1.18110E+00-3.18968E-01
 -1        77-5.40541E-09 1.16122E+00-3.69388E-01
 -1        78 4.10763E-12 1.01468E+00-2.55490E-01
 -1        79 4.63267E-12 1.17116E+00-3.44176E-01
 -1        80 3.88314E-12 9.97043E-01-3.03395E-01
 -1        81 1.91338E-08 1.53745E+00-4.68444E-01
 -1        82-1.65452E-08 1.51318E+00-5.23191E-01
 -1        83 6.10704E-12 1.53745E+00-4.68444E-01
 -1        84 5.84309E-12 1.51318E+00-5.23191E-01
 -1        85-8.21276E-09 1.35562E+00-3.89991E-01
 -1        86 1.29604E-09 1.52532E+00-4.95816E-01
 -1        87 6.51406E-09 1.33352E+00-4.42687E-01
 -1        88 9.56918E-09 1.53745E+00-4.68444E-01
 -1        89-8.27066E-09 1.51318E+00-5.23191E-01
 -1        90 5.42041E-12 1.35562E+00-3.89991E-01
 -1        91 5.97546E-12 1.52532E+00-4.95816E-01
 -1        92 5.16639E-12 1.33352E+00-4.42687E-01
 -1        93 2.45763E-08 1.92023E+00-6.46926E-01
 -1        94-2.57089E-08 1.89179E+00-7.05182E-01
 -1        95 7.52832E-12 1.92023E+00-6.46926E-01
 -1        96 7.23955E-12 1.89179E+00-7.05182E-01
 -1        97-1.09122E-08 1.72588E+00-5.54156E-01
 -1        98-5.63864E-10 1.90601E+00-6.76053E-01
 -1        99 1.00270E-08 1.69949E+00-6.10754E-01
 -1       100 1.22907E-08 1.92023E+00-6.46926E-01
 -1       101-1.28523E-08 1.89179E+00-7.05182E-01
 -1       102 6.81205E-12 1.72588E+00-5.54156E-01
 -1       103 7.38392E-12 1.90601E+00-6.76053E-01
 -1       104 6.53149E-12 1.69949E+00-6.10754E-01
 -1       105 2.94784E-08 2.32438E+00-8.52649E-01
 -1       106-4.04456E-08 2.29206E+00-9.13732E-01
 -1       107 8.98809E-12 2.32438E+00-8.52649E-01
 -1       108 8.68122E-12 2.29206E+00-9.13732E-01
 -1       109-1.36572E-08 2.11992E+00-7.46509E-01
 -1       110-5.48023E-09 2.30822E+00-8.83189E-01
 -1       111 1.56719E-08 2.08950E+00-8.06259E-01
 -1       112 1.47420E-08 2.32438E+00-8.52649E-01
 -1       113-2.02204E-08 2.29206E+00-9.13732E-01
 -1       114 8.25724E-12 2.11992E+00-7.46509E-01
 -1       115 8.83451E-12 2.30822E+00-8.83189E-01
 -1       116 7.95486E-12 2.08950E+00-8.06259E-01
 -1       117 3.20735E-08 2.74567E+00-1.08345E+00
 -1       118-6.40498E-08 2.70983E+00-1.14680E+00
 -1       119 1.04638E-11 2.74567E+00-1.08345E+00
 -1       120 1.01440E-11 2.70983E+00-1.14680E+00
 -1       121-1.58182E-08 2.53311E+00-9.65059E-01
 -1       122-1.59831E-08 2.72775E+00-1.11512E+00
 -1       123 2.47548E-08 2.49899E+00-1.02734E+00
 -1       124 1.60396E-08 2.74567E+00-1.08345E+00
 -1       125-3.20222E-08 2.70983E+00-1.14680E+00
 -1       126 9.72899E-12 2.53311E+00-9.65059E-01
 -1       127 1.03039E-11 2.72775E+00-1.11512E+00
 -1       128 9.41217E-12 2.49899E+00-1.02734E+00
 -1       129 2.93493E-08 3.18067E+00-1.33695E+00
 -1       130-1.01427E-07 3.14165E+00-1.40210E+00
 -1       131 1.19388E-11 3.18067E+00-1.33695E+00
 -1       132 1.16036E-11 3.14165E+00-1.40210E+00
 -1       133-1.62578E-08 2.96165E+00-1.20752E+00
 -1       134-3.60336E-08 3.16116E+00-1.36952E+00
 -1       135 3.92643E-08 2.92417E+00-1.27182E+00
 -1       136 1.46781E-08 3.18067E+00-1.33695E+00
 -1       137-5.07103E-08 3.14165E+00-1.40210E+00
 -1       138 1.12041E-11 2.96165E+00-1.20752E+00
 -1       139 1.17705E-11 3.16116E+00-1.36952E+00
 -1       140 1.08724E-11 2.92417E+00-1.27182E+00
 -1       141 1.65743E-08 3.62654E+00-1.61067E+00
 -1       142-1.59652E-07 3.58471E+00-1.67725E+00
 -1       143 1.34103E-11 3.62654E+00-1.61067E+00
 -1       144 1.30617E-11 3.58471E+00-1.67725E+00
 -1       145-1.30992E-08 3.40240E+00-1.47144E+00
 -1       146-7.15252E-08 3.60562E+00-1.64396E+00
 -1       147 6.21194E-08 3.36193E+00-1.53734E+00
 -1       148 8.29081E-09 3.62654E+00-1.61067E+00
 -1       149-7.98218E-08 3.58471E+00-1.67725E+00
 -1       150 1.26776E-11 3.40240E+00-1.47144E+00
 -1       151 1.32361E-11 3.60562E+00-1.64396E+00
 -1       152 1.23335E-11 3.36193E+00-1.53734E+00
 -1       153-1.31888E-08 4.08098E+00-1.90213E+00
 -1       154-2.48376E-07 4.03672E+00-1.96983E+00
 -1       155 1.48958E-11 4.08099E+00-1.90213E+00
 -1       156 1.45383E-11 4.03672E+00-1.96983E+00
 -1       157-3.48579E-09 3.85281E+00-1.75434E+00
 -1       158-1.30790E-07 4.05885E+00-1.93598E+00
 -1       159 9.74767E-08 3.80972E+00-1.82151E+00
 -1       160-6.58666E-09 4.08099E+00-1.90213E+00
 -1       161-1.24181E-07 4.03672E+00-1.96983E+00
 -1       162 1.41562E-11 3.85281E+00-1.75434E+00
 -1       163 1.47166E-11 4.05885E+00-1.93598E+00
 -1       164 1.37997E-11 3.80972E+00-1.82151E+00
 -1       165-6.92819E-08 4.54216E+00-2.20888E+00
 -1       166-3.80445E-07 4.49581E+00-2.27746E+00
 -1       167 1.63566E-11 4.54216E+00-2.20888E+00
 -1       168 1.59832E-11 4.49581E+00-2.27746E+00
 -1       169 1.66789E-08 4.31083E+00-2.05375E+00
 -1       170-2.24780E-07 4.51898E+00-2.24317E+00
 -1       171 1.50854E-07 4.26548E+00-2.12191E+00
 -1       172-3.46358E-08 4.54216E+00-2.20888E+00
 -1       173-1.90213E-07 4.49581E+00-2.27746E+00
 -1       174 1.56274E-11 4.31083E+00-2.05375E+00
 -1       175 1.61686E-11 4.51898E+00-2.24317E+00
 -1       176 1.52610E-11 4.26548E+00-2.12191E+00
 -1       177-1.63303E-07 5.00853E+00-2.52854E+00
 -1       178-5.70182E-07 4.96045E+00-2.59779E+00
 -1       179 1.77928E-11 5.00853E+00-2.52854E+00
 -1       180 1.74188E-11 4.96045E+00-2.59779E+00
 -1       181 5.26262E-08 4.77478E+00-2.36725E+00
 -1       182-3.66988E-07 4.98449E+00-2.56317E+00
 -1       183 2.29540E-07 4.72752E+00-2.43618E+00
 -1       184-8.16157E-08 5.00853E+00-2.52854E+00
 -1       185-2.85059E-07 4.96045E+00-2.59779E+00
 -1       186 1.70806E-11 4.77478E+00-2.36725E+00
 -1       187 1.76052E-11 4.98449E+00-2.56316E+00
 -1       188 1.67048E-11 4.72752E+00-2.43618E+00
 -1       189-3.06801E-07 5.47888E+00-2.85881E+00
 -1       190-8.36279E-07 5.42940E+00-2.92856E+00
 -1       191 1.92191E-11 5.47888E+00-2.85881E+00
 -1       192 1.88403E-11 5.42940E+00-2.92856E+00
 -1       193 1.10856E-07 5.24328E+00-2.69249E+00
 -1       194-5.70505E-07 5.45414E+00-2.89368E+00
 -1       195 3.40789E-07 5.19446E+00-2.76201E+00
 -1       196-1.53421E-07 5.47888E+00-2.85881E+00
 -1       197-4.18153E-07 5.42940E+00-2.92856E+00
 -1       198 1.85113E-11 5.24328E+00-2.69249E+00
 -1       199 1.90296E-11 5.45414E+00-2.89368E+00
 -1       200 1.81358E-11 5.19446E+00-2.76201E+00
 -1       201-5.08945E-07 5.95218E+00-3.19745E+00
 -1       202-1.17972E-06 5.90162E+00-3.26756E+00
 -1       203 2.06295E-11 5.95218E+00-3.19745E+00
 -1       204 2.02413E-11 5.90162E+00-3.26756E+00
 -1       205 1.96057E-07 5.71522E+00-3.02722E+00
 -1       206-8.48187E-07 5.92690E+00-3.23251E+00
 -1       207 4.95383E-07 5.66516E+00-3.09717E+00
 -1       208-2.54247E-07 5.95218E+00-3.19745E+00
 -1       209-5.89566E-07 5.90162E+00-3.26756E+00
 -1       210 1.99234E-11 5.71522E+00-3.02722E+00
 -1       211 2.04347E-11 5.92690E+00-3.23251E+00
 -1       212 1.95452E-11 5.66516E+00-3.09717E+00
 -1       213-7.62102E-07 6.42755E+00-3.54230E+00
 -1       214-1.63930E-06 6.37623E+00-3.61267E+00
 -1       215 2.19800E-11 6.42755E+00-3.54230E+00
 -1       216 2.15896E-11 6.37622E+00-3.61267E+00
 -1       217 3.14265E-07 6.18965E+00-3.36923E+00
 -1       218-1.18564E-06 6.40189E+00-3.57749E+00
 -1       219 6.86103E-07 6.13867E+00-3.43949E+00
 -1       220-3.81423E-07 6.42755E+00-3.54230E+00
 -1       221-8.20509E-07 6.37623E+00-3.61267E+00
 -1       222 2.13116E-11 6.18965E+00-3.36923E+00
 -1       223 2.17864E-11 6.40189E+00-3.57749E+00
 -1       224 2.09278E-11 6.13867E+00-3.43949E+00
 -1       225-1.04033E-06 6.90424E+00-3.89127E+00
 -1       226-2.03168E-06 6.85247E+00-3.96178E+00
 -1       227 2.32972E-11 6.90424E+00-3.89127E+00
 -1       228 2.28998E-11 6.85247E+00-3.96178E+00
 -1       229 4.46350E-07 6.66577E+00-3.71640E+00
 -1       230-1.59411E-06 6.87836E+00-3.92653E+00
 -1       231 9.49947E-07 6.61418E+00-3.78686E+00
 -1       232-5.18736E-07 6.90424E+00-3.89127E+00
 -1       233-1.01155E-06 6.85247E+00-3.96178E+00
 -1       234 2.26480E-11 6.66577E+00-3.71640E+00
 -1       235 2.30988E-11 6.87835E+00-3.92653E+00
 -1       236 2.22642E-11 6.61419E+00-3.78686E+00
 -1       237-1.23639E-06 7.38158E+00-4.24229E+00
 -1       238-2.83567E-06 7.32966E+00-4.31284E+00
 -1       239 2.46540E-11 7.38158E+00-4.24229E+00
 -1       240 2.42662E-11 7.32966E+00-4.31285E+00
 -1       241 6.06285E-07 7.14287E+00-4.06665E+00
 -1       242-1.80981E-06 7.35562E+00-4.27757E+00
 -1       243 1.09950E-06 7.09098E+00-4.13720E+00
 -1       244-6.20639E-07 7.38158E+00-4.24229E+00
 -1       245-1.43458E-06 7.32966E+00-4.31285E+00
 -1       246 2.39663E-11 7.14288E+00-4.06665E+00
 -1       247 2.44612E-11 7.35562E+00-4.27757E+00
 -1       248 2.35842E-11 7.09098E+00-4.13720E+00
 -1       249 0.00000E+00 0.00000E+00 0.00000E+00
 -1       250 0.00000E+00 0.00000E+00 0.00000E+00
 -1       251-7.93570E-10 4.02850E-02-2.28324E-03
 -1       252 8.85758E-10 3.93490E-02-1.39688E-02
 -1       253 0.00000E+00 0.00000E+00 0.00000E+00
 -1       254 0.00000E+00 0.00000E+00 0.00000E+00
 -1       255-3.96849E-10 4.02850E-02-2.28325E-03
 -1       256 4.42943E-10 3.93490E-02-1.39688E-02
 -1       257 0.00000E+00 0.00000E+00 0.00000E+00
 -1       258 1.43224E-10 1.02643E-02-3.48170E-04
 -1       259 4.58408E-11 3.98145E-02-8.12198E-03
 -1       260-2.18235E-10 1.00030E-02-6.33493E-03
 -1       261-2.06028E-09 1.55288E-01-1.62396E-02
 -1       262 1.86787E-09 1.51907E-01-3.83067E-02
 -1       263-1.02987E-09 1.55288E-01-1.62396E-02
 -1       264 9.34311E-10 1.51907E-01-3.83067E-02
 -1       265 6.49198E-10 8.90081E-02-7.19104E-03
 -1       266-9.64971E-11 1.53597E-01-2.72700E-02
 -1       267-6.66360E-10 8.70043E-02-2.42289E-02
 -1       268-3.89999E-09 3.35883E-01-5.04550E-02
 -1       269 3.09528E-09 3.29023E-01-8.15248E-02
 -1       270-1.94930E-09 3.35883E-01-5.04550E-02
 -1       271 1.54844E-09 3.29023E-01-8.15248E-02
 -1       272 1.41178E-09 2.37973E-01-3.04018E-02
 -1       273-4.02754E-10 3.32453E-01-6.59868E-02
 -1       274-1.19768E-09 2.32958E-01-5.71367E-02
 -1       275-6.44259E-09 5.72794E-01-1.10530E-01
 -1       276 4.76105E-09 5.61826E-01-1.49254E-01
 -1       277-3.22002E-09 5.72794E-01-1.10530E-01
 -1       278 2.38190E-09 5.61826E-01-1.49254E-01
 -1       279 2.49178E-09 4.47868E-01-7.70128E-02
 -1       280-8.41328E-10 5.67310E-01-1.29889E-01
 -1       281-1.89009E-09 4.39016E-01-1.12070E-01
 -1       282-9.81264E-09 8.57201E-01-1.99617E-01
 -1       283 7.16897E-09 8.41812E-01-2.44744E-01
 -1       284-4.90432E-09 8.57201E-01-1.99617E-01
 -1       285 3.58657E-09 8.41812E-01-2.44744E-01
 -1       286 3.95834E-09 7.09584E-01-1.51330E-01
 -1       287-1.32264E-09 8.49507E-01-2.22178E-01
 -1       288-2.85843E-09 6.96432E-01-1.93404E-01
 -1       289-1.40712E-08 1.18110E+00-3.18968E-01
 -1       290 1.08230E-08 1.16122E+00-3.69388E-01
 -1       291-7.03276E-09 1.18110E+00-3.18968E-01
 -1       292 5.41443E-09 1.16122E+00-3.69388E-01
 -1       293 5.86702E-09 1.01468E+00-2.55490E-01
 -1       294-1.62529E-09 1.17116E+00-3.44176E-01
 -1       295-4.29134E-09 9.97043E-01-3.03395E-01
 -1       296-1.91216E-08 1.53745E+00-4.68444E-01
 -1       297 1.65569E-08 1.51318E+00-5.23191E-01
 -1       298-9.55696E-09 1.53745E+00-4.68444E-01
 -1       299 8.28235E-09 1.51318E+00-5.23191E-01
 -1       300 8.22360E-09 1.35562E+00-3.89991E-01
 -1       301-1.28409E-09 1.52532E+00-4.95816E-01
 -1       302-6.50372E-09 1.33352E+00-4.42687E-01
 -1       303-2.45612E-08 1.92023E+00-6.46926E-01
 -1       304 2.57234E-08 1.89179E+00-7.05182E-01
 -1       305-1.22756E-08 1.92023E+00-6.46926E-01
 -1       306 1.28667E-08 1.89179E+00-7.05182E-01
 -1       307 1.09258E-08 1.72588E+00-5.54156E-01
 -1       308 5.78633E-10 1.90601E+00-6.76053E-01
 -1       309-1.00139E-08 1.69949E+00-6.10754E-01
 -1       310-2.94604E-08 2.32438E+00-8.52649E-01
 -1       311 4.04629E-08 2.29206E+00-9.13732E-01
 -1       312-1.47240E-08 2.32438E+00-8.52649E-01
 -1       313 2.02377E-08 2.29206E+00-9.13732E-01
 -1       314 1.36737E-08 2.11992E+00-7.46509E-01
 -1       315 5.49790E-09 2.30822E+00-8.83189E-01
 -1       316-1.56560E-08 2.08950E+00-8.06259E-01
 -1       317-3.20525E-08 2.74567E+00-1.08345E+00
 -1       318 6.40701E-08 2.70983E+00-1.14680E+00
 -1       319-1.60187E-08 2.74567E+00-1.08345E+00
 -1       320 3.20425E-08 2.70983E+00-1.14680E+00
 -1       321 1.58377E-08 2.53311E+00-9.65059E-01
 -1       322 1.60037E-08 2.72775E+00-1.11512E+00
 -1       323-2.47359E-08 2.49899E+00-1.02734E+00
 -1       324-2.93254E-08 3.18067E+00-1.33695E+00
 -1       325 1.01450E-07 3.14165E+00-1.40210E+00
 -1       326-1.46542E-08 3.18067E+00-1.33695E+00
 -1       327 5.07335E-08 3.14165E+00-1.40210E+00
 -1       328 1.62802E-08 2.96165E+00-1.20752E+00
 -1       329 3.60571E-08 3.16116E+00-1.36952E+00
 -1       330-3.92425E-08 2.92417E+00-1.27182E+00
 -1       331-1.65475E-08 3.62654E+00-1.61067E+00
 -1       332 1.59678E-07 3.58471E+00-1.67725E+00
 -1       333-8.26399E-09 3.62654E+00-1.61067E+00
 -1       334 7.98479E-08 3.58471E+00-1.67725E+00
 -1       335 1.31246E-08 3.40240E+00-1.47144E+00
 -1       336 7.15517E-08 3.60562E+00-1.64396E+00
 -1       337-6.20947E-08 3.36193E+00-1.53734E+00
 -1       338 1.32186E-08 4.08098E+00-1.90213E+00
 -1       339 2.48406E-07 4.03672E+00-1.96983E+00
 -1       340 6.61646E-09 4.08099E+00-1.90213E+00
 -1       341 1.24210E-07 4.03672E+00-1.96983E+00
 -1       342 3.51410E-09 3.85281E+00-1.75434E+00
 -1       343 1.30819E-07 4.05885E+00-1.93598E+00
 -1       344-9.74491E-08 3.80972E+00-1.82151E+00
 -1       345 6.93146E-08 4.54216E+00-2.20888E+00
 -1       346 3.80477E-07 4.49581E+00-2.27746E+00
 -1       347 3.46686E-08 4.54216E+00-2.20888E+00
 -1       348 1.90245E-07 4.49581E+00-2.27746E+00
 -1       349-1.66477E-08 4.31083E+00-2.05375E+00
 -1       350 2.24812E-07 4.51898E+00-2.24317E+00
 -1       351-1.50824E-07 4.26548E+00-2.12191E+00
 -1       352 1.63339E-07 5.00853E+00-2.52854E+00
 -1       353 5.70217E-07 4.96045E+00-2.59779E+00
 -1       354 8.16513E-08 5.00853E+00-2.52854E+00
 -1       355 2.85094E-07 4.96045E+00-2.59779E+00
 -1       356-5.25920E-08 4.77478E+00-2.36725E+00
 -1       357 3.67023E-07 4.98449E+00-2.56317E+00
 -1       358-2.29507E-07 4.72752E+00-2.43618E+00
 -1       359 3.06840E-07 5.47888E+00-2.85881E+00
 -1       360 8.36316E-07 5.42940E+00-2.92856E+00
 -1       361 1.53459E-07 5.47888E+00-2.85881E+00
 -1       362 4.18191E-07 5.42940E+00-2.92856E+00
 -1       363-1.10819E-07 5.24328E+00-2.69249E+00
 -1       364 5.70543E-07 5.45414E+00-2.89368E+00
 -1       365-3.40752E-07 5.19446E+00-2.76201E+00
 -1       366 5.08987E-07 5.95218E+00-3.19745E+00
 -1       367 1.17976E-06 5.90162E+00-3.26756E+00
 -1       368 2.54288E-07 5.95218E+00-3.19745E+00
 -1       369 5.89607E-07 5.90162E+00-3.26756E+00
 -1       370-1.96017E-07 5.71522E+00-3.02722E+00
 -1       371 8.48228E-07 5.92690E+00-3.23251E+00
 -1       372-4.95344E-07 5.66516E+00-3.09717E+00
 -1       373 7.62146E-07 6.42755E+00-3.54230E+00
 -1       374 1.63935E-06 6.37623E+00-3.61267E+00
 -1       375 3.81467E-07 6.42755E+00-3.54230E+00
 -1       376 8.20552E-07 6.37623E+00-3.61267E+00
 -1       377-3.14223E-07 6.18965E+00-3.36923E+00
 -1       378 1.18568E-06 6.40189E+00-3.57749E+00
 -1       379-6.86061E-07 6.13867E+00-3.43949E+00
 -1       380 1.04037E-06 6.90424E+00-3.89127E+00
 -1       381 2.03172E-06 6.85247E+00-3.96178E+00
 -1       382 5.18783E-07 6.90424E+00-3.89127E+00
 -1       383 1.01160E-06 6.85247E+00-3.96178E+00
 -1       384-4.46305E-07 6.66577E+00-3.71640E+00
 -1       385 1.59416E-06 6.87836E+00-3.92653E+00
 -1       386-9.49903E-07 6.61418E+00-3.78686E+00
 -1       387 1.23644E-06 7.38158E+00-4.24229E+00
 -1       388 2.83572E-06 7.32966E+00-4.31284E+00
 -1       389 6.20688E-07 7.38158E+00-4.24229E+00
 -1       390 1.43463E-06 7.32966E+00-4.31285E+00
 -1       391-6.06237E-07 7.14287E+00-4.06665E+00
 -1       392 1.80986E-06 7.35562E+00-4.27757E+00
 -1       393-1.09945E-06 7.09098E+00-4.13720E+00
 -1       394 0.00000E+00 0.00000E+00 0.00000E+00
 -1       395 1.30667E-09 4.12205E-02 9.39399E-03
 -1       396 0.00000E+00 0.00000E+00 0.00000E+00
 -1       397 2.13115E-13 4.12205E-02 9.39400E-03
 -1       398 0.00000E+00 0.00000E+00 0.00000E+00
 -1       399-3.89277E-10 1.05254E-02 5.64231E-03
 -1       400 1.04975E-09 4.07553E-02 3.55150E-03
 -1       401 0.00000E+00 0.00000E+00 0.00000E+00
 -1       402 6.53148E-10 4.12205E-02 9.39399E-03
 -1       403 0.00000E+00 0.00000E+00 0.00000E+00
 -1       404 6.38163E-14 1.05254E-02 5.64231E-03
 -1       405 1.90683E-13 4.07553E-02 3.55150E-03
 -1       406 2.13868E-09 1.58668E-01 5.81953E-03
 -1       407 7.37758E-13 1.58668E-01 5.81954E-03
 -1       408-9.18688E-10 9.10126E-02 9.85004E-03
 -1       409 2.09967E-09 1.56979E-01-5.21303E-03
 -1       410 1.06941E-09 1.58668E-01 5.81954E-03
 -1       411 4.39640E-13 9.10126E-02 9.85004E-03
 -1       412 6.92156E-13 1.56979E-01-5.21303E-03
 -1       413 2.46365E-09 3.42740E-01-1.93907E-02
 -1       414 1.52451E-12 3.42740E-01-1.93907E-02
 -1       415-1.22048E-09 2.42989E-01-3.66437E-03
 -1       416 3.18260E-09 3.39312E-01-3.49259E-02
 -1       417 1.23217E-09 3.42740E-01-1.93907E-02
 -1       418 1.10112E-12 2.42989E-01-3.66438E-03
 -1       419 1.45747E-12 3.39312E-01-3.49259E-02
 -1       420 2.08308E-09 5.83761E-01-7.18100E-02
 -1       421 2.52635E-12 5.83761E-01-7.18100E-02
 -1       422-1.24238E-09 4.56720E-01-4.19541E-02
 -1       423 4.26439E-09 5.78277E-01-9.11729E-02
 -1       424 1.04225E-09 5.83761E-01-7.18100E-02
 -1       425 2.00141E-12 4.56720E-01-4.19541E-02
 -1       426 2.43987E-12 5.78277E-01-9.11729E-02
 -1       427 5.72916E-10 8.72590E-01-1.54490E-01
 -1       428 3.69596E-12 8.72590E-01-1.54490E-01
 -1       429-8.38473E-10 7.22736E-01-1.09256E-01
 -1       430 5.19515E-09 8.64895E-01-1.77056E-01
 -1       431 2.87552E-10 8.72590E-01-1.54490E-01
 -1       432 3.09285E-12 7.22736E-01-1.09256E-01
 -1       433 3.59186E-12 8.64895E-01-1.77056E-01
 -1       434-2.81266E-09 1.20098E+00-2.68549E-01
 -1       435 4.99289E-12 1.20098E+00-2.68549E-01
 -1       436 2.69043E-10 1.03231E+00-2.07585E-01
 -1       437 5.63249E-09 1.19104E+00-2.93761E-01
 -1       438-1.40485E-09 1.20098E+00-2.68549E-01
 -1       439 4.33106E-12 1.03231E+00-2.07585E-01
 -1       440 4.87254E-12 1.19104E+00-2.93761E-01
 -1       441-9.28469E-09 1.56172E+00-4.13697E-01
 -1       442 6.37481E-12 1.56172E+00-4.13697E-01
 -1       443 2.54787E-09 1.37771E+00-3.37295E-01
 -1       444 4.92245E-09 1.54958E+00-4.41072E-01
 -1       445-4.64050E-09 1.56172E+00-4.13697E-01
 -1       446 5.67304E-12 1.37771E+00-3.37295E-01
 -1       447 6.24144E-12 1.54958E+00-4.41072E-01
 -1       448-2.07235E-08 1.94867E+00-5.88669E-01
 -1       449 7.82039E-12 1.94867E+00-5.88669E-01
 -1       450 6.74114E-09 1.75226E+00-4.97559E-01
 -1       451 1.92344E-09 1.93445E+00-6.17799E-01
 -1       452-1.03595E-08 1.94867E+00-5.88669E-01
 -1       453 7.09119E-12 1.75226E+00-4.97559E-01
 -1       454 7.67460E-12 1.93445E+00-6.17799E-01
 -1       455-3.99545E-08 2.35669E+00-7.91565E-01
 -1       456 9.29998E-12 2.35669E+00-7.91565E-01
 -1       457 1.39860E-08 2.15033E+00-6.86760E-01
 -1       458-5.24178E-09 2.34053E+00-8.22108E-01
 -1       459-1.99747E-08 2.35669E+00-7.91565E-01
 -1       460 8.55669E-12 2.15033E+00-6.86760E-01
 -1       461 9.14360E-12 2.34053E+00-8.22108E-01
 -1       462-7.10933E-08 2.78152E+00-1.02010E+00
 -1       463 1.07857E-11 2.78152E+00-1.02010E+00
 -1       464 2.59715E-08 2.56724E+00-9.02779E-01
 -1       465-1.95157E-08 2.76360E+00-1.05178E+00
 -1       466-3.55433E-08 2.78152E+00-1.02010E+00
 -1       467 1.00442E-11 2.56724E+00-9.02779E-01
 -1       468 1.06248E-11 2.76360E+00-1.05178E+00
 -1       469-1.19950E-07 3.21969E+00-1.27180E+00
 -1       470 1.22763E-11 3.21969E+00-1.27180E+00
 -1       471 4.51254E-08 2.99913E+00-1.14322E+00
 -1       472-4.53048E-08 3.20018E+00-1.30438E+00
 -1       473-5.99709E-08 3.21969E+00-1.27180E+00
 -1       474 1.15347E-11 2.99913E+00-1.14322E+00
 -1       475 1.21074E-11 3.20018E+00-1.30438E+00
 -1       476-1.94369E-07 3.66836E+00-1.54410E+00
 -1       477 1.37622E-11 3.66836E+00-1.54410E+00
 -1       478 7.48346E-08 3.44286E+00-1.40553E+00
 -1       479-8.89141E-08 3.64745E+00-1.57739E+00
 -1       480-9.71769E-08 3.66836E+00-1.54410E+00
 -1       481 1.30190E-11 3.44286E+00-1.40553E+00
 -1       482 1.35859E-11 3.64745E+00-1.57739E+00
 -1       483-3.04525E-07 4.12525E+00-1.83444E+00
 -1       484 1.52551E-11 4.12525E+00-1.83444E+00
 -1       485 1.19561E-07 3.89590E+00-1.68717E+00
 -1       486-1.58838E-07 4.10312E+00-1.86829E+00
 -1       487-1.52254E-07 4.12525E+00-1.83444E+00
 -1       488 1.45084E-11 3.89590E+00-1.68717E+00
 -1       489 1.50757E-11 4.10312E+00-1.86829E+00
 -1       490-4.62156E-07 4.58850E+00-2.14031E+00
 -1       491 1.67301E-11 4.58850E+00-2.14031E+00
 -1       492 1.85040E-07 4.35618E+00-1.98559E+00
 -1       493-2.65840E-07 4.56533E+00-2.17460E+00
 -1       494-2.31049E-07 4.58850E+00-2.14031E+00
 -1       495 1.59924E-11 4.35618E+00-1.98559E+00
 -1       496 1.65421E-11 4.56533E+00-2.17460E+00
 -1       497-6.80585E-07 5.05662E+00-2.45930E+00
 -1       498 1.81715E-11 5.05662E+00-2.45930E+00
 -1       499 2.77263E-07 4.82203E+00-2.29832E+00
 -1       500-4.21580E-07 5.03258E+00-2.49392E+00
 -1       501-3.40293E-07 5.05662E+00-2.45930E+00
 -1       502 1.74545E-11 4.82203E+00-2.29832E+00
 -1       503 1.79820E-11 5.03258E+00-2.49392E+00
 -1       504-9.65536E-07 5.52837E+00-2.78906E+00
 -1       505 1.96015E-11 5.52837E+00-2.78906E+00
 -1       506 4.03734E-07 5.29211E+00-2.62298E+00
 -1       507-6.37570E-07 5.50362E+00-2.82393E+00
 -1       508-4.82589E-07 5.52837E+00-2.78906E+00
 -1       509 1.88849E-11 5.29211E+00-2.62298E+00
 -1       510 1.94102E-11 5.50362E+00-2.82393E+00
 -1       511-1.32697E-06 6.00274E+00-3.12733E+00
 -1       512 2.10194E-11 6.00274E+00-3.12733E+00
 -1       513 5.62217E-07 5.76528E+00-2.95727E+00
 -1       514-9.13052E-07 5.97746E+00-3.16239E+00
 -1       515-6.63792E-07 6.00274E+00-3.12733E+00
 -1       516 2.03030E-11 5.76528E+00-2.95727E+00
 -1       517 2.08245E-11 5.97746E+00-3.16239E+00
 -1       518-1.69306E-06 6.47887E+00-3.47194E+00
 -1       519 2.23663E-11 6.47887E+00-3.47194E+00
 -1       520 7.67048E-07 6.24063E+00-3.29897E+00
 -1       521-1.24550E-06 6.45321E+00-3.50712E+00
 -1       522-8.44989E-07 6.47887E+00-3.47194E+00
 -1       523 2.16929E-11 6.24063E+00-3.29897E+00
 -1       524 2.21755E-11 6.45321E+00-3.50712E+00
 -1       525-2.14325E-06 6.95603E+00-3.82077E+00
 -1       526 2.36891E-11 6.95602E+00-3.82077E+00
 -1       527 9.24327E-07 6.71736E+00-3.64595E+00
 -1       528-1.52728E-06 6.93013E+00-3.85602E+00
 -1       529-1.07588E-06 6.95602E+00-3.82077E+00
 -1       530 2.30365E-11 6.71736E+00-3.64595E+00
 -1       531 2.34924E-11 6.93013E+00-3.85602E+00
 -1       532-1.91110E-06 7.43352E+00-4.17174E+00
 -1       533 2.50383E-11 7.43351E+00-4.17173E+00
 -1       534 1.23810E-06 7.19476E+00-3.99611E+00
 -1       535-1.80855E-06 7.40755E+00-4.20701E+00
 -1       536-9.40351E-07 7.43352E+00-4.17173E+00
 -1       537 2.43539E-11 7.19476E+00-3.99611E+00
 -1       538 2.48472E-11 7.40755E+00-4.20701E+00
 -1       539 0.00000E+00 0.00000E+00 0.00000E+00
 -1       540-1.30625E-09 4.12205E-02 9.39399E-03
 -1       541 0.00000E+00 0.00000E+00 0.00000E+00
 -1       542-6.52722E-10 4.12205E-02 9.39399E-03
 -1       543 0.00000E+00 0.00000E+00 0.00000E+00
 -1       544 3.89405E-10 1.05254E-02 5.64231E-03
 -1       545-1.04937E-09 4.07553E-02 3.55150E-03
 -1       546-2.13721E-09 1.58668E-01 5.81953E-03
 -1       547-1.06793E-09 1.58668E-01 5.81954E-03
 -1       548 9.19567E-10 9.10126E-02 9.85004E-03
 -1       549-2.09829E-09 1.56979E-01-5.21303E-03
 -1       550-2.46060E-09 3.42740E-01-1.93907E-02
 -1       551-1.22912E-09 3.42740E-01-1.93907E-02
 -1       552 1.22268E-09 2.42989E-01-3.66437E-03
 -1       553-3.17969E-09 3.39312E-01-3.49259E-02
 -1       554-2.07803E-09 5.83761E-01-7.18100E-02
 -1       555-1.03720E-09 5.83761E-01-7.18100E-02
 -1       556 1.24639E-09 4.56720E-01-4.19541E-02
 -1       557-4.25951E-09 5.78277E-01-9.11729E-02
 -1       558-5.65525E-10 8.72590E-01-1.54490E-01
 -1       559-2.80160E-10 8.72590E-01-1.54490E-01
 -1       560 8.44659E-10 7.22736E-01-1.09256E-01
 -1       561-5.18797E-09 8.64895E-01-1.77056E-01
 -1       562 2.82264E-09 1.20098E+00-2.68549E-01
 -1       563 1.41483E-09 1.20098E+00-2.68549E-01
 -1       564-2.60381E-10 1.03231E+00-2.07585E-01
 -1       565-5.62274E-09 1.19104E+00-2.93761E-01
 -1       566 9.29744E-09 1.56172E+00-4.13697E-01
 -1       567 4.65325E-09 1.56172E+00-4.13697E-01
 -1       568-2.53653E-09 1.37771E+00-3.37295E-01
 -1       569-4.90997E-09 1.54958E+00-4.41072E-01
 -1       570 2.07391E-08 1.94867E+00-5.88669E-01
 -1       571 1.03751E-08 1.94867E+00-5.88669E-01
 -1       572-6.72696E-09 1.75226E+00-4.97559E-01
 -1       573-1.90809E-09 1.93445E+00-6.17799E-01
 -1       574 3.99731E-08 2.35669E+00-7.91565E-01
 -1       575 1.99933E-08 2.35669E+00-7.91565E-01
 -1       576-1.39689E-08 2.15033E+00-6.86760E-01
 -1       577 5.26007E-09 2.34053E+00-8.22108E-01
 -1       578 7.11149E-08 2.78152E+00-1.02010E+00
 -1       579 3.55649E-08 2.78152E+00-1.02010E+00
 -1       580-2.59514E-08 2.56724E+00-9.02779E-01
 -1       581 1.95370E-08 2.76360E+00-1.05178E+00
 -1       582 1.19975E-07 3.21969E+00-1.27180E+00
 -1       583 5.99955E-08 3.21969E+00-1.27180E+00
 -1       584-4.51024E-08 2.99913E+00-1.14322E+00
 -1       585 4.53290E-08 3.20018E+00-1.30438E+00
 -1       586 1.94396E-07 3.66836E+00-1.54410E+00
 -1       587 9.72044E-08 3.66836E+00-1.54410E+00
 -1       588-7.48085E-08 3.44286E+00-1.40553E+00
 -1       589 8.89413E-08 3.64745E+00-1.57739E+00
 -1       590 3.04555E-07 4.12525E+00-1.83444E+00
 -1       591 1.52285E-07 4.12525E+00-1.83444E+00
 -1       592-1.19532E-07 3.89590E+00-1.68717E+00
 -1       593 1.58868E-07 4.10312E+00-1.86829E+00
 -1       594 4.62190E-07 4.58850E+00-2.14031E+00
 -1       595 2.31082E-07 4.58850E+00-2.14031E+00
 -1       596-1.85008E-07 4.35618E+00-1.98559E+00
 -1       597 2.65873E-07 4.56533E+00-2.17460E+00
 -1       598 6.80621E-07 5.05662E+00-2.45930E+00
 -1       599 3.40330E-07 5.05662E+00-2.45930E+00
 -1       600-2.77228E-07 4.82203E+00-2.29832E+00
 -1       601 4.21616E-07 5.03258E+00-2.49392E+00
 -1       602 9.65575E-07 5.52837E+00-2.78906E+00
 -1       603 4.82628E-07 5.52837E+00-2.78906E+00
 -1       604-4.03696E-07 5.29211E+00-2.62298E+00
 -1       605 6.37609E-07 5.50362E+00-2.82393E+00
 -1       606 1.32702E-06 6.00274E+00-3.12733E+00
 -1       607 6.63834E-07 6.00274E+00-3.12733E+00
 -1       608-5.62176E-07 5.76528E+00-2.95727E+00
 -1       609 9.13094E-07 5.97746E+00-3.16239E+00
 -1       610 1.69310E-06 6.47887E+00-3.47194E+00
 -1       611 8.45034E-07 6.47887E+00-3.47194E+00
 -1       612-7.67004E-07 6.24063E+00-3.29897E+00
 -1       613 1.24554E-06 6.45321E+00-3.50712E+00
 -1       614 2.14330E-06 6.95603E+00-3.82077E+00
 -1       615 1.07593E-06 6.95602E+00-3.82077E+00
 -1       616-9.24281E-07 6.71736E+00-3.64595E+00
 -1       617 1.52733E-06 6.93013E+00-3.85602E+00
 -1       618 1.91115E-06 7.43352E+00-4.17174E+00
 -1       619 9.40401E-07 7.43352E+00-4.17173E+00
 -1       620-1.23805E-06 7.19476E+00-3.99611E+00
 -1       621 1.80860E-06 7.40755E+00-4.20701E+00
 -3
    1PSTEP                        22          11           1          
  100CL  111 5.75000E-01         621                     0   11           1
 -4  STRESS      6    1
 -5  SXX         1    4    1    1
 -5  SYY         1    4    2    2
 -5  SZZ         1    4    3    3
 -5  SXY         1    4    1    2
 -5  SYZ         1    4    2    3
 -5  SZX         1    4    3    1
 -1         1 8.96735E-01-1.48252E+04-2.41200E+06 2.23676E+00-3.49349E+03 7.13857E-01
 -1         2-7.24922E-01-2.27611E+04-4.56632E+04-3.86386E-01 1.02270E+04-1.59954E+00
 -1         3-1.57761E-01-2.79901E+04-4.20951E+04-9.46744E-02 1.85676E+04-1.62739E-01
 -1         4 3.14426E-02-4.92476E+04-2.14954E+06 1.69251E-01-3.51096E+05 6.76012E-02
 -1         5 8.96735E-01-1.48286E+04-2.41200E+06 6.36278E-08-3.49538E+03-2.82398E-06
 -1         6-7.24922E-01-2.27619E+04-4.56620E+04 6.12093E-08 1.02278E+04-4.75152E-08
 -1         7-1.55395E-01-2.79899E+04-4.20942E+04-2.17269E-07 1.85682E+04-8.48330E-08
 -1         8 3.14202E-02-4.92481E+04-2.14954E+06-9.69497E-07-3.51096E+05-5.80438E-06
 -1         9 8.49473E-02-1.87519E+04-1.22855E+06 1.00082E+00 4.16605E+03-4.42098E-01
 -1        10 7.27966E-02-2.33458E+04-4.26405E+04 3.32045E-02 1.41567E+04 5.53264E-02
 -1        11-6.33037E-02-3.86586E+04-1.09567E+06 7.84350E-02-1.66510E+05-6.14147E-02
 -1        12-3.56552E-03-2.89212E+04-2.28397E+06-6.39203E-02-1.76346E+05-3.29841E-02
 -1        13 8.96735E-01-1.48269E+04-2.41200E+06 1.95307E+00-3.49443E+03 6.44893E-01
 -1        14-7.24922E-01-2.27615E+04-4.56626E+04-5.72310E-01 1.02274E+04-1.52251E+00
 -1        15-1.56578E-01-2.79900E+04-4.20946E+04-5.35249E-02 1.85679E+04-5.80540E-02
 -1        16 3.14314E-02-4.92479E+04-2.14954E+06 1.12622E-01-3.51096E+05 3.60893E-03
 -1        17 8.49475E-02-1.87552E+04-1.22854E+06 4.78557E-08 4.16463E+03-1.43937E-06
 -1        18 7.39793E-02-2.33458E+04-4.26411E+04-5.83298E-08 1.41564E+04-9.28542E-08
 -1        19-6.21233E-02-3.86588E+04-1.09567E+06-5.10305E-07-1.66510E+05-2.61060E-06
 -1        20-3.57645E-03-2.89211E+04-2.28397E+06-4.52782E-07-1.76346E+05-4.22140E-06
 -1        21-1.90561E-01-1.33153E+04-3.72694E+04-1.72457E-01 1.29694E+04-2.56562E-01
 -1        22 8.17293E-02-1.79317E+05-1.82228E+06 2.67272E-01-5.73883E+05 7.85099E-02
 -1        23-1.89694E-01-1.33150E+04-3.72687E+04-1.47468E-07 1.29701E+04-1.99505E-08
 -1        24 8.01597E-02-1.79318E+05-1.82228E+06-1.50767E-06-5.73884E+05-5.18066E-06
 -1        25 8.53404E-02-2.01903E+04-3.97172E+04 6.36138E-02 1.55222E+04 1.05665E-01
 -1        26-5.45964E-02-9.63467E+04-9.29688E+05 9.48253E-02-2.80551E+05-1.17067E-01
 -1        27-2.79774E-02-1.14404E+05-1.98493E+06-1.07013E-01-4.64538E+05-3.56669E-02
 -1        28-1.90128E-01-1.33152E+04-3.72690E+04-8.95013E-02 1.29697E+04-1.15016E-01
 -1        29 8.09445E-02-1.79318E+05-1.82228E+06 1.72767E-01-5.73883E+05 1.86086E-02
 -1        30 8.69567E-02-2.01905E+04-3.97176E+04-2.08541E-07 1.55218E+04-6.65397E-08
 -1        31-5.49408E-02-9.63470E+04-9.29688E+05-7.58911E-07-2.80551E+05-2.42812E-06
 -1        32-2.87735E-02-1.14403E+05-1.98493E+06-1.18931E-06-4.64538E+05-5.53832E-06
 -1        33-2.33923E-01-7.02248E+03-3.32936E+04-2.79425E-01 1.06328E+04-3.32219E-01
 -1        34 1.46500E-01-3.20049E+05-1.48526E+06 3.97630E-01-6.92429E+05 9.95068E-02
 -1        35-2.33907E-01-7.02199E+03-3.32932E+04 2.45108E-07 1.06336E+04 8.18738E-09
 -1        36 1.43685E-01-3.20050E+05-1.48526E+06-2.58120E-06-6.92430E+05-5.08539E-06
 -1        37 1.05906E-01-1.02870E+04-3.53198E+04 1.10407E-01 1.14605E+04 1.48562E-01
 -1        38-4.38632E-02-1.63564E+05-7.59225E+05 1.16666E-01-3.40906E+05-1.63418E-01
 -1        39-5.44421E-02-2.50505E+05-1.65246E+06-1.62754E-01-6.34061E+05-4.36582E-02
 -1        40-2.33915E-01-7.02224E+03-3.32934E+04-1.34108E-01 1.06332E+04-1.54729E-01
 -1        41 1.45092E-01-3.20050E+05-1.48526E+06 2.55714E-01-6.92429E+05 3.96840E-02
 -1        42 1.06347E-01-1.02872E+04-3.53201E+04-4.81136E-08 1.14601E+04-3.08813E-08
 -1        43-4.52553E-02-1.63565E+05-7.59224E+05-1.10016E-06-3.40906E+05-2.36035E-06
 -1        44-5.66342E-02-2.50504E+05-1.65246E+06-1.95023E-06-6.34061E+05-5.18563E-06
 -1        45-2.75305E-01-1.07820E+03-2.89485E+04-4.05869E-01 7.47368E+03-3.80725E-01
 -1        46 2.48333E-01-4.46989E+05-1.17451E+06 5.77420E-01-7.25970E+05 1.34129E-01
 -1        47-2.76949E-01-1.07764E+03-2.89483E+04-2.10890E-07 7.47442E+03 7.07924E-08
 -1        48 2.43687E-01-4.46991E+05-1.17451E+06-3.00005E-06-7.25971E+05-4.61142E-06
 -1        49 1.28970E-01-4.43839E+03-3.12345E+04 1.69672E-01 8.85563E+03 1.80429E-01
 -1        50-1.36122E-02-2.24046E+05-6.01700E+05 1.57290E-01-3.59240E+05-1.97149E-01
 -1        51-9.34286E-02-3.84393E+05-1.32865E+06-2.38345E-01-7.09327E+05-5.69151E-02
 -1        52-2.76127E-01-1.07792E+03-2.89484E+04-1.78437E-01 7.47405E+03-1.71309E-01
 -1        53 2.46010E-01-4.46990E+05-1.17451E+06 3.69121E-01-7.25970E+05 6.83805E-02
 -1        54 1.28157E-01-4.43866E+03-3.12346E+04 1.70634E-07 8.85525E+03-8.43860E-09
 -1        55-1.67498E-02-2.24047E+05-6.01700E+05-1.31799E-06-3.59240E+05-2.21091E-06
 -1        56-9.71588E-02-3.84392E+05-1.32865E+06-2.87506E-06-7.09327E+05-4.86872E-06
 -1        57-2.95624E-01 2.86501E+03-2.48612E+04-5.34943E-01 4.99695E+03-3.88361E-01
 -1        58 4.17086E-01-5.42161E+05-9.06873E+05 8.32311E-01-7.02175E+05 1.92498E-01
 -1        59-2.99692E-01 2.86551E+03-2.48614E+04 3.80533E-08 4.99760E+03 4.19514E-08
 -1        60 4.09855E-01-5.42163E+05-9.06873E+05-2.73702E-06-7.02176E+05-3.90390E-06
 -1        61 1.47494E-01 4.18780E+02-2.69672E+04 2.35463E-01 6.18555E+03 1.95742E-01
 -1        62 6.06780E-02-2.69654E+05-4.65854E+05 2.37634E-01-3.48581E+05-2.09092E-01
 -1        63-1.57358E-01-4.95239E+05-1.03991E+06-3.43940E-01-7.13779E+05-7.89085E-02
 -1        64-2.97658E-01 2.86526E+03-2.48613E+04-2.08988E-01 4.99727E+03-1.56493E-01
 -1        65 4.13470E-01-5.42162E+05-9.06873E+05 5.23535E-01-7.02175E+05 1.09726E-01
 -1        66 1.44638E-01 4.18498E+02-2.69672E+04-7.33641E-09 6.18520E+03 3.01217E-08
 -1        67 5.50354E-02-2.69655E+05-4.65854E+05-1.50958E-06-3.48581E+05-1.86224E-06
 -1        68-1.63296E-01-4.95238E+05-1.03991E+06-3.11673E-06-7.13779E+05-4.17391E-06
 -1        69-2.63424E-01 5.72593E+03-2.09974E+04-6.36663E-01 2.94863E+03-3.35422E-01
 -1        70 6.96043E-01-6.01718E+05-6.87527E+05 1.20167E+00-6.43786E+05 2.91064E-01
 -1        71-2.71114E-01 5.72616E+03-2.09979E+04-6.90011E-07 2.94905E+03 2.25629E-07
 -1        72 6.85085E-01-6.01721E+05-6.87527E+05-3.49357E-06-6.43787E+05-2.64393E-06
 -1        73 1.49305E-01 3.86200E+03-2.29830E+04 2.96670E-01 4.03774E+03 1.86191E-01
 -1        74 2.16403E-01-2.98001E+05-3.54253E+05 3.92074E-01-3.20414E+05-1.84034E-01
 -1        75-2.63973E-01-5.72362E+05-7.96827E+05-4.95202E-01-6.72551E+05-1.16216E-01
 -1        76-2.67269E-01 5.72605E+03-2.09977E+04-2.05985E-01 2.94884E+03-9.90777E-02
 -1        77 6.90564E-01-6.01719E+05-6.87527E+05 7.33300E-01-6.43786E+05 1.71988E-01
 -1        78 1.43426E-01 3.86179E+03-2.29829E+04-9.12987E-07 4.03746E+03 1.32971E-07
 -1        79 2.07086E-01-2.98002E+05-3.54253E+05-1.82575E-06-3.20414E+05-1.24798E-06
 -1        80-2.73067E-01-5.72361E+05-7.96827E+05-3.05690E-06-6.72550E+05-3.19457E-06
 -1        81-1.29506E-01 7.70031E+03-1.75237E+04-6.61800E-01 1.40984E+03-1.95713E-01
 -1        82 1.14832E+00-6.27932E+05-5.13979E+05 1.74293E+00-5.68474E+05 4.52788E-01
 -1        83-1.42282E-01 7.69995E+03-1.75248E+04-5.76069E-08 1.40989E+03 1.97882E-08
 -1        84 1.13219E+00-6.27935E+05-5.13980E+05-2.33726E-06-5.68475E+05-3.04614E-06
 -1        85 1.14912E-01 6.36589E+03-1.93221E+04 3.34243E-01 2.30774E+03 1.40326E-01
 -1        86 5.09736E-01-3.10121E+05-2.65742E+05 6.73697E-01-2.83530E+05-1.00378E-01
 -1        87-4.39236E-01-6.15055E+05-6.00672E+05-7.15780E-01-6.05716E+05-1.78592E-01
 -1        88-1.35894E-01 7.70013E+03-1.75242E+04-1.41920E-01 1.40986E+03 1.51153E-02
 -1        89 1.14025E+00-6.27933E+05-5.13980E+05 1.01566E+00-5.68475E+05 2.66180E-01
 -1        90 1.04679E-01 6.36589E+03-1.93217E+04-4.93301E-07 2.30762E+03-1.22768E-07
 -1        91 4.95290E-01-3.10123E+05-2.65743E+05-1.88461E-06-2.83530E+05-1.78223E-06
 -1        92-4.52779E-01-6.15053E+05-6.00672E+05-1.97566E-06-6.05716E+05-2.74174E-06
 -1        93 1.79646E-01 9.07769E+03-1.44793E+04-5.34799E-01 2.87383E+02 6.33415E-02
 -1        94 1.86326E+00-6.26415E+05-3.80229E+05 2.53578E+00-4.88250E+05 7.07523E-01
 -1        95 1.60021E-01 9.07630E+03-1.44810E+04 1.64231E-07 2.86857E+02 7.14489E-07
 -1        96 1.84041E+00-6.26419E+05-3.80230E+05 6.74313E-07-4.88251E+05-2.00001E-06
 -1        97 1.42736E-02 8.13268E+03-1.60778E+04 3.17993E-01 9.99175E+02 4.34121E-02
 -1        98 1.02221E+00-3.08674E+05-1.97345E+05 1.15989E+00-2.43980E+05 7.01152E-02
 -1        99-7.20860E-01-6.27277E+05-4.47195E+05-1.03907E+00-5.28026E+05-2.79093E-01
 -1       100 1.69834E-01 9.07700E+03-1.44802E+04 1.85411E-02 2.87120E+02 2.02583E-01
 -1       101 1.85184E+00-6.26417E+05-3.80230E+05 1.38701E+00-4.88250E+05 4.05577E-01
 -1       102-1.92657E-03 8.13308E+03-1.60771E+04 3.87763E-07 9.99289E+02 1.81074E-07
 -1       103 1.00097E+00-3.08677E+05-1.97346E+05-2.81822E-07-2.43981E+05-5.73904E-07
 -1       104-7.40348E-01-6.27275E+05-4.47194E+05-9.95818E-07-5.28025E+05-2.48463E-06
 -1       105 7.67201E-01 1.00343E+04-1.18785E+04-1.50230E-01-4.94680E+02 4.79618E-01
 -1       106 2.96278E+00-6.03584E+05-2.79129E+05 3.67907E+00-4.10571E+05 1.09207E+00
 -1       107 7.39579E-01 1.00313E+04-1.18808E+04 5.16653E-07-4.95979E+02-7.59283E-07
 -1       108 2.93192E+00-6.03588E+05-2.79129E+05-2.99323E-06-4.10573E+05-1.21239E-06
 -1       109-1.96618E-01 9.37604E+03-1.32663E+04 2.02955E-01 4.31751E+01-1.22283E-01
 -1       110 1.86619E+00-2.96781E+05-1.45495E+05 1.95252E+00-2.05532E+05 3.62129E-01
 -1       111-1.16132E+00-6.15030E+05-3.29852E+05-1.51036E+00-4.49163E+05-4.34254E-01
 -1       112 7.53390E-01 1.00328E+04-1.18796E+04 3.15182E-01-4.95329E+02 4.80829E-01
 -1       113 2.94735E+00-6.03586E+05-2.79129E+05 1.85417E+00-4.10572E+05 6.04491E-01
 -1       114-2.20242E-01 9.37708E+03-1.32653E+04-8.33075E-07 4.36267E+01-5.58179E-07
 -1       115 1.83696E+00-2.96784E+05-1.45496E+05-1.00292E-06-2.05534E+05-8.81628E-07
 -1       116-1.18818E+00-6.15028E+05-3.29851E+05-1.06320E-06-4.49162E+05-1.37022E-06
 -1       117 1.76909E+00 1.07025E+04-9.69785E+03 6.32919E-01-1.01873E+03 1.09300E+00
 -1       118 4.59901E+00-5.65447E+05-2.03787E+05 5.29455E+00-3.39504E+05 1.65018E+00
 -1       119 1.73201E+00 1.06974E+04-9.70092E+03-5.99030E-07-1.02098E+03-8.62935E-07
 -1       120 4.56025E+00-5.65451E+05-2.03788E+05-3.91668E-06-3.39505E+05-4.47812E-07
 -1       121-5.77577E-01 1.02460E+04-1.08803E+04-7.01870E-02-6.26122E+02-3.76621E-01
 -1       122 3.18649E+00-2.77378E+05-1.06735E+05 3.18221E+00-1.70260E+05 8.16302E-01
 -1       123-1.83091E+00-5.84510E+05-2.41657E+05-2.18118E+00-3.74868E+05-6.63977E-01
 -1       124 1.75055E+00 1.07000E+04-9.69938E+03 7.83369E-01-1.01986E+03 8.64447E-01
 -1       125 4.57963E+00-5.65449E+05-2.03787E+05 2.39614E+00-3.39505E+05 8.77014E-01
 -1       126-6.09929E-01 1.02480E+04-1.08790E+04 1.21655E-06-6.25233E+02-7.36382E-10
 -1       127 3.14857E+00-2.77382E+05-1.06736E+05-2.20191E-06-1.70263E+05-5.32151E-07
 -1       128-1.86572E+00-5.84508E+05-2.41656E+05-4.42851E-06-3.74867E+05-1.44102E-06
 -1       129 3.34241E+00 1.11716E+04-7.89835E+03 1.95887E+00-1.35344E+03 1.94088E+00
 -1       130 6.95490E+00-5.17028E+05-1.48198E+05 7.45822E+00-2.76820E+05 2.42738E+00
 -1       131 3.30192E+00 1.11642E+04-7.90213E+03-2.35422E-07-1.35675E+03 2.07492E-06
 -1       132 6.91139E+00-5.17029E+05-1.48200E+05-3.08908E-06-2.76822E+05-3.63497E-06
 -1       133-1.20594E+00 1.08554E+04-8.88913E+03-5.80549E-01-1.07527E+03-7.39070E-01
 -1       134 5.15066E+00-2.52933E+05-7.80423E+04 4.95839E+00-1.39086E+05 1.47470E+00
 -1       135-2.81344E+00-5.41218E+05-1.76187E+05-3.11765E+00-3.08053E+05-9.91217E-01
 -1       136 3.32217E+00 1.11679E+04-7.90024E+03 1.43143E+00-1.35510E+03 1.36317E+00
 -1       137 6.93314E+00-5.17028E+05-1.48199E+05 2.93241E+00-2.76821E+05 1.23024E+00
 -1       138-1.24473E+00 1.08585E+04-8.88742E+03-2.09274E-07-1.07387E+03 7.68775E-07
 -1       139 5.10865E+00-2.52937E+05-7.80446E+04-2.08188E-06-1.39089E+05-7.82937E-07
 -1       140-2.85457E+00-5.41216E+05-1.76187E+05-3.45224E-06-3.08052E+05-1.90151E-06
 -1       141 5.65092E+00 1.15032E+04-6.43292E+03 4.01537E+00-1.55487E+03 3.04065E+00
 -1       142 1.01758E+01-4.62224E+05-1.07443E+05 1.03114E+01-2.22849E+05 3.47575E+00
 -1       143 5.60225E+00 1.14938E+04-6.43737E+03 2.27114E-06-1.55915E+03 5.58060E-07
 -1       144 1.01355E+01-4.62219E+05-1.07445E+05-2.39351E-06-2.22851E+05 5.49776E-07
 -1       145-2.16159E+00 1.12838E+04-7.25189E+03-1.38850E+00-1.36139E+03-1.22655E+00
 -1       146 7.92244E+00-2.25365E+05-5.69338E+04 7.44213E+00-1.12200E+05 2.38161E+00
 -1       147-4.20702E+00-4.89603E+05-1.27997E+05-4.32337E+00-2.49769E+05-1.43793E+00
 -1       148 5.62659E+00 1.14985E+04-6.43515E+03 2.20801E+00-1.55701E+03 1.96033E+00
 -1       149 1.01556E+01-4.62222E+05-1.07444E+05 3.25963E+00-2.22850E+05 1.66772E+00
 -1       150-2.20617E+00 1.12880E+04-7.24982E+03 6.94519E-07-1.35946E+03 5.32290E-07
 -1       151 7.87794E+00-2.25366E+05-5.69366E+04 3.58518E-07-1.12205E+05 7.85945E-07
 -1       152-4.24893E+00-4.89604E+05-1.27996E+05-3.15279E-06-2.49769E+05-2.03090E-06
 -1       153 8.75503E+00 1.17386E+04-5.25379E+03 6.67997E+00-1.66611E+03 4.39489E+00
 -1       154 1.44196E+01-4.03882E+05-7.76441E+04 1.33284E+01-1.77084E+05 4.79502E+00
 -1       155 8.75948E+00 1.17291E+04-5.25868E+03-2.66909E-06-1.67099E+03 9.28017E-07
 -1       156 1.44132E+01-4.03864E+05-7.76459E+04-5.93422E-06-1.77085E+05-1.47267E-06
 -1       157-3.53322E+00 1.15865E+04-5.92394E+03-2.61257E+00-1.53123E+03-1.83797E+00
 -1       158 1.15780E+01-1.96076E+05-4.14468E+04 1.03080E+01-8.93730E+04 3.54461E+00
 -1       159-6.06956E+00-4.33031E+05-9.26955E+04-5.92187E+00-1.99930E+05-2.03044E+00
 -1       160 8.75726E+00 1.17339E+04-5.25624E+03 2.91137E+00-1.66855E+03 2.64523E+00
 -1       161 1.44164E+01-4.03873E+05-7.76450E+04 2.97474E+00-1.77085E+05 2.13708E+00
 -1       162-3.55533E+00 1.15914E+04-5.92157E+03-7.51445E-07-1.52890E+03 1.70168E-06
 -1       163 1.15770E+01-1.96070E+05-4.14501E+04-2.46657E-06-8.93781E+04-1.30174E-07
 -1       164-6.09294E+00-4.33036E+05-9.26947E+04-4.06059E-06-1.99929E+05 1.91350E-06
 -1       165 1.26241E+01 1.19071E+04-4.31649E+03 1.03830E+01-1.71978E+03 5.85703E+00
 -1       166 1.92970E+01-3.43958E+05-5.58293E+04 1.74581E+01-1.38590E+05 6.49241E+00
 -1       167 1.25751E+01 1.19021E+04-4.32156E+03 3.24025E-06-1.72409E+03-9.68925E-07
 -1       168 1.93111E+01-3.43915E+05-5.58309E+04-6.35928E-06-1.38588E+05-6.88378E-07
 -1       169-5.27921E+00 1.18019E+04-4.86198E+03-3.99876E+00-1.62145E+03-2.57436E+00
 -1       170 1.60286E+01-1.66031E+05-3.00721E+04 1.42326E+01-7.01505E+04 5.01194E+00
 -1       171-8.46723E+00-3.73895E+05-6.68653E+04-7.25477E+00-1.57814E+05-2.74497E+00
 -1       172 1.25996E+01 1.19046E+04-4.31902E+03 3.15141E+00-1.72193E+03 3.21724E+00
 -1       173 1.93040E+01-3.43937E+05-5.58301E+04 1.25028E+00-1.38589E+05 2.65789E+00
 -1       174-5.30146E+00 1.18058E+04-4.85949E+03 2.99285E-06-1.61899E+03 5.75663E-07
 -1       175 1.60110E+01-1.66009E+05-3.00760E+04 3.96890E-07-7.01554E+04 3.55440E-07
 -1       176-8.46344E+00-3.73909E+05-6.68643E+04-4.55316E-06-1.57814E+05-3.62877E-06
 -1       177 1.64368E+01 1.20296E+04-3.58059E+03 1.21275E+01-1.73746E+03 7.45600E+00
 -1       178 2.50294E+01-2.83712E+05-3.97559E+04 1.60316E+01-1.06244E+05 7.97692E+00
 -1       179 1.68681E+01 1.20386E+04-3.58491E+03 2.45582E-07-1.73976E+03 6.56850E-07
 -1       180 2.54016E+01-2.83621E+05-3.97577E+04 1.18279E-06-1.06238E+05-2.11842E-06
 -1       181-7.46126E+00 1.19546E+04-4.02664E+03-6.20699E+00-1.65919E+03-3.28420E+00
 -1       182 2.05306E+01-1.35847E+05-2.16693E+04 1.43709E+01-5.39843E+04 6.44493E+00
 -1       183-1.10735E+01-3.13791E+05-4.79015E+04-9.86473E+00-1.22393E+05-3.68772E+00
 -1       184 1.66524E+01 1.20341E+04-3.58275E+03 1.92195E+00-1.73861E+03 3.89324E+00
 -1       185 2.52155E+01-2.83667E+05-3.97568E+04-3.13934E+00-1.06241E+05 2.72387E+00
 -1       186-7.27010E+00 1.19544E+04-4.02414E+03 6.77212E-07-1.65752E+03-2.65952E-07
 -1       187 2.09324E+01-1.35794E+05-2.16728E+04 1.43113E-07-5.39872E+04 2.68653E-07
 -1       188-1.08803E+01-3.13822E+05-4.79010E+04-4.92649E-06-1.22396E+05-1.61330E-06
 -1       189 1.95745E+01 1.21310E+04-3.01778E+03 1.87229E+01-1.73852E+03 7.81091E+00
 -1       190 2.72399E+01-2.23853E+05-2.77589E+04 2.69763E+01-7.89109E+04 1.09133E+01
 -1       191 1.91017E+01 1.21696E+04-3.02108E+03 2.24958E-06-1.73336E+03-9.20257E-08
 -1       192 2.68652E+01-2.23689E+05-2.77576E+04-3.56796E-06-7.88877E+04-2.46239E-06
 -1       193-9.00051E+00 1.20613E+04-3.38445E+03-5.55495E+00-1.66759E+03-4.14584E+00
 -1       194 2.42208E+01-1.05879E+05-1.53837E+04 2.31169E+01-4.03013E+04 8.48525E+00
 -1       195-1.39506E+01-2.53682E+05-3.38508E+04-5.63397E+00-9.25367E+04-4.21807E+00
 -1       196 1.93381E+01 1.21503E+04-3.01943E+03-1.78129E+00-1.73594E+03 2.87834E+00
 -1       197 2.70526E+01-2.23771E+05-2.77582E+04-1.31249E+01-7.88993E+04 3.37642E+00
 -1       198-9.02122E+00 1.20503E+04-3.38266E+03-7.61657E-07-1.66736E+03-2.26262E-07
 -1       199 2.37967E+01-1.05769E+05-1.53892E+04-4.02917E-07-4.02987E+04-1.27662E-06
 -1       200-1.39520E+01-2.53746E+05-3.38499E+04-7.99685E-07-9.25403E+04-1.94628E-06
 -1       201 1.68547E+01 1.22245E+04-2.59000E+03-4.26511E+00-1.70918E+03 9.62354E+00
 -1       202 3.24224E+01-1.64792E+05-1.85667E+04-3.04252E+01-5.53917E+04 6.82116E+00
 -1       203 2.02956E+01 1.23254E+04-2.58957E+03 2.38694E-06-1.69783E+03 5.38897E-07
 -1       204 3.69542E+01-1.64477E+05-1.85678E+04-5.71513E-06-5.53777E+04 1.81396E-06
 -1       205-1.10584E+01 1.21220E+04-2.90413E+03-1.24763E+01-1.65521E+03-3.57186E+00
 -1       206 2.17203E+01-7.62908E+04-1.05830E+04-1.75307E+01-2.85385E+04 7.14707E+00
 -1       207-1.44365E+01-1.94087E+05-2.32449E+04-2.00416E+01-6.70765E+04-6.41590E+00
 -1       208 1.85752E+01 1.22750E+04-2.58979E+03-1.23597E+01-1.70351E+03 5.12772E+00
 -1       209 3.46883E+01-1.64635E+05-1.85673E+04-3.02131E+01-5.53847E+04-9.76079E-01
 -1       210-9.57448E+00 1.20908E+04-2.90296E+03 2.31548E-06-1.66115E+03-9.47756E-07
 -1       211 2.57071E+01-7.60842E+04-1.05785E+04-1.63925E-07-2.85259E+04 1.57134E-06
 -1       212-1.23572E+01-1.94194E+05-2.32470E+04-3.57458E-06-6.70981E+04 5.56382E-07
 -1       213 8.48127E+00 1.24040E+04-2.35334E+03 5.23726E+01-1.71275E+03-2.21030E+00
 -1       214 2.33825E+00-1.06434E+05-1.13275E+04 1.20206E+02-3.49069E+04 2.57476E+01
 -1       215 2.35815E+00 1.25942E+04-2.34593E+03-9.03438E-06-1.66010E+03-1.33265E-06
 -1       216-1.15746E+01-1.05977E+05-1.13158E+04 9.29518E-06-3.47573E+04 6.18219E-06
 -1       217-4.63154E+00 1.21516E+04-2.56867E+03 1.79416E+01-1.66785E+03-5.96450E+00
 -1       218 1.64069E+01-4.71244E+04-6.77369E+03 8.71901E+01-1.81512E+04 1.41816E+01
 -1       219-1.50658E+01-1.35075E+05-1.50075E+04 5.12674E+01-4.50398E+04-4.06771E-01
 -1       220 5.41971E+00 1.24991E+04-2.34964E+03-2.72496E+01-1.68643E+03-1.06042E+01
 -1       221-4.61820E+00-1.06206E+05-1.13216E+04-6.87089E+01-3.48321E+04 8.19462E+00
 -1       222-5.97195E+00 1.20764E+04-2.56946E+03-2.23738E-06-1.67452E+03 9.30158E-07
 -1       223 6.38794E+00-4.67556E+04-6.80230E+03-1.39312E-06-1.81144E+04 2.27390E-06
 -1       224-1.97590E+01-1.35293E+05-1.50068E+04 6.79999E-08-4.50312E+04 4.10174E-06
 -1       225-2.62871E+01 1.25483E+04-2.08586E+03-2.47169E+02-1.45596E+03 2.10558E+01
 -1       226 3.72411E+01-4.94927E+04-5.04678E+03-5.93804E+02-1.53482E+04-5.95876E+01
 -1       227-3.66343E+00 1.29567E+04-2.09447E+03 1.66814E-06-1.44447E+03-2.08861E-06
 -1       228 1.05668E+02-4.84581E+04-5.02882E+03-4.59457E-06-1.55416E+04-1.88858E-06
 -1       229-8.67257E+00 1.20562E+04-2.31004E+03-6.84428E+01-1.61044E+03 8.78332E+00
 -1       230-3.53884E+01-1.83270E+04-3.67821E+03-4.26874E+02-8.60053E+03-2.11603E+01
 -1       231 6.15730E-01-7.68117E+04-8.22078E+03-1.65131E+02-2.49849E+04-2.37348E+01
 -1       232-1.49753E+01 1.27525E+04-2.09017E+03-7.63633E+01-1.45022E+03 3.07271E+01
 -1       233 7.14544E+01-4.89754E+04-5.03780E+03-1.04644E+02-1.54449E+04-4.47775E+01
 -1       234-4.24869E-01 1.19324E+04-2.31988E+03-2.59545E-06-1.65657E+03-7.39919E-07
 -1       235 1.01374E+01-1.77143E+04-3.56430E+03-2.05121E-06-8.54250E+03-1.85409E-06
 -1       236 2.78824E+01-7.70611E+04-8.22729E+03 9.21600E-07-2.51570E+04-3.62884E-07
 -1       237-1.32691E+02 1.02191E+04-2.75659E+03 7.71591E+02-2.15632E+03-2.05456E+02
 -1       238-5.24773E+02 1.74972E+04 3.50910E+02 1.93448E+03 9.93926E+02 3.75364E+01
 -1       239-1.71979E+02 7.76796E+03-2.61743E+03 6.41659E-06-2.32214E+03 2.55933E-06
 -1       240-7.92974E+02 1.03053E+04 2.34134E+02-8.09116E-07 1.45083E+03 2.51507E-07
 -1       241 5.28540E+01 1.20731E+04-2.25380E+03 3.19216E+02-1.93238E+03-3.09699E+01
 -1       242-1.75070E+02 1.36301E+04-8.11069E+02 1.39623E+03-2.37681E+02-5.53390E+01
 -1       243 5.59574E+00-1.80128E+04-2.42056E+03 7.49478E+02-7.56034E+03 8.05410E+01
 -1       244-1.52335E+02 8.99355E+03-2.68701E+03 3.88369E+02-2.23923E+03-1.72468E+02
 -1       245-6.58874E+02 1.39012E+04 2.92522E+02 6.53773E+02 1.22238E+03 1.09961E+02
 -1       246 4.45238E+01 1.17788E+04-2.22259E+03 3.06527E-06-1.90418E+03-9.08177E-07
 -1       247-3.28815E+02 9.08619E+03-1.17493E+03 1.05518E-06-4.97565E+02-7.00665E-07
 -1       248-9.42994E+01-1.88317E+04-2.45895E+03 2.23747E-07-7.15953E+03 1.19042E-06
 -1       249 8.96734E-01-1.48252E+04-2.41200E+06-2.23676E+00-3.49349E+03-7.13862E-01
 -1       250-7.24922E-01-2.27611E+04-4.56632E+04 3.86386E-01 1.02270E+04 1.59954E+00
 -1       251-1.57761E-01-2.79901E+04-4.20951E+04 9.46744E-02 1.85676E+04 1.62739E-01
 -1       252 3.14426E-02-4.92476E+04-2.14954E+06-1.69251E-01-3.51096E+05-6.76045E-02
 -1       253 8.96735E-01-1.48269E+04-2.41200E+06-1.95307E+00-3.49443E+03-6.44899E-01
 -1       254-7.24922E-01-2.27615E+04-4.56626E+04 5.72310E-01 1.02274E+04 1.52251E+00
 -1       255-1.56578E-01-2.79900E+04-4.20946E+04 5.35247E-02 1.85679E+04 5.80538E-02
 -1       256 3.14314E-02-4.92479E+04-2.14954E+06-1.12624E-01-3.51096E+05-3.61639E-03
 -1       257 8.49474E-02-1.87519E+04-1.22855E+06-1.00082E+00 4.16605E+03 4.42096E-01
 -1       258 7.27966E-02-2.33458E+04-4.26405E+04-3.32045E-02 1.41567E+04-5.53265E-02
 -1       259-6.33037E-02-3.86586E+04-1.09567E+06-7.84352E-02-1.66510E+05 6.14136E-02
 -1       260-3.56557E-03-2.89212E+04-2.28397E+06 6.39200E-02-1.76346E+05 3.29798E-02
 -1       261-1.90561E-01-1.33153E+04-3.72694E+04 1.72456E-01 1.29694E+04 2.56562E-01
 -1       262 8.17293E-02-1.79317E+05-1.82228E+06-2.67274E-01-5.73883E+05-7.85160E-02
 -1       263-1.90128E-01-1.33152E+04-3.72690E+04 8.95011E-02 1.29697E+04 1.15015E-01
 -1       264 8.09445E-02-1.79318E+05-1.82228E+06-1.72770E-01-5.73883E+05-1.86168E-02
 -1       265 8.53404E-02-2.01903E+04-3.97172E+04-6.36138E-02 1.55222E+04-1.05665E-01
 -1       266-5.45963E-02-9.63467E+04-9.29688E+05-9.48263E-02-2.80551E+05 1.17064E-01
 -1       267-2.79774E-02-1.14404E+05-1.98493E+06 1.07011E-01-4.64538E+05 3.56621E-02
 -1       268-2.33922E-01-7.02248E+03-3.32936E+04 2.79425E-01 1.06328E+04 3.32219E-01
 -1       269 1.46500E-01-3.20049E+05-1.48526E+06-3.97633E-01-6.92429E+05-9.95133E-02
 -1       270-2.33915E-01-7.02224E+03-3.32934E+04 1.34109E-01 1.06332E+04 1.54728E-01
 -1       271 1.45092E-01-3.20050E+05-1.48526E+06-2.55718E-01-6.92429E+05-3.96924E-02
 -1       272 1.05906E-01-1.02870E+04-3.53198E+04-1.10407E-01 1.14605E+04-1.48562E-01
 -1       273-4.38631E-02-1.63564E+05-7.59225E+05-1.16668E-01-3.40906E+05 1.63415E-01
 -1       274-5.44420E-02-2.50505E+05-1.65246E+06 1.62752E-01-6.34061E+05 4.36520E-02
 -1       275-2.75305E-01-1.07820E+03-2.89485E+04 4.05869E-01 7.47368E+03 3.80725E-01
 -1       276 2.48333E-01-4.46989E+05-1.17451E+06-5.77423E-01-7.25970E+05-1.34135E-01
 -1       277-2.76127E-01-1.07792E+03-2.89484E+04 1.78437E-01 7.47405E+03 1.71309E-01
 -1       278 2.46010E-01-4.46990E+05-1.17451E+06-3.69126E-01-7.25970E+05-6.83882E-02
 -1       279 1.28971E-01-4.43839E+03-3.12345E+04-1.69672E-01 8.85563E+03-1.80429E-01
 -1       280-1.36122E-02-2.24046E+05-6.01700E+05-1.57292E-01-3.59240E+05 1.97146E-01
 -1       281-9.34287E-02-3.84393E+05-1.32865E+06 2.38342E-01-7.09327E+05 5.69088E-02
 -1       282-2.95624E-01 2.86501E+03-2.48612E+04 5.34944E-01 4.99695E+03 3.88361E-01
 -1       283 4.17086E-01-5.42161E+05-9.06873E+05-8.32316E-01-7.02175E+05-1.92504E-01
 -1       284-2.97658E-01 2.86526E+03-2.48613E+04 2.08988E-01 4.99727E+03 1.56493E-01
 -1       285 4.13470E-01-5.42162E+05-9.06873E+05-5.23540E-01-7.02175E+05-1.09733E-01
 -1       286 1.47494E-01 4.18780E+02-2.69672E+04-2.35463E-01 6.18555E+03-1.95742E-01
 -1       287 6.06780E-02-2.69654E+05-4.65854E+05-2.37636E-01-3.48581E+05 2.09089E-01
 -1       288-1.57358E-01-4.95239E+05-1.03991E+06 3.43937E-01-7.13779E+05 7.89021E-02
 -1       289-2.63424E-01 5.72593E+03-2.09974E+04 6.36664E-01 2.94863E+03 3.35421E-01
 -1       290 6.96043E-01-6.01718E+05-6.87527E+05-1.20167E+00-6.43786E+05-2.91069E-01
 -1       291-2.67269E-01 5.72605E+03-2.09977E+04 2.05985E-01 2.94884E+03 9.90776E-02
 -1       292 6.90564E-01-6.01719E+05-6.87527E+05-7.33305E-01-6.43786E+05-1.71994E-01
 -1       293 1.49305E-01 3.86200E+03-2.29830E+04-2.96669E-01 4.03774E+03-1.86191E-01
 -1       294 2.16403E-01-2.98001E+05-3.54253E+05-3.92076E-01-3.20414E+05 1.84032E-01
 -1       295-2.63973E-01-5.72362E+05-7.96827E+05 4.95197E-01-6.72551E+05 1.16210E-01
 -1       296-1.29506E-01 7.70031E+03-1.75237E+04 6.61800E-01 1.40984E+03 1.95713E-01
 -1       297 1.14832E+00-6.27932E+05-5.13979E+05-1.74294E+00-5.68474E+05-4.52792E-01
 -1       298-1.35894E-01 7.70013E+03-1.75242E+04 1.41920E-01 1.40986E+03-1.51153E-02
 -1       299 1.14025E+00-6.27933E+05-5.13980E+05-1.01567E+00-5.68475E+05-2.66185E-01
 -1       300 1.14912E-01 6.36589E+03-1.93221E+04-3.34242E-01 2.30774E+03-1.40326E-01
 -1       301 5.09736E-01-3.10121E+05-2.65742E+05-6.73701E-01-2.83530E+05 1.00376E-01
 -1       302-4.39236E-01-6.15055E+05-6.00672E+05 7.15774E-01-6.05716E+05 1.78587E-01
 -1       303 1.79646E-01 9.07769E+03-1.44793E+04 5.34801E-01 2.87383E+02-6.33411E-02
 -1       304 1.86326E+00-6.26415E+05-3.80229E+05-2.53579E+00-4.88250E+05-7.07526E-01
 -1       305 1.69833E-01 9.07700E+03-1.44802E+04-1.85403E-02 2.87120E+02-2.02582E-01
 -1       306 1.85184E+00-6.26417E+05-3.80230E+05-1.38701E+00-4.88250E+05-4.05580E-01
 -1       307 1.42736E-02 8.13268E+03-1.60778E+04-3.17992E-01 9.99175E+02-4.34116E-02
 -1       308 1.02221E+00-3.08674E+05-1.97345E+05-1.15989E+00-2.43980E+05-7.01171E-02
 -1       309-7.20859E-01-6.27277E+05-4.47195E+05 1.03906E+00-5.28026E+05 2.79089E-01
 -1       310 7.67201E-01 1.00343E+04-1.18785E+04 1.50233E-01-4.94680E+02-4.79618E-01
 -1       311 2.96278E+00-6.03584E+05-2.79129E+05-3.67908E+00-4.10571E+05-1.09207E+00
 -1       312 7.53390E-01 1.00328E+04-1.18796E+04-3.15180E-01-4.95329E+02-4.80829E-01
 -1       313 2.94735E+00-6.03586E+05-2.79129E+05-1.85418E+00-4.10572E+05-6.04494E-01
 -1       314-1.96618E-01 9.37604E+03-1.32663E+04-2.02950E-01 4.31751E+01 1.22283E-01
 -1       315 1.86619E+00-2.96781E+05-1.45495E+05-1.95252E+00-2.05532E+05-3.62130E-01
 -1       316-1.16132E+00-6.15030E+05-3.29852E+05 1.51035E+00-4.49163E+05 4.34251E-01
 -1       317 1.76909E+00 1.07025E+04-9.69785E+03-6.32917E-01-1.01873E+03-1.09300E+00
 -1       318 4.59901E+00-5.65447E+05-2.03787E+05-5.29456E+00-3.39504E+05-1.65018E+00
 -1       319 1.75055E+00 1.07000E+04-9.69938E+03-7.83369E-01-1.01986E+03-8.64447E-01
 -1       320 4.57963E+00-5.65449E+05-2.03787E+05-2.39615E+00-3.39505E+05-8.77016E-01
 -1       321-5.77578E-01 1.02460E+04-1.08803E+04 7.01876E-02-6.26122E+02 3.76621E-01
 -1       322 3.18649E+00-2.77378E+05-1.06735E+05-3.18221E+00-1.70260E+05-8.16302E-01
 -1       323-1.83091E+00-5.84510E+05-2.41657E+05 2.18118E+00-3.74868E+05 6.63975E-01
 -1       324 3.34241E+00 1.11716E+04-7.89835E+03-1.95887E+00-1.35344E+03-1.94088E+00
 -1       325 6.95490E+00-5.17028E+05-1.48198E+05-7.45823E+00-2.76820E+05-2.42738E+00
 -1       326 3.32217E+00 1.11679E+04-7.90024E+03-1.43143E+00-1.35510E+03-1.36317E+00
 -1       327 6.93314E+00-5.17028E+05-1.48199E+05-2.93242E+00-2.76821E+05-1.23024E+00
 -1       328-1.20594E+00 1.08554E+04-8.88913E+03 5.80552E-01-1.07527E+03 7.39070E-01
 -1       329 5.15066E+00-2.52933E+05-7.80423E+04-4.95839E+00-1.39086E+05-1.47470E+00
 -1       330-2.81344E+00-5.41218E+05-1.76187E+05 3.11764E+00-3.08053E+05 9.91215E-01
 -1       331 5.65092E+00 1.15032E+04-6.43292E+03-4.01538E+00-1.55487E+03-3.04065E+00
 -1       332 1.01758E+01-4.62224E+05-1.07443E+05-1.03114E+01-2.22849E+05-3.47576E+00
 -1       333 5.62659E+00 1.14985E+04-6.43515E+03-2.20801E+00-1.55701E+03-1.96033E+00
 -1       334 1.01556E+01-4.62222E+05-1.07444E+05-3.25964E+00-2.22850E+05-1.66772E+00
 -1       335-2.16159E+00 1.12838E+04-7.25189E+03 1.38850E+00-1.36139E+03 1.22655E+00
 -1       336 7.92244E+00-2.25365E+05-5.69338E+04-7.44213E+00-1.12200E+05-2.38161E+00
 -1       337-4.20702E+00-4.89603E+05-1.27997E+05 4.32337E+00-2.49769E+05 1.43792E+00
 -1       338 8.75503E+00 1.17386E+04-5.25379E+03-6.67997E+00-1.66611E+03-4.39490E+00
 -1       339 1.44196E+01-4.03882E+05-7.76441E+04-1.33284E+01-1.77084E+05-4.79503E+00
 -1       340 8.75726E+00 1.17339E+04-5.25624E+03-2.91137E+00-1.66855E+03-2.64523E+00
 -1       341 1.44164E+01-4.03873E+05-7.76450E+04-2.97474E+00-1.77085E+05-2.13709E+00
 -1       342-3.53322E+00 1.15865E+04-5.92394E+03 2.61257E+00-1.53123E+03 1.83797E+00
 -1       343 1.15780E+01-1.96076E+05-4.14468E+04-1.03080E+01-8.93730E+04-3.54461E+00
 -1       344-6.06956E+00-4.33031E+05-9.26955E+04 5.92187E+00-1.99930E+05 2.03044E+00
 -1       345 1.26241E+01 1.19071E+04-4.31649E+03-1.03830E+01-1.71978E+03-5.85703E+00
 -1       346 1.92970E+01-3.43958E+05-5.58293E+04-1.74581E+01-1.38590E+05-6.49240E+00
 -1       347 1.25996E+01 1.19046E+04-4.31902E+03-3.15140E+00-1.72193E+03-3.21724E+00
 -1       348 1.93040E+01-3.43937E+05-5.58301E+04-1.25029E+00-1.38589E+05-2.65789E+00
 -1       349-5.27921E+00 1.18019E+04-4.86198E+03 3.99876E+00-1.62145E+03 2.57436E+00
 -1       350 1.60286E+01-1.66031E+05-3.00721E+04-1.42326E+01-7.01505E+04-5.01193E+00
 -1       351-8.46722E+00-3.73895E+05-6.68653E+04 7.25477E+00-1.57814E+05 2.74497E+00
 -1       352 1.64368E+01 1.20296E+04-3.58059E+03-1.21275E+01-1.73746E+03-7.45600E+00
 -1       353 2.50294E+01-2.83712E+05-3.97559E+04-1.60316E+01-1.06244E+05-7.97692E+00
 -1       354 1.66524E+01 1.20341E+04-3.58275E+03-1.92194E+00-1.73861E+03-3.89324E+00
 -1       355 2.52155E+01-2.83667E+05-3.97568E+04 3.13934E+00-1.06241E+05-2.72387E+00
 -1       356-7.46126E+00 1.19546E+04-4.02664E+03 6.20700E+00-1.65919E+03 3.28420E+00
 -1       357 2.05306E+01-1.35847E+05-2.16693E+04-1.43709E+01-5.39843E+04-6.44493E+00
 -1       358-1.10735E+01-3.13791E+05-4.79015E+04 9.86473E+00-1.22393E+05 3.68772E+00
 -1       359 1.95745E+01 1.21310E+04-3.01778E+03-1.87229E+01-1.73852E+03-7.81091E+00
 -1       360 2.72399E+01-2.23853E+05-2.77589E+04-2.69763E+01-7.89109E+04-1.09133E+01
 -1       361 1.93381E+01 1.21503E+04-3.01943E+03 1.78129E+00-1.73594E+03-2.87835E+00
 -1       362 2.70526E+01-2.23771E+05-2.77582E+04 1.31249E+01-7.88993E+04-3.37642E+00
 -1       363-9.00051E+00 1.20613E+04-3.38445E+03 5.55496E+00-1.66759E+03 4.14584E+00
 -1       364 2.42208E+01-1.05879E+05-1.53837E+04-2.31169E+01-4.03013E+04-8.48525E+00
 -1       365-1.39506E+01-2.53682E+05-3.38508E+04 5.63396E+00-9.25367E+04 4.21807E+00
 -1       366 1.68547E+01 1.22245E+04-2.59000E+03 4.26512E+00-1.70918E+03-9.62354E+00
 -1       367 3.24224E+01-1.64792E+05-1.85667E+04 3.04252E+01-5.53917E+04-6.82116E+00
 -1       368 1.85752E+01 1.22750E+04-2.58979E+03 1.23597E+01-1.70351E+03-5.12772E+00
 -1       369 3.46883E+01-1.64635E+05-1.85673E+04 3.02131E+01-5.53847E+04 9.76080E-01
 -1       370-1.10584E+01 1.21220E+04-2.90413E+03 1.24763E+01-1.65521E+03 3.57186E+00
 -1       371 2.17203E+01-7.62908E+04-1.05830E+04 1.75307E+01-2.85385E+04-7.14707E+00
 -1       372-1.44365E+01-1.94087E+05-2.32449E+04 2.00416E+01-6.70765E+04 6.41589E+00
 -1       373 8.48127E+00 1.24040E+04-2.35334E+03-5.23726E+01-1.71275E+03 2.21031E+00
 -1       374 2.33825E+00-1.06434E+05-1.13275E+04-1.20206E+02-3.49069E+04-2.57476E+01
 -1       375 5.41971E+00 1.24991E+04-2.34964E+03 2.72496E+01-1.68643E+03 1.06042E+01
 -1       376-4.61820E+00-1.06206E+05-1.13216E+04 6.87089E+01-3.48321E+04-8.19462E+00
 -1       377-4.63154E+00 1.21516E+04-2.56867E+03-1.79416E+01-1.66785E+03 5.96450E+00
 -1       378 1.64069E+01-4.71244E+04-6.77369E+03-8.71901E+01-1.81512E+04-1.41816E+01
 -1       379-1.50658E+01-1.35075E+05-1.50075E+04-5.12674E+01-4.50398E+04 4.06765E-01
 -1       380-2.62871E+01 1.25483E+04-2.08586E+03 2.47169E+02-1.45596E+03-2.10558E+01
 -1       381 3.72411E+01-4.94927E+04-5.04678E+03 5.93804E+02-1.53482E+04 5.95876E+01
 -1       382-1.49753E+01 1.27525E+04-2.09017E+03 7.63633E+01-1.45022E+03-3.07271E+01
 -1       383 7.14544E+01-4.89754E+04-5.03780E+03 1.04644E+02-1.54449E+04 4.47775E+01
 -1       384-8.67257E+00 1.20562E+04-2.31004E+03 6.84428E+01-1.61044E+03-8.78331E+00
 -1       385-3.53884E+01-1.83270E+04-3.67821E+03 4.26874E+02-8.60053E+03 2.11603E+01
 -1       386 6.15730E-01-7.68117E+04-8.22078E+03 1.65131E+02-2.49849E+04 2.37348E+01
 -1       387-1.32691E+02 1.02191E+04-2.75659E+03-7.71592E+02-2.15632E+03 2.05456E+02
 -1       388-5.24773E+02 1.74972E+04 3.50910E+02-1.93448E+03 9.93926E+02-3.75364E+01
 -1       389-1.52335E+02 8.99355E+03-2.68701E+03-3.88369E+02-2.23923E+03 1.72468E+02
 -1       390-6.58874E+02 1.39012E+04 2.92522E+02-6.53773E+02 1.22238E+03-1.09961E+02
 -1       391 5.28540E+01 1.20731E+04-2.25380E+03-3.19216E+02-1.93238E+03 3.09699E+01
 -1       392-1.75070E+02 1.36301E+04-8.11069E+02-1.39623E+03-2.37681E+02 5.53390E+01
 -1       393 5.59574E+00-1.80128E+04-2.42056E+03-7.49478E+02-7.56034E+03-8.05410E+01
 -1       394-1.36078E+00-3.11769E+04 2.50345E+06 5.24505E-01 2.63960E+04 1.66478E+00
 -1       395 1.55666E-01 5.14078E+04 2.22527E+06-1.49015E-01 3.66499E+05 1.06547E-02
 -1       396-1.36078E+00-3.11755E+04 2.50345E+06-6.76500E-09 2.63981E+04 3.01052E-06
 -1       397 1.51031E-01 5.14078E+04 2.22527E+06 9.32629E-07 3.66499E+05 6.00379E-06
 -1       398-1.04189E+00-2.70102E+04 1.22861E+06-6.57753E-03 1.75122E+04 3.18831E-02
 -1       399-8.11878E-02 1.09629E+04 2.36539E+06 6.85348E-02 1.94647E+05 4.85564E-02
 -1       400-9.02830E-04 1.17486E+04 1.09144E+06-1.62991E-01 1.92780E+05-6.21969E-02
 -1       401-1.36078E+00-3.11762E+04 2.50345E+06 4.25678E-01 2.63971E+04 1.81813E+00
 -1       402 1.53348E-01 5.14078E+04 2.22527E+06-6.18856E-02 3.66499E+05 1.08978E-01
 -1       403-1.04189E+00-2.70088E+04 1.22861E+06 4.17850E-08 1.75145E+04 1.48513E-06
 -1       404-8.35045E-02 1.09629E+04 2.36539E+06 4.04523E-07 1.94648E+05 4.44853E-06
 -1       405-2.04660E-03 1.17487E+04 1.09144E+06 2.74601E-07 1.92780E+05 2.62547E-06
 -1       406 1.66434E-01 1.79884E+05 1.87972E+06-1.39432E-01 6.01514E+05 2.54781E-01
 -1       407 1.61686E-01 1.79884E+05 1.87972E+06 1.58048E-06 6.01514E+05 5.36307E-06
 -1       408-7.43523E-02 1.16462E+05 2.05229E+06 7.58292E-02 4.84884E+05-6.34056E-02
 -1       409-1.18832E-02 8.33148E+04 9.21141E+05-2.03362E-01 3.07336E+05 2.71494E-02
 -1       410 1.64060E-01 1.79884E+05 1.87972E+06-3.90646E-02 6.01514E+05 2.79277E-01
 -1       411-7.90442E-02 1.16462E+05 2.05230E+06 1.29334E-06 4.84884E+05 5.72696E-06
 -1       412-1.38305E-02 8.33150E+04 9.21140E+05 6.47847E-07 3.07336E+05 2.49938E-06
 -1       413 2.32213E-01 3.30555E+05 1.52853E+06-7.36175E-02 7.20336E+05 5.53307E-01
 -1       414 2.25626E-01 3.30555E+05 1.52853E+06 2.45191E-06 7.20335E+05 5.40625E-06
 -1       415-9.19479E-02 2.55829E+05 1.70387E+06 5.79189E-02 6.61303E+05-1.96494E-01
 -1       416-7.03212E-04 1.61795E+05 7.47563E+05-2.34085E-01 3.65493E+05 1.57605E-01
 -1       417 2.28919E-01 3.30555E+05 1.52853E+06 1.78323E-02 7.20336E+05 4.94179E-01
 -1       418-9.76152E-02 2.55829E+05 1.70387E+06 1.98234E-06 6.61303E+05 5.41264E-06
 -1       419-3.99601E-03 1.61795E+05 7.47562E+05 1.28063E-06 3.65492E+05 2.52897E-06
 -1       420 3.72229E-01 4.62410E+05 1.20584E+06 6.96842E-02 7.53175E+05 9.34536E-01
 -1       421 3.63468E-01 4.62410E+05 1.20583E+06 2.86277E-06 7.53173E+05 4.43152E-06
 -1       422-1.40314E-01 3.96642E+05 1.36707E+06 8.27439E-03 7.36808E+05-3.63316E-01
 -1       423 4.85881E-02 2.30679E+05 5.88419E+05-2.39607E-01 3.80316E+05 3.50757E-01
 -1       424 3.67848E-01 4.62410E+05 1.20584E+06 1.20179E-01 7.53174E+05 7.67846E-01
 -1       425-1.47988E-01 3.96643E+05 1.36707E+06 2.69364E-06 7.36809E+05 4.96072E-06
 -1       426 4.33785E-02 2.30679E+05 5.88417E+05 1.03846E-06 3.80316E+05 2.19176E-06
 -1       427 6.18609E-01 5.61476E+05 9.29371E+05 3.28888E-01 7.26657E+05 1.43188E+00
 -1       428 6.06693E-01 5.61475E+05 9.29366E+05 3.06217E-06 7.26654E+05 4.07106E-06
 -1       429-2.32411E-01 5.11803E+05 1.06754E+06-8.79013E-02 7.39868E+05-5.79313E-01
 -1       430 1.61545E-01 2.82176E+05 4.52242E+05-1.91978E-01 3.65819E+05 6.32922E-01
 -1       431 6.12651E-01 5.61475E+05 9.29368E+05 2.84573E-01 7.26656E+05 1.11804E+00
 -1       432-2.42749E-01 5.11804E+05 1.06755E+06 2.68557E-06 7.39869E+05 4.37215E-06
 -1       433 1.53546E-01 2.82176E+05 4.52239E+05 1.71021E-06 3.65818E+05 1.98777E-06
 -1       434 1.01895E+00 6.23166E+05 7.03477E+05 7.60940E-01 6.65166E+05 2.08262E+00
 -1       435 1.00290E+00 6.23165E+05 7.03471E+05 3.75184E-06 6.65162E+05 3.07074E-06
 -1       436-3.87582E-01 5.92015E+05 8.16400E+05-2.54092E-01 6.95862E+05-8.62172E-01
 -1       437 3.77671E-01 3.14451E+05 3.41230E+05-4.74324E-02 3.34052E+05 1.03546E+00
 -1       438 1.01093E+00 6.23166E+05 7.03474E+05 5.32002E-01 6.65164E+05 1.56432E+00
 -1       439-4.01568E-01 5.92016E+05 8.16403E+05 2.93766E-06 6.95864E+05 3.52882E-06
 -1       440 3.65791E-01 3.14450E+05 3.41227E+05 1.26487E-06 3.34050E+05 1.68702E-06
 -1       441 1.64113E+00 6.50438E+05 5.25272E+05 1.44235E+00 5.86730E+05 2.92656E+00
 -1       442 1.61991E+00 6.50436E+05 5.25265E+05 1.61414E-06 5.86724E+05 2.73592E-06
 -1       443-6.34376E-01 6.36443E+05 6.14360E+05-5.23335E-01 6.25933E+05-1.23119E+00
 -1       444 7.55479E-01 3.29075E+05 2.53865E+05 2.57144E-01 2.94068E+05 1.59434E+00
 -1       445 1.63052E+00 6.50437E+05 5.25268E+05 8.84754E-01 5.86727E+05 2.12615E+00
 -1       446-6.53015E-01 6.36444E+05 6.14364E+05 4.44639E-06 6.25936E+05 2.87116E-06
 -1       447 7.38474E-01 3.29073E+05 2.53861E+05 1.46545E-06 2.94065E+05 1.64691E-06
 -1       448 2.57672E+00 6.49213E+05 3.88252E+05 2.46937E+00 5.03688E+05 4.00398E+00
 -1       449 2.54990E+00 6.49209E+05 3.88243E+05 3.42650E-06 5.03681E+05 1.48759E-06
 -1       450-1.01253E+00 6.49480E+05 4.56744E+05-9.38221E-01 5.45230E+05-1.70647E+00
 -1       451 1.37743E+00 3.29151E+05 1.86877E+05 8.07889E-01 2.51987E+05 2.34898E+00
 -1       452 2.56331E+00 6.49211E+05 3.88248E+05 1.35972E+00 5.03684E+05 2.82001E+00
 -1       453-1.03655E+00 6.49482E+05 4.56748E+05 2.29903E-06 5.45233E+05 2.25778E-06
 -1       454 1.35420E+00 3.29148E+05 1.86872E+05 2.49646E-06 2.51983E+05 1.03218E-06
 -1       455 3.94126E+00 6.26223E+05 2.84892E+05 3.94883E+00 4.23591E+05 5.35016E+00
 -1       456 3.90900E+00 6.26219E+05 2.84882E+05 2.16210E-06 4.23582E+05 3.28924E-06
 -1       457-1.57454E+00 6.37418E+05 3.36543E+05-1.55072E+00 4.63684E+05-2.30756E+00
 -1       458 2.35303E+00 3.18135E+05 1.36498E+05 1.71120E+00 2.11547E+05 3.33860E+00
 -1       459 3.92513E+00 6.26221E+05 2.84887E+05 1.95563E+00 4.23586E+05 3.65428E+00
 -1       460-1.60408E+00 6.37420E+05 3.36548E+05 2.96539E-06 4.63688E+05 2.42954E-06
 -1       461 2.32308E+00 3.18131E+05 1.36492E+05 1.10401E-06 2.11542E+05 1.16077E-06
 -1       462 5.86696E+00 5.87685E+05 2.08001E+05 5.99182E+00 3.50519E+05 6.98882E+00
 -1       463 5.83415E+00 5.87681E+05 2.07990E+05 4.49377E-06 3.50509E+05 1.94294E-06
 -1       464-2.38413E+00 6.06709E+05 2.46406E+05-2.41253E+00 3.87109E+05-3.04911E+00
 -1       465 3.81559E+00 2.99199E+05 9.91442E+04 3.09389E+00 1.74749E+05 4.59620E+00
 -1       466 5.85056E+00 5.87683E+05 2.07996E+05 2.62819E+00 3.50514E+05 4.62212E+00
 -1       467-2.41667E+00 6.06712E+05 2.46411E+05 2.30411E-06 3.87114E+05 1.77096E-06
 -1       468 3.78064E+00 2.99194E+05 9.91368E+04 1.89143E-06 1.74743E+05 4.16778E-07
 -1       469 8.47774E+00 5.38762E+05 1.51358E+05 8.63024E+00 2.86210E+05 8.90649E+00
 -1       470 8.44669E+00 5.38760E+05 1.51346E+05 3.07523E-06 2.86198E+05 7.69009E-08
 -1       471-3.51123E+00 5.63032E+05 1.79627E+05-3.57792E+00 3.18418E+05-3.93873E+00
 -1       472 5.90808E+00 2.74972E+05 7.17240E+04 5.04471E+00 1.42427E+05 6.13312E+00
 -1       473 8.46222E+00 5.38761E+05 1.51352E+05 3.25048E+00 2.86204E+05 5.68415E+00
 -1       474-3.54316E+00 5.63034E+05 1.79633E+05 4.26331E-06 3.18424E+05 1.29753E-06
 -1       475 5.87231E+00 2.74966E+05 7.17157E+04 1.83953E-06 1.42420E+05 1.07882E-06
 -1       476 1.18363E+01 4.83437E+05 1.09887E+05 1.19000E+01 2.30939E+05 1.10585E+01
 -1       477 1.18461E+01 4.83441E+05 1.09875E+05 5.50899E-06 2.30927E+05-7.74250E-07
 -1       478-5.00898E+00 5.10956E+05 1.30558E+05-5.01462E+00 2.58621E+05-4.95229E+00
 -1       479 8.73452E+00 2.47475E+05 5.17230E+04 7.67895E+00 1.14691E+05 7.92619E+00
 -1       480 1.18412E+01 4.83439E+05 1.09881E+05 3.53415E+00 2.30933E+05 6.76265E+00
 -1       481-5.01964E+00 5.10956E+05 1.30565E+05 4.49930E-06 2.58627E+05 1.58358E-06
 -1       482 8.71507E+00 2.47471E+05 5.17143E+04 3.47037E-06 1.14684E+05-3.40123E-07
 -1       483 1.58260E+01 4.24601E+05 7.96062E+04 1.50819E+01 1.84145E+05 1.32013E+01
 -1       484 1.58348E+01 4.24620E+05 7.95933E+04 3.31771E-06 1.84136E+05 1.77272E-06
 -1       485-6.89483E+00 4.53920E+05 9.46683E+04-6.77975E+00 2.07577E+05-6.06699E+00
 -1       486 1.22999E+01 2.18174E+05 3.71740E+04 1.05771E+01 9.12375E+04 9.84845E+00
 -1       487 1.58304E+01 4.24611E+05 7.95998E+04 2.94076E+00 1.84141E+05 7.65342E+00
 -1       488-6.88557E+00 4.53915E+05 9.46748E+04 5.51115E-06 2.07582E+05-2.04258E-06
 -1       489 1.23065E+01 2.18177E+05 3.71651E+04-1.51078E-06 9.12324E+04 1.20821E-06
 -1       490 1.99674E+01 3.64226E+05 5.74713E+04 1.87449E+01 1.44843E+05 1.52477E+01
 -1       491 2.03007E+01 3.64273E+05 5.74594E+04 2.86770E-06 1.44839E+05 3.04288E-06
 -1       492-9.00594E+00 3.94361E+05 6.84414E+04-8.06291E+00 1.64515E+05-7.04998E+00
 -1       493 1.62277E+01 1.88072E+05 2.65766E+04 1.42519E+01 7.15574E+04 1.17152E+01
 -1       494 2.01340E+01 3.64250E+05 5.74653E+04 4.23230E-01 1.44841E+05 8.17945E+00
 -1       495-8.83492E+00 3.94346E+05 6.84477E+04 1.86800E-07 1.64519E+05 3.74060E-06
 -1       496 1.63699E+01 1.88090E+05 2.65687E+04 1.09756E-06 7.15566E+04-1.47113E-07
 -1       497 2.29594E+01 3.03564E+05 4.11910E+04 1.57196E+01 1.11862E+05 1.56042E+01
 -1       498 2.27996E+01 3.03659E+05 4.11816E+04 1.12116E-06 1.11872E+05 3.22382E-07
 -1       499-1.11304E+01 3.33905E+05 4.92068E+04-1.02522E+01 1.28361E+05-8.05864E+00
 -1       500 1.99006E+01 1.57803E+05 1.88063E+04 1.36322E+01 5.50556E+04 1.28016E+01
 -1       501 2.28795E+01 3.03612E+05 4.11863E+04-5.58619E+00 1.11867E+05 7.37704E+00
 -1       502-1.10435E+01 3.33870E+05 4.92122E+04 1.65001E-06 1.28361E+05 1.02125E-06
 -1       503 2.00363E+01 1.57852E+05 1.87998E+04 1.25444E-06 5.50646E+04-5.09823E-07
 -1       504 2.25224E+01 2.43282E+05 2.90682E+04 2.25858E+01 8.40387E+04 1.63951E+01
 -1       505 2.52215E+01 2.43471E+05 2.90646E+04 1.80155E-06 8.40588E+04 1.53543E-06
 -1       506-1.17559E+01 2.73531E+05 3.49713E+04-4.59266E+00 9.79539E+04-7.24966E+00
 -1       507 2.02348E+01 1.27724E+05 1.30206E+04 2.03870E+01 4.11267E+04 1.29798E+01
 -1       508 2.38720E+01 2.43377E+05 2.90664E+04-1.83716E+01 8.40488E+04 6.07642E+00
 -1       509-1.04866E+01 2.73467E+05 3.49749E+04 4.40646E-06 9.79415E+04 8.40279E-08
 -1       510 2.13484E+01 1.27830E+05 1.30216E+04 1.76929E-06 4.11509E+04 7.21112E-07
 -1       511 1.21552E+01 1.83752E+05 1.97804E+04-4.14352E+01 6.00875E+04 3.95564E+00
 -1       512 7.10807E+00 1.84049E+05 1.97865E+04 2.87916E-06 6.01930E+04 4.09476E-07
 -1       513-1.16724E+01 2.13796E+05 2.42290E+04-1.68895E+01 7.20869E+04-8.86068E+00
 -1       514 1.74232E+01 9.79952E+04 8.59981E+03-2.26646E+01 2.91772E+04 7.86487E+00
 -1       515 9.63163E+00 1.83901E+05 1.97835E+04-4.08857E+01 6.01402E+04-3.02819E+00
 -1       516-1.28455E+01 2.13666E+05 2.42290E+04 5.55416E-07 7.20763E+04 3.46966E-06
 -1       517 1.66196E+01 9.81954E+04 8.59826E+03 1.13288E-06 2.92357E+04 7.92798E-08
 -1       518-9.14518E+00 1.24631E+05 1.24903E+04 9.16058E+01 3.93747E+04 1.56521E+01
 -1       519 1.52624E+01 1.25261E+05 1.25040E+04 7.85542E-06 3.93626E+04 2.54442E-07
 -1       520 2.45213E+00 1.54776E+05 1.59478E+04 6.14508E+01 4.98277E+04 6.14885E+00
 -1       521-1.13291E+01 6.86269E+04 5.00175E+03 7.10884E+01 1.86723E+04 4.30797E+00
 -1       522 3.05859E+00 1.24946E+05 1.24971E+04-8.47606E+01 3.93687E+04-6.17214E-02
 -1       523 1.21295E+01 1.54597E+05 1.59390E+04 7.55677E-06 4.97321E+04-3.23267E-06
 -1       524-2.18593E+00 6.89917E+04 5.05049E+03 9.34043E-07 1.87569E+04-3.88234E-07
 -1       525-9.44465E+01 6.68832E+04 5.78684E+03-6.30590E+02 1.90670E+04-9.72812E+01
 -1       526-1.62706E+02 6.74210E+04 5.88385E+03-8.06311E-06 1.98121E+04 2.33218E-06
 -1       527-4.38636E+00 9.68510E+04 9.02173E+03-1.52986E+02 2.95351E+04-2.28351E+01
 -1       528-1.95015E+01 3.95705E+04 1.96238E+03-4.32492E+02 9.00397E+03-3.62183E+01
 -1       529-1.28576E+02 6.71521E+04 5.83534E+03-1.44045E+02 1.94396E+04-6.75816E+01
 -1       530-2.63047E+01 9.63948E+04 9.02365E+03-4.37811E-06 2.96287E+04 3.25139E-06
 -1       531-4.23200E+01 4.01525E+04 1.89734E+03-2.60949E-06 9.23329E+03-1.27269E-08
 -1       532 9.69608E+01 1.44358E+04 3.66769E+02 2.24307E+03 6.35760E+03 5.75722E+01
 -1       533 3.39803E+02 8.83520E+03 2.23799E+02-1.79251E-06 3.19790E+03-3.48569E-06
 -1       534 1.42070E+02 3.83356E+04 3.89207E+03 8.00950E+02 1.25964E+04 1.30069E+02
 -1       535-1.71527E+02 1.25556E+04-1.58668E+03 1.46414E+03 1.75712E+03-1.02563E+02
 -1       536 2.18382E+02 1.16355E+04 2.95284E+02 9.43253E+02 4.77775E+03 1.32465E+02
 -1       537 2.29356E+02 3.82060E+04 3.76078E+03-2.46060E-06 1.17877E+04-4.15345E-07
 -1       538-6.97499E+01 8.25200E+03-1.21353E+03 4.06060E-06 4.99792E+02 1.64291E-06
 -1       539-1.36078E+00-3.11769E+04 2.50345E+06-5.24505E-01 2.63960E+04-1.66478E+00
 -1       540 1.55666E-01 5.14078E+04 2.22527E+06 1.49015E-01 3.66499E+05-1.06506E-02
 -1       541-1.36078E+00-3.11762E+04 2.50345E+06-4.25678E-01 2.63971E+04-1.81812E+00
 -1       542 1.53348E-01 5.14078E+04 2.22527E+06 6.18868E-02 3.66499E+05-1.08970E-01
 -1       543-1.04189E+00-2.70102E+04 1.22861E+06 6.57749E-03 1.75122E+04-3.18802E-02
 -1       544-8.11877E-02 1.09629E+04 2.36539E+06-6.85346E-02 1.94647E+05-4.85516E-02
 -1       545-9.02835E-04 1.17486E+04 1.09144E+06 1.62991E-01 1.92780E+05 6.21982E-02
 -1       546 1.66434E-01 1.79884E+05 1.87972E+06 1.39434E-01 6.01514E+05-2.54774E-01
 -1       547 1.64060E-01 1.79884E+05 1.87972E+06 3.90674E-02 6.01514E+05-2.79268E-01
 -1       548-7.43524E-02 1.16462E+05 2.05229E+06-7.58274E-02 4.84884E+05 6.34110E-02
 -1       549-1.18832E-02 8.33148E+04 9.21141E+05 2.03363E-01 3.07336E+05-2.71465E-02
 -1       550 2.32212E-01 3.30555E+05 1.52853E+06 7.36204E-02 7.20336E+05-5.53300E-01
 -1       551 2.28919E-01 3.30555E+05 1.52853E+06-1.78285E-02 7.20336E+05-4.94170E-01
 -1       552-9.19479E-02 2.55829E+05 1.70387E+06-5.79164E-02 6.61303E+05 1.96501E-01
 -1       553-7.03252E-04 1.61795E+05 7.47563E+05 2.34086E-01 3.65493E+05-1.57602E-01
 -1       554 3.72229E-01 4.62410E+05 1.20584E+06-6.96790E-02 7.53175E+05-9.34529E-01
 -1       555 3.67848E-01 4.62410E+05 1.20584E+06-1.20174E-01 7.53174E+05-7.67839E-01
 -1       556-1.40314E-01 3.96642E+05 1.36707E+06-8.27033E-03 7.36808E+05 3.63323E-01
 -1       557 4.85881E-02 2.30679E+05 5.88419E+05 2.39609E-01 3.80316E+05-3.50754E-01
 -1       558 6.18609E-01 5.61476E+05 9.29371E+05-3.28886E-01 7.26657E+05-1.43188E+00
 -1       559 6.12651E-01 5.61475E+05 9.29368E+05-2.84568E-01 7.26656E+05-1.11803E+00
 -1       560-2.32410E-01 5.11803E+05 1.06754E+06 8.79048E-02 7.39868E+05 5.79320E-01
 -1       561 1.61545E-01 2.82176E+05 4.52242E+05 1.91979E-01 3.65819E+05-6.32919E-01
 -1       562 1.01895E+00 6.23166E+05 7.03477E+05-7.60938E-01 6.65166E+05-2.08262E+00
 -1       563 1.01093E+00 6.23166E+05 7.03474E+05-5.31997E-01 6.65164E+05-1.56431E+00
 -1       564-3.87582E-01 5.92015E+05 8.16400E+05 2.54096E-01 6.95862E+05 8.62178E-01
 -1       565 3.77671E-01 3.14451E+05 3.41230E+05 4.74343E-02 3.34052E+05-1.03545E+00
 -1       566 1.64113E+00 6.50438E+05 5.25272E+05-1.44235E+00 5.86730E+05-2.92656E+00
 -1       567 1.63052E+00 6.50437E+05 5.25268E+05-8.84749E-01 5.86727E+05-2.12614E+00
 -1       568-6.34376E-01 6.36443E+05 6.14360E+05 5.23338E-01 6.25933E+05 1.23120E+00
 -1       569 7.55479E-01 3.29075E+05 2.53865E+05-2.57141E-01 2.94068E+05-1.59434E+00
 -1       570 2.57672E+00 6.49213E+05 3.88252E+05-2.46936E+00 5.03688E+05-4.00398E+00
 -1       571 2.56331E+00 6.49211E+05 3.88248E+05-1.35972E+00 5.03684E+05-2.82001E+00
 -1       572-1.01253E+00 6.49480E+05 4.56744E+05 9.38225E-01 5.45230E+05 1.70648E+00
 -1       573 1.37743E+00 3.29151E+05 1.86877E+05-8.07887E-01 2.51987E+05-2.34898E+00
 -1       574 3.94126E+00 6.26223E+05 2.84892E+05-3.94882E+00 4.23591E+05-5.35016E+00
 -1       575 3.92513E+00 6.26221E+05 2.84887E+05-1.95563E+00 4.23586E+05-3.65428E+00
 -1       576-1.57454E+00 6.37418E+05 3.36543E+05 1.55072E+00 4.63684E+05 2.30756E+00
 -1       577 2.35303E+00 3.18135E+05 1.36498E+05-1.71120E+00 2.11547E+05-3.33860E+00
 -1       578 5.86696E+00 5.87685E+05 2.08001E+05-5.99181E+00 3.50519E+05-6.98882E+00
 -1       579 5.85056E+00 5.87683E+05 2.07996E+05-2.62818E+00 3.50514E+05-4.62212E+00
 -1       580-2.38413E+00 6.06709E+05 2.46406E+05 2.41253E+00 3.87109E+05 3.04911E+00
 -1       581 3.81559E+00 2.99199E+05 9.91442E+04-3.09389E+00 1.74749E+05-4.59620E+00
 -1       582 8.47774E+00 5.38762E+05 1.51358E+05-8.63024E+00 2.86210E+05-8.90649E+00
 -1       583 8.46222E+00 5.38761E+05 1.51352E+05-3.25048E+00 2.86204E+05-5.68415E+00
 -1       584-3.51123E+00 5.63032E+05 1.79627E+05 3.57792E+00 3.18418E+05 3.93873E+00
 -1       585 5.90808E+00 2.74972E+05 7.17240E+04-5.04472E+00 1.42427E+05-6.13312E+00
 -1       586 1.18363E+01 4.83437E+05 1.09887E+05-1.19000E+01 2.30939E+05-1.10585E+01
 -1       587 1.18412E+01 4.83439E+05 1.09881E+05-3.53414E+00 2.30933E+05-6.76264E+00
 -1       588-5.00898E+00 5.10956E+05 1.30558E+05 5.01462E+00 2.58621E+05 4.95230E+00
 -1       589 8.73452E+00 2.47475E+05 5.17230E+04-7.67894E+00 1.14691E+05-7.92618E+00
 -1       590 1.58260E+01 4.24601E+05 7.96062E+04-1.50819E+01 1.84145E+05-1.32013E+01
 -1       591 1.58304E+01 4.24611E+05 7.95998E+04-2.94076E+00 1.84141E+05-7.65342E+00
 -1       592-6.89483E+00 4.53920E+05 9.46683E+04 6.77976E+00 2.07577E+05 6.06699E+00
 -1       593 1.22999E+01 2.18174E+05 3.71740E+04-1.05771E+01 9.12375E+04-9.84845E+00
 -1       594 1.99674E+01 3.64226E+05 5.74713E+04-1.87449E+01 1.44843E+05-1.52477E+01
 -1       595 2.01340E+01 3.64250E+05 5.74653E+04-4.23223E-01 1.44841E+05-8.17945E+00
 -1       596-9.00594E+00 3.94361E+05 6.84414E+04 8.06291E+00 1.64515E+05 7.04997E+00
 -1       597 1.62277E+01 1.88072E+05 2.65766E+04-1.42519E+01 7.15574E+04-1.17152E+01
 -1       598 2.29594E+01 3.03564E+05 4.11910E+04-1.57196E+01 1.11862E+05-1.56042E+01
 -1       599 2.28795E+01 3.03612E+05 4.11863E+04 5.58619E+00 1.11867E+05-7.37704E+00
 -1       600-1.11304E+01 3.33905E+05 4.92068E+04 1.02522E+01 1.28361E+05 8.05865E+00
 -1       601 1.99006E+01 1.57803E+05 1.88063E+04-1.36322E+01 5.50556E+04-1.28016E+01
 -1       602 2.25224E+01 2.43282E+05 2.90682E+04-2.25858E+01 8.40387E+04-1.63951E+01
 -1       603 2.38720E+01 2.43377E+05 2.90664E+04 1.83716E+01 8.40488E+04-6.07642E+00
 -1       604-1.17559E+01 2.73531E+05 3.49713E+04 4.59266E+00 9.79539E+04 7.24966E+00
 -1       605 2.02348E+01 1.27724E+05 1.30206E+04-2.03870E+01 4.11267E+04-1.29798E+01
 -1       606 1.21552E+01 1.83752E+05 1.97804E+04 4.14352E+01 6.00875E+04-3.95564E+00
 -1       607 9.63163E+00 1.83901E+05 1.97835E+04 4.08857E+01 6.01402E+04 3.02819E+00
 -1       608-1.16724E+01 2.13796E+05 2.42290E+04 1.68895E+01 7.20869E+04 8.86067E+00
 -1       609 1.74232E+01 9.79952E+04 8.59981E+03 2.26646E+01 2.91772E+04-7.86487E+00
 -1       610-9.14518E+00 1.24631E+05 1.24903E+04-9.16058E+01 3.93747E+04-1.56521E+01
 -1       611 3.05859E+00 1.24946E+05 1.24971E+04 8.47606E+01 3.93687E+04 6.17172E-02
 -1       612 2.45213E+00 1.54776E+05 1.59478E+04-6.14508E+01 4.98277E+04-6.14886E+00
 -1       613-1.13291E+01 6.86269E+04 5.00175E+03-7.10883E+01 1.86723E+04-4.30797E+00
 -1       614-9.44465E+01 6.68832E+04 5.78684E+03 6.30590E+02 1.90670E+04 9.72812E+01
 -1       615-1.28576E+02 6.71521E+04 5.83534E+03 1.44045E+02 1.94396E+04 6.75816E+01
 -1       616-4.38636E+00 9.68510E+04 9.02173E+03 1.52986E+02 2.95351E+04 2.28351E+01
 -1       617-1.95015E+01 3.95705E+04 1.96238E+03 4.32492E+02 9.00397E+03 3.62183E+01
 -1       618 9.69608E+01 1.44358E+04 3.66769E+02-2.24307E+03 6.35760E+03-5.75722E+01
 -1       619 2.18382E+02 1.16355E+04 2.95284E+02-9.43253E+02 4.77775E+03-1.32465E+02
 -1       620 1.42070E+02 3.83356E+04 3.89207E+03-8.00950E+02 1.25964E+04-1.30069E+02
 -1       621-1.71527E+02 1.25556E+04-1.58668E+03-1.46414E+03 1.75712E+03 1.02563E+02
 -3
    1PSTEP                        23          12           1          
  100CL  112 6.87500E-01         621                     0   12           1
 -4  DISP        4    1
 -5  D1          1    2    1    0
 -5  D2          1    2    2    0
 -5  D3          1    2    3    0
 -5  ALL         1    2    0    0    1ALL
 -1         1 0.00000E+00 0.00000E+00 0.00000E+00
 -1         2 0.00000E+00 0.00000E+00 0.00000E+00
 -1         3 1.05075E-09 4.43050E-02-2.76063E-03
 -1         4-1.43876E-09 4.31751E-02-1.55892E-02
 -1         5 0.00000E+00 0.00000E+00 0.00000E+00
 -1         6 0.00000E+00 0.00000E+00 0.00000E+00
 -1         7 1.70120E-14 4.43050E-02-2.76064E-03
 -1         8-3.14551E-15 4.31752E-02-1.55891E-02
 -1         9 0.00000E+00 0.00000E+00 0.00000E+00
 -1        10-1.98751E-10 1.13088E-02-4.21959E-04
 -1        11-1.93913E-10 4.37371E-02-9.17005E-03
 -1        12 3.68246E-10 1.09925E-02-7.00983E-03
 -1        13 0.00000E+00 0.00000E+00 0.00000E+00
 -1        14 0.00000E+00 0.00000E+00 0.00000E+00
 -1        15 5.25542E-10 4.43050E-02-2.76063E-03
 -1        16-7.19316E-10 4.31752E-02-1.55892E-02
 -1        17 0.00000E+00 0.00000E+00 0.00000E+00
 -1        18 4.15348E-15 1.13088E-02-4.21958E-04
 -1        19 6.92004E-15 4.37371E-02-9.17005E-03
 -1        20-5.26963E-15 1.09925E-02-7.00983E-03
 -1        21 2.65605E-09 1.70135E-01-1.95087E-02
 -1        22-2.92656E-09 1.66092E-01-4.35835E-02
 -1        23 6.89698E-14 1.70135E-01-1.95087E-02
 -1        24 2.76757E-14 1.66092E-01-4.35835E-02
 -1        25-8.49925E-10 9.77111E-02-8.66724E-03
 -1        26-1.34996E-10 1.68113E-01-3.15424E-02
 -1        27 1.07074E-09 9.53046E-02-2.73143E-02
 -1        28 1.32812E-09 1.70135E-01-1.95087E-02
 -1        29-1.46337E-09 1.66092E-01-4.35835E-02
 -1        30 3.86211E-14 9.77111E-02-8.66723E-03
 -1        31 4.83643E-14 1.68113E-01-3.15424E-02
 -1        32 7.91791E-15 9.53046E-02-2.73143E-02
 -1        33 4.94266E-09 3.66440E-01-6.01989E-02
 -1        34-4.68648E-09 3.58317E-01-9.38571E-02
 -1        35 1.55266E-13 3.66440E-01-6.01989E-02
 -1        36 9.45602E-14 3.58317E-01-9.38571E-02
 -1        37-1.80436E-09 2.60185E-01-3.63983E-02
 -1        38 1.28450E-10 3.62378E-01-7.70243E-02
 -1        39 1.85398E-09 2.54218E-01-6.54640E-02
 -1        40 2.47141E-09 3.66440E-01-6.01989E-02
 -1        41-2.34340E-09 3.58317E-01-9.38571E-02
 -1        42 1.07946E-13 2.60185E-01-3.63983E-02
 -1        43 1.24844E-13 3.62378E-01-7.70243E-02
 -1        44 5.69573E-14 2.54218E-01-6.54640E-02
 -1        45 8.06884E-09 6.22123E-01-1.30964E-01
 -1        46-6.98203E-09 6.09260E-01-1.72606E-01
 -1        47 2.72259E-13 6.22123E-01-1.30964E-01
 -1        48 1.93537E-13 6.09260E-01-1.72606E-01
 -1        49-3.13707E-09 4.87533E-01-9.15673E-02
 -1        50 5.43923E-10 6.15692E-01-1.51782E-01
 -1        51 2.82873E-09 4.77102E-01-1.29407E-01
 -1        52 4.03443E-09 6.22123E-01-1.30964E-01
 -1        53-3.49127E-09 6.09260E-01-1.72606E-01
 -1        54 2.09868E-13 4.87533E-01-9.15673E-02
 -1        55 2.33002E-13 6.15692E-01-1.51782E-01
 -1        56 1.40034E-13 4.77102E-01-1.29407E-01
 -1        57 1.21837E-08 9.26831E-01-2.34904E-01
 -1        58-1.02090E-08 9.08956E-01-2.83081E-01
 -1        59 4.15935E-13 9.26831E-01-2.34904E-01
 -1        60 3.18930E-13 9.08956E-01-2.83081E-01
 -1        61-4.93151E-09 7.68955E-01-1.78690E-01
 -1        62 9.88138E-10 9.17895E-01-2.58990E-01
 -1        63 4.14704E-09 7.53606E-01-2.23770E-01
 -1        64 6.09175E-09 9.26831E-01-2.34904E-01
 -1        65-5.10487E-09 9.08956E-01-2.83081E-01
 -1        66 3.41123E-13 7.68955E-01-1.78690E-01
 -1        67 3.67568E-13 9.17895E-01-2.58990E-01
 -1        68 2.52931E-13 7.53606E-01-2.23770E-01
 -1        69 1.73579E-08 1.27138E+00-3.72867E-01
 -1        70-1.50120E-08 1.24850E+00-4.26319E-01
 -1        71 5.80661E-13 1.27138E+00-3.72867E-01
 -1        72 4.67076E-13 1.24850E+00-4.26319E-01
 -1        73-7.25371E-09 1.09465E+00-2.99647E-01
 -1        74 1.17412E-09 1.25995E+00-3.99590E-01
 -1        75 6.05198E-09 1.07426E+00-3.50609E-01
 -1        76 8.67867E-09 1.27138E+00-3.72867E-01
 -1        77-7.50659E-09 1.24850E+00-4.26319E-01
 -1        78 4.96631E-13 1.09465E+00-2.99647E-01
 -1        79 5.23966E-13 1.25995E+00-3.99590E-01
 -1        80 3.91270E-13 1.07426E+00-3.50609E-01
 -1        81 2.34699E-08 1.64792E+00-5.44129E-01
 -1        82-2.24479E-08 1.62023E+00-6.01793E-01
 -1        83 7.62686E-13 1.64792E+00-5.44129E-01
 -1        84 6.36673E-13 1.62023E+00-6.01793E-01
 -1        85-1.01088E-08 1.45610E+00-4.54425E-01
 -1        86 5.12664E-10 1.63408E+00-5.72959E-01
 -1        87 8.94450E-09 1.43078E+00-5.10107E-01
 -1        88 1.17343E-08 1.64792E+00-5.44129E-01
 -1        89-1.12249E-08 1.62023E+00-6.01793E-01
 -1        90 6.68267E-13 1.45610E+00-4.54425E-01
 -1        91 7.00234E-13 1.63408E+00-5.72959E-01
 -1        92 5.46803E-13 1.43078E+00-5.10107E-01
 -1        93 3.00264E-08 2.04989E+00-7.46940E-01
 -1        94-3.42203E-08 2.01770E+00-8.07939E-01
 -1        95 9.60023E-13 2.04989E+00-7.46940E-01
 -1        96 8.18121E-13 2.01770E+00-8.07939E-01
 -1        97-1.33704E-08 1.84609E+00-6.41727E-01
 -1        98-2.09442E-09 2.03380E+00-7.77438E-01
 -1        99 1.34798E-08 1.81611E+00-7.01161E-01
 -1       100 1.50122E-08 2.04989E+00-7.46940E-01
 -1       101-1.71114E-08 2.01770E+00-8.07939E-01
 -1       102 8.59815E-13 1.84609E+00-6.41727E-01
 -1       103 8.89295E-13 2.03380E+00-7.77438E-01
 -1       104 7.24603E-13 1.81611E+00-7.01161E-01
 -1       105 3.58958E-08 2.47192E+00-9.78930E-01
 -1       106-5.30086E-08 2.43561E+00-1.04255E+00
 -1       107 1.16727E-12 2.47192E+00-9.78930E-01
 -1       108 1.01278E-12 2.43561E+00-1.04255E+00
 -1       109-1.66724E-08 2.25869E+00-8.59450E-01
 -1       110-8.55298E-09 2.45377E+00-1.01074E+00
 -1       111 2.07055E-08 2.22439E+00-9.21843E-01
 -1       112 1.79464E-08 2.47192E+00-9.78930E-01
 -1       113-2.65061E-08 2.43561E+00-1.04255E+00
 -1       114 1.06248E-12 2.25869E+00-8.59450E-01
 -1       115 1.08993E-12 2.45377E+00-1.01074E+00
 -1       116 9.10616E-13 2.22439E+00-9.21843E-01
 -1       117 3.89312E-08 2.90968E+00-1.23740E+00
 -1       118-8.29147E-08 2.86966E+00-1.30307E+00
 -1       119 1.38323E-12 2.90968E+00-1.23740E+00
 -1       120 1.21566E-12 2.86966E+00-1.30307E+00
 -1       121-1.92492E-08 2.68907E+00-1.10503E+00
 -1       122-2.19865E-08 2.88967E+00-1.27023E+00
 -1       123 3.22533E-08 2.65085E+00-1.16974E+00
 -1       124 1.94635E-08 2.90968E+00-1.23740E+00
 -1       125-4.14596E-08 2.86966E+00-1.30307E+00
 -1       126 1.27797E-12 2.68907E+00-1.10503E+00
 -1       127 1.29889E-12 2.88967E+00-1.27023E+00
 -1       128 1.11672E-12 2.65085E+00-1.16974E+00
 -1       129 3.54764E-08 3.35970E+00-1.51952E+00
 -1       130-1.30013E-07 3.31640E+00-1.58679E+00
 -1       131 1.60293E-12 3.35970E+00-1.51952E+00
 -1       132 1.42454E-12 3.31640E+00-1.58679E+00
 -1       133-1.97193E-08 3.13334E+00-1.37568E+00
 -1       134-4.72629E-08 3.33805E+00-1.55315E+00
 -1       135 5.05935E-08 3.09163E+00-1.44220E+00
 -1       136 1.77359E-08 3.35970E+00-1.51952E+00
 -1       137-6.50090E-08 3.31640E+00-1.58679E+00
 -1       138 1.49336E-12 3.13334E+00-1.37568E+00
 -1       139 1.51370E-12 3.33805E+00-1.55315E+00
 -1       140 1.31909E-12 3.09163E+00-1.44220E+00
 -1       141 1.97906E-08 3.81924E+00-1.82246E+00
 -1       142-2.03010E-07 3.77307E+00-1.89096E+00
 -1       143 1.83208E-12 3.81924E+00-1.82246E+00
 -1       144 1.65070E-12 3.77307E+00-1.89096E+00
 -1       145-1.58054E-08 3.58843E+00-1.66856E+00
 -1       146-9.15963E-08 3.79616E+00-1.85671E+00
 -1       147 7.93339E-08 3.54364E+00-1.73649E+00
 -1       148 9.89252E-09 3.81924E+00-1.82246E+00
 -1       149-1.01507E-07 3.77307E+00-1.89096E+00
 -1       150 1.71681E-12 3.58843E+00-1.66856E+00
 -1       151 1.74101E-12 3.79616E+00-1.85671E+00
 -1       152 1.53679E-12 3.54364E+00-1.73649E+00
 -1       153-1.65427E-08 4.28613E+00-2.14347E+00
 -1       154-3.13720E-07 4.23749E+00-2.21292E+00
 -1       155 2.08419E-12 4.28613E+00-2.14347E+00
 -1       156 1.89345E-12 4.23749E+00-2.21292E+00
 -1       157-4.04174E-09 4.05189E+00-1.98087E+00
 -1       158-1.65136E-07 4.26181E+00-2.17819E+00
 -1       159 1.23573E-07 4.00443E+00-2.04988E+00
 -1       160-8.26998E-09 4.28613E+00-2.14347E+00
 -1       161-1.56859E-07 4.23749E+00-2.21292E+00
 -1       162 1.95787E-12 4.05189E+00-1.98087E+00
 -1       163 1.98942E-12 4.26181E+00-2.17819E+00
 -1       164 1.76830E-12 4.00443E+00-2.04988E+00
 -1       165-8.48591E-08 4.75866E+00-2.47989E+00
 -1       166-4.77656E-07 4.70792E+00-2.55007E+00
 -1       167 2.33283E-12 4.75866E+00-2.47989E+00
 -1       168 2.13218E-12 4.70792E+00-2.55007E+00
 -1       169 2.05417E-08 4.52178E+00-2.30991E+00
 -1       170-2.81180E-07 4.73329E+00-2.51498E+00
 -1       171 1.90057E-07 4.47205E+00-2.37975E+00
 -1       172-4.24321E-08 4.75866E+00-2.47989E+00
 -1       173-2.38823E-07 4.70792E+00-2.55007E+00
 -1       174 2.20720E-12 4.52178E+00-2.30991E+00
 -1       175 2.23152E-12 4.73329E+00-2.51498E+00
 -1       176 2.01200E-12 4.47205E+00-2.37975E+00
 -1       177-1.99235E-07 5.23546E+00-2.82923E+00
 -1       178-7.12129E-07 5.18300E+00-2.89995E+00
 -1       179 2.57508E-12 5.23546E+00-2.82923E+00
 -1       180 2.36936E-12 5.18300E+00-2.89995E+00
 -1       181 6.42928E-08 4.99660E+00-2.65310E+00
 -1       182-4.55906E-07 5.20923E+00-2.86459E+00
 -1       183 2.87507E-07 4.94495E+00-2.72357E+00
 -1       184-9.95833E-08 5.23546E+00-2.82923E+00
 -1       185-3.56039E-07 5.18300E+00-2.89995E+00
 -1       186 2.45273E-12 4.99660E+00-2.65310E+00
 -1       187 2.47260E-12 5.20923E+00-2.86459E+00
 -1       188 2.25282E-12 4.94495E+00-2.72357E+00
 -1       189-3.73696E-07 5.71548E+00-3.18910E+00
 -1       190-1.03830E-06 5.66162E+00-3.26022E+00
 -1       191 2.83110E-12 5.71548E+00-3.18910E+00
 -1       192 2.61602E-12 5.66162E+00-3.26022E+00
 -1       193 1.35102E-07 5.47513E+00-3.00799E+00
 -1       194-7.05040E-07 5.68855E+00-3.22466E+00
 -1       195 4.24780E-07 5.42193E+00-3.07893E+00
 -1       196-1.86883E-07 5.71548E+00-3.18910E+00
 -1       197-5.19152E-07 5.66162E+00-3.26022E+00
 -1       198 2.70397E-12 5.47513E+00-3.00799E+00
 -1       199 2.72373E-12 5.68855E+00-3.22466E+00
 -1       200 2.49545E-12 5.42193E+00-3.07893E+00
 -1       201-6.19382E-07 6.19783E+00-3.55723E+00
 -1       202-1.45841E-06 6.14292E+00-3.62865E+00
 -1       203 3.08919E-12 6.19783E+00-3.55723E+00
 -1       204 2.86946E-12 6.14292E+00-3.62865E+00
 -1       205 2.38666E-07 5.95641E+00-3.37227E+00
 -1       206-1.04249E-06 6.17038E+00-3.59294E+00
 -1       207 6.13382E-07 5.90199E+00-3.44355E+00
 -1       208-3.09428E-07 6.19783E+00-3.55723E+00
 -1       209-7.28938E-07 6.14292E+00-3.62865E+00
 -1       210 2.95434E-12 5.95641E+00-3.37227E+00
 -1       211 2.97882E-12 6.17038E+00-3.59294E+00
 -1       212 2.74080E-12 5.90199E+00-3.44355E+00
 -1       213-9.27053E-07 6.68182E+00-3.93148E+00
 -1       214-2.00572E-06 6.62616E+00-4.00309E+00
 -1       215 3.33390E-12 6.68182E+00-3.93148E+00
 -1       216 3.11169E-12 6.62616E+00-4.00309E+00
 -1       217 3.82325E-07 6.43966E+00-3.74372E+00
 -1       218-1.45225E-06 6.65399E+00-3.96728E+00
 -1       219 8.47211E-07 6.38434E+00-3.81525E+00
 -1       220-4.63991E-07 6.68182E+00-3.93148E+00
 -1       221-1.00361E-06 6.62616E+00-4.00309E+00
 -1       222 3.21111E-12 6.43966E+00-3.74372E+00
 -1       223 3.22499E-12 6.65399E+00-3.96728E+00
 -1       224 2.98977E-12 6.38434E+00-3.81525E+00
 -1       225-1.26520E-06 7.16683E+00-4.30975E+00
 -1       226-2.49037E-06 7.11073E+00-4.38147E+00
 -1       227 3.57630E-12 7.16683E+00-4.30975E+00
 -1       228 3.34843E-12 7.11073E+00-4.38147E+00
 -1       229 5.42846E-07 6.92423E+00-4.12024E+00
 -1       230-1.93282E-06 7.13879E+00-4.34561E+00
 -1       231 1.15461E-06 6.86831E+00-4.19192E+00
 -1       232-6.30878E-07 7.16683E+00-4.30975E+00
 -1       233-1.24108E-06 7.11073E+00-4.38147E+00
 -1       234 3.45469E-12 6.92423E+00-4.12024E+00
 -1       235 3.46159E-12 7.13878E+00-4.34561E+00
 -1       236 3.23143E-12 6.86831E+00-4.19192E+00
 -1       237-1.50356E-06 7.65235E+00-4.69003E+00
 -1       238-3.33579E-06 7.59611E+00-4.76178E+00
 -1       239 3.85649E-12 7.65235E+00-4.69003E+00
 -1       240 3.63629E-12 7.59610E+00-4.76178E+00
 -1       241 7.37255E-07 7.40956E+00-4.49976E+00
 -1       242-2.20350E-06 7.62423E+00-4.72590E+00
 -1       243 1.35756E-06 7.35335E+00-4.57152E+00
 -1       244-7.54765E-07 7.65235E+00-4.69003E+00
 -1       245-1.68418E-06 7.59611E+00-4.76178E+00
 -1       246 3.71068E-12 7.40957E+00-4.49976E+00
 -1       247 3.74338E-12 7.62423E+00-4.72590E+00
 -1       248 3.49294E-12 7.35335E+00-4.57152E+00
 -1       249 0.00000E+00 0.00000E+00 0.00000E+00
 -1       250 0.00000E+00 0.00000E+00 0.00000E+00
 -1       251-1.05071E-09 4.43050E-02-2.76063E-03
 -1       252 1.43875E-09 4.31751E-02-1.55892E-02
 -1       253 0.00000E+00 0.00000E+00 0.00000E+00
 -1       254 0.00000E+00 0.00000E+00 0.00000E+00
 -1       255-5.25508E-10 4.43050E-02-2.76063E-03
 -1       256 7.19310E-10 4.31752E-02-1.55892E-02
 -1       257 0.00000E+00 0.00000E+00 0.00000E+00
 -1       258 1.98759E-10 1.13088E-02-4.21959E-04
 -1       259 1.93927E-10 4.37371E-02-9.17005E-03
 -1       260-3.68256E-10 1.09925E-02-7.00983E-03
 -1       261-2.65591E-09 1.70135E-01-1.95087E-02
 -1       262 2.92661E-09 1.66092E-01-4.35835E-02
 -1       263-1.32799E-09 1.70135E-01-1.95087E-02
 -1       264 1.46343E-09 1.66092E-01-4.35835E-02
 -1       265 8.50002E-10 9.77111E-02-8.66724E-03
 -1       266 1.35093E-10 1.68113E-01-3.15424E-02
 -1       267-1.07073E-09 9.53046E-02-2.73143E-02
 -1       268-4.94235E-09 3.66440E-01-6.01989E-02
 -1       269 4.68667E-09 3.58317E-01-9.38571E-02
 -1       270-2.47110E-09 3.66440E-01-6.01989E-02
 -1       271 2.34359E-09 3.58317E-01-9.38571E-02
 -1       272 1.80458E-09 2.60185E-01-3.63983E-02
 -1       273-1.28200E-10 3.62378E-01-7.70243E-02
 -1       274-1.85387E-09 2.54218E-01-6.54640E-02
 -1       275-8.06829E-09 6.22123E-01-1.30964E-01
 -1       276 6.98242E-09 6.09260E-01-1.72606E-01
 -1       277-4.03388E-09 6.22123E-01-1.30964E-01
 -1       278 3.49166E-09 6.09260E-01-1.72606E-01
 -1       279 3.13749E-09 4.87533E-01-9.15673E-02
 -1       280-5.43457E-10 6.15692E-01-1.51782E-01
 -1       281-2.82845E-09 4.77102E-01-1.29407E-01
 -1       282-1.21829E-08 9.26831E-01-2.34904E-01
 -1       283 1.02096E-08 9.08956E-01-2.83081E-01
 -1       284-6.09091E-09 9.26831E-01-2.34904E-01
 -1       285 5.10551E-09 9.08956E-01-2.83081E-01
 -1       286 4.93220E-09 7.68955E-01-1.78690E-01
 -1       287-9.87403E-10 9.17895E-01-2.58990E-01
 -1       288-4.14654E-09 7.53606E-01-2.23770E-01
 -1       289-1.73568E-08 1.27138E+00-3.72867E-01
 -1       290 1.50129E-08 1.24850E+00-4.26319E-01
 -1       291-8.67751E-09 1.27138E+00-3.72867E-01
 -1       292 7.50752E-09 1.24850E+00-4.26319E-01
 -1       293 7.25471E-09 1.09465E+00-2.99647E-01
 -1       294-1.17308E-09 1.25995E+00-3.99590E-01
 -1       295-6.05120E-09 1.07426E+00-3.50609E-01
 -1       296-2.34683E-08 1.64792E+00-5.44129E-01
 -1       297 2.24492E-08 1.62023E+00-6.01793E-01
 -1       298-1.17328E-08 1.64792E+00-5.44129E-01
 -1       299 1.12261E-08 1.62023E+00-6.01793E-01
 -1       300 1.01101E-08 1.45610E+00-4.54425E-01
 -1       301-5.11264E-10 1.63408E+00-5.72959E-01
 -1       302-8.94341E-09 1.43078E+00-5.10107E-01
 -1       303-3.00245E-08 2.04989E+00-7.46940E-01
 -1       304 3.42219E-08 2.01770E+00-8.07939E-01
 -1       305-1.50103E-08 2.04989E+00-7.46940E-01
 -1       306 1.71131E-08 2.01770E+00-8.07939E-01
 -1       307 1.33721E-08 1.84609E+00-6.41727E-01
 -1       308 2.09620E-09 2.03380E+00-7.77438E-01
 -1       309-1.34783E-08 1.81611E+00-7.01161E-01
 -1       310-3.58934E-08 2.47192E+00-9.78930E-01
 -1       311 5.30106E-08 2.43561E+00-1.04255E+00
 -1       312-1.79440E-08 2.47192E+00-9.78930E-01
 -1       313 2.65081E-08 2.43561E+00-1.04255E+00
 -1       314 1.66745E-08 2.25869E+00-8.59450E-01
 -1       315 8.55516E-09 2.45377E+00-1.01074E+00
 -1       316-2.07037E-08 2.22439E+00-9.21843E-01
 -1       317-3.89284E-08 2.90968E+00-1.23740E+00
 -1       318 8.29171E-08 2.86966E+00-1.30307E+00
 -1       319-1.94607E-08 2.90968E+00-1.23740E+00
 -1       320 4.14620E-08 2.86966E+00-1.30307E+00
 -1       321 1.92517E-08 2.68907E+00-1.10503E+00
 -1       322 2.19891E-08 2.88967E+00-1.27023E+00
 -1       323-3.22511E-08 2.65085E+00-1.16974E+00
 -1       324-3.54732E-08 3.35970E+00-1.51952E+00
 -1       325 1.30016E-07 3.31640E+00-1.58679E+00
 -1       326-1.77327E-08 3.35970E+00-1.51952E+00
 -1       327 6.50119E-08 3.31640E+00-1.58679E+00
 -1       328 1.97223E-08 3.13334E+00-1.37568E+00
 -1       329 4.72659E-08 3.33805E+00-1.55315E+00
 -1       330-5.05908E-08 3.09163E+00-1.44220E+00
 -1       331-1.97870E-08 3.81924E+00-1.82246E+00
 -1       332 2.03013E-07 3.77307E+00-1.89096E+00
 -1       333-9.88886E-09 3.81924E+00-1.82246E+00
 -1       334 1.01510E-07 3.77307E+00-1.89096E+00
 -1       335 1.58088E-08 3.58843E+00-1.66856E+00
 -1       336 9.15997E-08 3.79616E+00-1.85671E+00
 -1       337-7.93308E-08 3.54364E+00-1.73649E+00
 -1       338 1.65469E-08 4.28613E+00-2.14347E+00
 -1       339 3.13723E-07 4.23749E+00-2.21292E+00
 -1       340 8.27415E-09 4.28613E+00-2.14347E+00
 -1       341 1.56863E-07 4.23749E+00-2.21292E+00
 -1       342 4.04566E-09 4.05189E+00-1.98087E+00
 -1       343 1.65140E-07 4.26181E+00-2.17819E+00
 -1       344-1.23569E-07 4.00443E+00-2.04988E+00
 -1       345 8.48637E-08 4.75866E+00-2.47989E+00
 -1       346 4.77660E-07 4.70792E+00-2.55007E+00
 -1       347 4.24368E-08 4.75866E+00-2.47989E+00
 -1       348 2.38828E-07 4.70792E+00-2.55007E+00
 -1       349-2.05372E-08 4.52178E+00-2.30991E+00
 -1       350 2.81184E-07 4.73329E+00-2.51498E+00
 -1       351-1.90053E-07 4.47205E+00-2.37975E+00
 -1       352 1.99240E-07 5.23546E+00-2.82923E+00
 -1       353 7.12133E-07 5.18300E+00-2.89995E+00
 -1       354 9.95884E-08 5.23546E+00-2.82923E+00
 -1       355 3.56044E-07 5.18300E+00-2.89995E+00
 -1       356-6.42879E-08 4.99660E+00-2.65310E+00
 -1       357 4.55911E-07 5.20923E+00-2.86459E+00
 -1       358-2.87502E-07 4.94495E+00-2.72357E+00
 -1       359 3.73701E-07 5.71548E+00-3.18910E+00
 -1       360 1.03830E-06 5.66162E+00-3.26022E+00
 -1       361 1.86888E-07 5.71548E+00-3.18910E+00
 -1       362 5.19157E-07 5.66162E+00-3.26022E+00
 -1       363-1.35097E-07 5.47513E+00-3.00799E+00
 -1       364 7.05046E-07 5.68855E+00-3.22466E+00
 -1       365-4.24775E-07 5.42193E+00-3.07893E+00
 -1       366 6.19388E-07 6.19783E+00-3.55723E+00
 -1       367 1.45842E-06 6.14292E+00-3.62865E+00
 -1       368 3.09434E-07 6.19783E+00-3.55723E+00
 -1       369 7.28944E-07 6.14292E+00-3.62865E+00
 -1       370-2.38660E-07 5.95641E+00-3.37227E+00
 -1       371 1.04249E-06 6.17038E+00-3.59294E+00
 -1       372-6.13376E-07 5.90199E+00-3.44355E+00
 -1       373 9.27059E-07 6.68182E+00-3.93148E+00
 -1       374 2.00573E-06 6.62616E+00-4.00309E+00
 -1       375 4.63998E-07 6.68182E+00-3.93148E+00
 -1       376 1.00361E-06 6.62616E+00-4.00309E+00
 -1       377-3.82318E-07 6.43966E+00-3.74372E+00
 -1       378 1.45225E-06 6.65399E+00-3.96728E+00
 -1       379-8.47205E-07 6.38434E+00-3.81525E+00
 -1       380 1.26521E-06 7.16683E+00-4.30975E+00
 -1       381 2.49037E-06 7.11073E+00-4.38147E+00
 -1       382 6.30885E-07 7.16683E+00-4.30975E+00
 -1       383 1.24108E-06 7.11073E+00-4.38147E+00
 -1       384-5.42839E-07 6.92423E+00-4.12024E+00
 -1       385 1.93283E-06 7.13879E+00-4.34561E+00
 -1       386-1.15461E-06 6.86831E+00-4.19192E+00
 -1       387 1.50357E-06 7.65235E+00-4.69003E+00
 -1       388 3.33579E-06 7.59611E+00-4.76178E+00
 -1       389 7.54772E-07 7.65235E+00-4.69003E+00
 -1       390 1.68419E-06 7.59611E+00-4.76178E+00
 -1       391-7.37247E-07 7.40956E+00-4.49976E+00
 -1       392 2.20351E-06 7.62423E+00-4.72590E+00
 -1       393-1.35756E-06 7.35335E+00-4.57152E+00
 -1       394 0.00000E+00 0.00000E+00 0.00000E+00
 -1       395 1.40684E-09 4.54339E-02 1.00576E-02
 -1       396 0.00000E+00 0.00000E+00 0.00000E+00
 -1       397 3.71590E-14 4.54339E-02 1.00576E-02
 -1       398 0.00000E+00 0.00000E+00 0.00000E+00
 -1       399-4.21707E-10 1.16251E-02 6.17046E-03
 -1       400 1.22814E-09 4.48725E-02 3.64383E-03
 -1       401 0.00000E+00 0.00000E+00 0.00000E+00
 -1       402 7.03109E-10 4.54339E-02 1.00576E-02
 -1       403 0.00000E+00 0.00000E+00 0.00000E+00
 -1       404 1.35836E-14 1.16251E-02 6.17046E-03
 -1       405 2.70937E-14 4.48725E-02 3.64383E-03
 -1       406 2.27368E-09 1.74176E-01 4.55617E-03
 -1       407 1.10121E-13 1.74176E-01 4.55618E-03
 -1       408-9.87180E-10 1.00119E-01 9.98375E-03
 -1       409 2.46435E-09 1.72156E-01-7.47987E-03
 -1       410 1.13654E-09 1.74176E-01 4.55617E-03
 -1       411 6.94073E-14 1.00119E-01 9.98375E-03
 -1       412 8.95723E-14 1.72156E-01-7.47987E-03
 -1       413 2.54542E-09 3.74561E-01-2.65471E-02
 -1       414 2.15753E-13 3.74561E-01-2.65471E-02
 -1       415-1.28938E-09 2.66153E-01-7.32943E-03
 -1       416 3.74338E-09 3.70501E-01-4.33766E-02
 -1       417 1.27233E-09 3.74561E-01-2.65471E-02
 -1       418 1.59074E-13 2.66153E-01-7.32944E-03
 -1       419 1.85472E-13 3.70501E-01-4.33766E-02
 -1       420 1.97728E-09 6.34984E-01-8.93256E-02
 -1       421 3.50674E-13 6.34984E-01-8.93256E-02
 -1       422-1.26002E-09 4.97964E-01-5.37264E-02
 -1       423 5.02222E-09 6.28553E-01-1.10148E-01
 -1       424 9.88164E-10 6.34984E-01-8.93256E-02
 -1       425 2.80355E-13 4.97964E-01-5.37264E-02
 -1       426 3.11554E-13 6.28553E-01-1.10148E-01
 -1       427 6.23695E-11 9.44706E-01-1.86729E-01
 -1       428 5.12515E-13 9.44706E-01-1.86729E-01
 -1       429-7.22820E-10 7.84303E-01-1.33610E-01
 -1       430 6.12189E-09 9.35768E-01-2.10819E-01
 -1       431 3.05558E-11 9.44706E-01-1.86729E-01
 -1       432 4.28787E-13 7.84303E-01-1.33610E-01
 -1       433 4.64326E-13 9.35768E-01-2.10819E-01
 -1       434-4.08360E-09 1.29427E+00-3.19415E-01
 -1       435 6.95127E-13 1.29427E+00-3.19415E-01
 -1       436 6.52546E-10 1.11504E+00-2.48685E-01
 -1       437 6.63557E-09 1.28282E+00-3.46143E-01
 -1       438-2.04265E-09 1.29427E+00-3.19415E-01
 -1       439 6.01672E-13 1.11504E+00-2.48685E-01
 -1       440 6.38030E-13 1.28282E+00-3.46143E-01
 -1       441-1.18938E-08 1.67562E+00-4.86464E-01
 -1       442 8.90345E-13 1.67562E+00-4.86464E-01
 -1       443 3.41977E-09 1.48141E+00-3.98743E-01
 -1       444 5.78587E-09 1.66177E+00-5.15298E-01
 -1       445-5.94802E-09 1.67562E+00-4.86464E-01
 -1       446 7.89494E-13 1.48141E+00-3.98743E-01
 -1       447 8.27002E-13 1.66177E+00-5.15298E-01
 -1       448-2.55945E-08 2.08208E+00-6.85941E-01
 -1       449 1.10128E-12 2.08208E+00-6.85940E-01
 -1       450 8.45809E-09 1.87607E+00-5.82294E-01
 -1       451 2.21294E-09 2.06599E+00-7.16442E-01
 -1       452-1.27987E-08 2.08208E+00-6.85940E-01
 -1       453 9.94680E-13 1.87607E+00-5.82294E-01
 -1       454 1.03099E-12 2.06599E+00-7.16442E-01
 -1       455-4.85378E-08 2.50823E+00-9.15309E-01
 -1       456 1.32356E-12 2.50823E+00-9.15308E-01
 -1       457 1.71147E-08 2.29299E+00-7.97058E-01
 -1       458-6.32480E-09 2.49007E+00-9.47121E-01
 -1       459-2.42707E-08 2.50823E+00-9.15309E-01
 -1       460 1.21291E-12 2.29299E+00-7.97058E-01
 -1       461 1.24504E-12 2.49007E+00-9.47121E-01
 -1       462-8.56200E-08 2.94969E+00-1.17173E+00
 -1       463 1.54919E-12 2.94970E+00-1.17173E+00
 -1       464 3.13951E-08 2.72728E+00-1.04032E+00
 -1       465-2.33503E-08 2.92969E+00-1.20457E+00
 -1       466-4.28118E-08 2.94969E+00-1.17173E+00
 -1       467 1.43919E-12 2.72728E+00-1.04032E+00
 -1       468 1.46621E-12 2.92969E+00-1.20457E+00
 -1       469-1.43778E-07 3.40300E+00-1.45226E+00
 -1       470 1.78091E-12 3.40300E+00-1.45226E+00
 -1       471 5.41917E-08 3.17505E+00-1.30916E+00
 -1       472-5.41550E-08 3.38135E+00-1.48589E+00
 -1       473-7.18905E-08 3.40300E+00-1.45226E+00
 -1       474 1.66736E-12 3.17505E+00-1.30916E+00
 -1       475 1.69123E-12 3.38135E+00-1.48589E+00
 -1       476-2.32424E-07 3.86542E+00-1.75396E+00
 -1       477 2.01501E-12 3.86542E+00-1.75396E+00
 -1       478 8.95539E-08 3.63322E+00-1.60064E+00
 -1       479-1.06334E-07 3.84233E+00-1.78821E+00
 -1       480-1.16210E-07 3.86542E+00-1.75396E+00
 -1       481 1.89492E-12 3.63322E+00-1.60064E+00
 -1       482 1.92331E-12 3.84233E+00-1.78821E+00
 -1       483-3.63826E-07 4.33478E+00-2.07402E+00
 -1       484 2.27498E-12 4.33478E+00-2.07402E+00
 -1       485 1.42850E-07 4.09934E+00-1.91187E+00
 -1       486-1.90165E-07 4.31045E+00-2.10874E+00
 -1       487-1.81911E-07 4.33478E+00-2.07402E+00
 -1       488 2.14488E-12 4.09934E+00-1.91187E+00
 -1       489 2.17955E-12 4.31045E+00-2.10874E+00
 -1       490-5.52337E-07 4.80939E+00-2.40972E+00
 -1       491 2.53253E-12 4.80939E+00-2.40972E+00
 -1       492 2.21006E-07 4.57152E+00-2.24007E+00
 -1       493-3.18721E-07 4.78402E+00-2.44481E+00
 -1       494-2.76144E-07 4.80939E+00-2.40972E+00
 -1       495 2.40390E-12 4.57152E+00-2.24007E+00
 -1       496 2.43234E-12 4.78402E+00-2.44481E+00
 -1       497-8.14249E-07 5.28793E+00-2.75851E+00
 -1       498 2.78029E-12 5.28793E+00-2.75851E+00
 -1       499 3.31434E-07 5.04824E+00-2.58263E+00
 -1       500-5.06374E-07 5.26169E+00-2.79387E+00
 -1       501-4.07131E-07 5.28793E+00-2.75851E+00
 -1       502 2.65448E-12 5.04824E+00-2.58263E+00
 -1       503 2.67791E-12 5.26169E+00-2.79387E+00
 -1       504-1.15809E-06 5.76933E+00-3.11797E+00
 -1       505 3.04516E-12 5.76933E+00-3.11797E+00
 -1       506 4.83222E-07 5.52833E+00-2.93705E+00
 -1       507-7.67295E-07 5.74240E+00-3.15353E+00
 -1       508-5.78862E-07 5.76933E+00-3.11797E+00
 -1       509 2.91299E-12 5.52833E+00-2.93705E+00
 -1       510 2.93814E-12 5.74240E+00-3.15353E+00
 -1       511-1.59495E-06 6.25274E+00-3.48582E+00
 -1       512 3.30537E-12 6.25274E+00-3.48581E+00
 -1       513 6.75252E-07 6.01083E+00-3.30098E+00
 -1       514-1.10230E-06 6.22529E+00-3.52152E+00
 -1       515-7.97783E-07 6.25274E+00-3.48581E+00
 -1       516 3.17277E-12 6.01083E+00-3.30098E+00
 -1       517 3.19650E-12 6.22529E+00-3.52152E+00
 -1       518-2.05148E-06 6.73748E+00-3.85987E+00
 -1       519 3.55653E-12 6.73748E+00-3.85987E+00
 -1       520 9.22326E-07 6.49498E+00-3.67219E+00
 -1       521-1.50688E-06 6.70965E+00-3.89567E+00
 -1       522-1.02418E-06 6.73748E+00-3.85987E+00
 -1       523 3.43322E-12 6.49498E+00-3.67219E+00
 -1       524 3.44611E-12 6.70965E+00-3.89567E+00
 -1       525-2.59126E-06 7.22294E+00-4.23803E+00
 -1       526 3.80139E-12 7.22294E+00-4.23803E+00
 -1       527 1.12689E-06 6.98015E+00-4.04856E+00
 -1       528-1.86542E-06 7.19489E+00-4.27389E+00
 -1       529-1.29973E-06 7.22294E+00-4.23803E+00
 -1       530 3.68044E-12 6.98015E+00-4.04856E+00
 -1       531 3.68883E-12 7.19489E+00-4.27389E+00
 -1       532-2.44124E-06 7.70862E+00-4.61827E+00
 -1       533 4.07241E-12 7.70861E+00-4.61827E+00
 -1       534 1.48734E-06 7.46578E+00-4.42801E+00
 -1       535-2.19900E-06 7.68048E+00-4.65415E+00
 -1       536-1.20624E-06 7.70861E+00-4.61827E+00
 -1       537 3.92825E-12 7.46578E+00-4.42801E+00
 -1       538 3.96291E-12 7.68048E+00-4.65415E+00
 -1       539 0.00000E+00 0.00000E+00 0.00000E+00
 -1       540-1.40676E-09 4.54339E-02 1.00576E-02
 -1       541 0.00000E+00 0.00000E+00 0.00000E+00
 -1       542-7.03035E-10 4.54339E-02 1.00576E-02
 -1       543 0.00000E+00 0.00000E+00 0.00000E+00
 -1       544 4.21734E-10 1.16251E-02 6.17046E-03
 -1       545-1.22809E-09 4.48725E-02 3.64383E-03
 -1       546-2.27346E-09 1.74176E-01 4.55617E-03
 -1       547-1.13632E-09 1.74176E-01 4.55617E-03
 -1       548 9.87319E-10 1.00119E-01 9.98375E-03
 -1       549-2.46417E-09 1.72156E-01-7.47987E-03
 -1       550-2.54498E-09 3.74561E-01-2.65471E-02
 -1       551-1.27190E-09 3.74561E-01-2.65471E-02
 -1       552 1.28970E-09 2.66153E-01-7.32943E-03
 -1       553-3.74301E-09 3.70501E-01-4.33766E-02
 -1       554-1.97658E-09 6.34984E-01-8.93256E-02
 -1       555-9.87462E-10 6.34984E-01-8.93256E-02
 -1       556 1.26058E-09 4.97964E-01-5.37264E-02
 -1       557-5.02160E-09 6.28553E-01-1.10148E-01
 -1       558-6.13447E-11 9.44706E-01-1.86729E-01
 -1       559-2.95309E-11 9.44706E-01-1.86729E-01
 -1       560 7.23677E-10 7.84303E-01-1.33610E-01
 -1       561-6.12096E-09 9.35768E-01-2.10819E-01
 -1       562 4.08499E-09 1.29427E+00-3.19415E-01
 -1       563 2.04404E-09 1.29427E+00-3.19415E-01
 -1       564-6.51343E-10 1.11504E+00-2.48685E-01
 -1       565-6.63429E-09 1.28282E+00-3.46143E-01
 -1       566 1.18955E-08 1.67562E+00-4.86464E-01
 -1       567 5.94980E-09 1.67562E+00-4.86464E-01
 -1       568-3.41819E-09 1.48141E+00-3.98743E-01
 -1       569-5.78421E-09 1.66177E+00-5.15298E-01
 -1       570 2.55967E-08 2.08208E+00-6.85941E-01
 -1       571 1.28009E-08 2.08208E+00-6.85940E-01
 -1       572-8.45610E-09 1.87607E+00-5.82294E-01
 -1       573-2.21088E-09 2.06599E+00-7.16442E-01
 -1       574 4.85405E-08 2.50823E+00-9.15309E-01
 -1       575 2.42733E-08 2.50823E+00-9.15309E-01
 -1       576-1.71123E-08 2.29299E+00-7.97058E-01
 -1       577 6.32729E-09 2.49007E+00-9.47121E-01
 -1       578 8.56231E-08 2.94969E+00-1.17173E+00
 -1       579 4.28149E-08 2.94969E+00-1.17173E+00
 -1       580-3.13922E-08 2.72728E+00-1.04032E+00
 -1       581 2.33532E-08 2.92969E+00-1.20457E+00
 -1       582 1.43782E-07 3.40300E+00-1.45226E+00
 -1       583 7.18941E-08 3.40300E+00-1.45226E+00
 -1       584-5.41884E-08 3.17505E+00-1.30916E+00
 -1       585 5.41584E-08 3.38135E+00-1.48589E+00
 -1       586 2.32428E-07 3.86542E+00-1.75396E+00
 -1       587 1.16215E-07 3.86542E+00-1.75396E+00
 -1       588-8.95501E-08 3.63322E+00-1.60064E+00
 -1       589 1.06338E-07 3.84233E+00-1.78821E+00
 -1       590 3.63831E-07 4.33478E+00-2.07402E+00
 -1       591 1.81916E-07 4.33478E+00-2.07402E+00
 -1       592-1.42846E-07 4.09934E+00-1.91187E+00
 -1       593 1.90169E-07 4.31045E+00-2.10874E+00
 -1       594 5.52342E-07 4.80939E+00-2.40972E+00
 -1       595 2.76150E-07 4.80939E+00-2.40972E+00
 -1       596-2.21001E-07 4.57152E+00-2.24007E+00
 -1       597 3.18726E-07 4.78402E+00-2.44481E+00
 -1       598 8.14255E-07 5.28793E+00-2.75851E+00
 -1       599 4.07137E-07 5.28793E+00-2.75851E+00
 -1       600-3.31429E-07 5.04824E+00-2.58263E+00
 -1       601 5.06379E-07 5.26169E+00-2.79387E+00
 -1       602 1.15810E-06 5.76933E+00-3.11797E+00
 -1       603 5.78868E-07 5.76933E+00-3.11797E+00
 -1       604-4.83216E-07 5.52833E+00-2.93705E+00
 -1       605 7.67301E-07 5.74240E+00-3.15353E+00
 -1       606 1.59496E-06 6.25274E+00-3.48582E+00
 -1       607 7.97789E-07 6.25274E+00-3.48581E+00
 -1       608-6.75246E-07 6.01083E+00-3.30098E+00
 -1       609 1.10231E-06 6.22529E+00-3.52152E+00
 -1       610 2.05148E-06 6.73748E+00-3.85987E+00
 -1       611 1.02419E-06 6.73748E+00-3.85987E+00
 -1       612-9.22319E-07 6.49498E+00-3.67219E+00
 -1       613 1.50688E-06 6.70965E+00-3.89567E+00
 -1       614 2.59127E-06 7.22294E+00-4.23803E+00
 -1       615 1.29973E-06 7.22294E+00-4.23803E+00
 -1       616-1.12689E-06 6.98015E+00-4.04856E+00
 -1       617 1.86543E-06 7.19489E+00-4.27389E+00
 -1       618 2.44125E-06 7.70862E+00-4.61827E+00
 -1       619 1.20625E-06 7.70861E+00-4.61827E+00
 -1       620-1.48733E-06 7.46578E+00-4.42801E+00
 -1       621 2.19901E-06 7.68048E+00-4.65415E+00
 -3
    1PSTEP                        24          12           1          
  100CL  112 6.87500E-01         621                     0   12           1
 -4  STRESS      6    1
 -5  SXX         1    4    1    1
 -5  SYY         1    4    2    2
 -5  SZZ         1    4    3    3
 -5  SXY         1    4    1    2
 -5  SYZ         1    4    2    3
 -5  SZX         1    4    3    1
 -1         1 1.47898E+00-1.78027E+04-2.65604E+06 3.52132E+00-5.20641E+03 5.98432E-01
 -1         2-9.72528E-01-2.82878E+04-5.54908E+04-6.77264E-01 1.22186E+04-1.82300E+00
 -1         3-1.84738E-01-3.28996E+04-5.08588E+04-1.26228E-01 2.19024E+04-2.03081E-01
 -1         4 1.47680E-02-6.49626E+04-2.33613E+06 2.16215E-01-4.20904E+05 8.74910E-02
 -1         5 1.47899E+00-1.78081E+04-2.65604E+06 8.09488E-08-5.20856E+03-1.26777E-06
 -1         6-9.72528E-01-2.82890E+04-5.54896E+04 9.26833E-08 1.22197E+04-5.35551E-08
 -1         7-1.82181E-01-3.28993E+04-5.08578E+04-6.21767E-08 2.19032E+04-8.15560E-08
 -1         8 1.58256E-02-6.49634E+04-2.33613E+06-3.65193E-07-4.20904E+05-2.38011E-06
 -1         9 2.51118E-01-2.29509E+04-1.35542E+06 1.57521E+00 4.49497E+03-6.15237E-01
 -1        10 8.41208E-02-2.78626E+04-5.16262E+04 4.38353E-02 1.67040E+04 7.31483E-02
 -1        11-8.51984E-02-4.89852E+04-1.19331E+06 9.01916E-02-1.99812E+05-7.81129E-02
 -1        12 1.23567E-02-3.71822E+04-2.50033E+06-7.58449E-02-2.12189E+05-4.99029E-02
 -1        13 1.47899E+00-1.78054E+04-2.65604E+06 3.09056E+00-5.20749E+03 4.84710E-01
 -1        14-9.72528E-01-2.82884E+04-5.54902E+04-9.17621E-01 1.22192E+04-1.71835E+00
 -1        15-1.83460E-01-3.28995E+04-5.08583E+04-6.91232E-02 2.19028E+04-6.84321E-02
 -1        16 1.52968E-02-6.49630E+04-2.33613E+06 1.40343E-01-4.20904E+05-1.33362E-02
 -1        17 2.51118E-01-2.29561E+04-1.35542E+06 9.46862E-08 4.49355E+03-6.64267E-07
 -1        18 8.53990E-02-2.78626E+04-5.16268E+04 1.90011E-08 1.67037E+04-6.91423E-08
 -1        19-8.33817E-02-4.89854E+04-1.19331E+06-1.62759E-07-1.99812E+05-1.06501E-06
 -1        20 1.28862E-02-3.71820E+04-2.50033E+06-1.70322E-07-2.12188E+05-1.77998E-06
 -1        21-2.26453E-01-1.44866E+04-4.44368E+04-2.28244E-01 1.46991E+04-3.05340E-01
 -1        22 9.06237E-02-2.31127E+05-1.93617E+06 3.59441E-01-6.72391E+05 7.45644E-02
 -1        23-2.25454E-01-1.44860E+04-4.44362E+04-4.53195E-09 1.47000E+04-3.93385E-08
 -1        24 8.88921E-02-2.31128E+05-1.93617E+06-7.51359E-07-6.72391E+05-1.94967E-06
 -1        25 1.00887E-01-2.32309E+04-4.76721E+04 8.47381E-02 1.79605E+04 1.28123E-01
 -1        26-6.81681E-02-1.22856E+05-9.90188E+05 1.19255E-01-3.28960E+05-1.53604E-01
 -1        27-2.67591E-02-1.48519E+05-2.13464E+06-1.41900E-01-5.49301E+05-3.92833E-02
 -1        28-2.25953E-01-1.44863E+04-4.44365E+04-1.15405E-01 1.46995E+04-1.31515E-01
 -1        29 8.97579E-02-2.31128E+05-1.93617E+06 2.26590E-01-6.72391E+05-1.23898E-02
 -1        30 1.02666E-01-2.32312E+04-4.76725E+04-2.44266E-08 1.79601E+04-5.97520E-08
 -1        31-6.85257E-02-1.22856E+05-9.90188E+05-3.57858E-07-3.28960E+05-8.85866E-07
 -1        32-2.70966E-02-1.48519E+05-2.13464E+06-5.39152E-07-5.49301E+05-2.17925E-06
 -1        33-2.79304E-01-6.71578E+03-3.90807E+04-3.64173E-01 1.14987E+04-3.85539E-01
 -1        34 1.79065E-01-4.03143E+05-1.53295E+06 5.39512E-01-7.89977E+05 7.36531E-02
 -1        35-2.79352E-01-6.71498E+03-3.90803E+04-1.70527E-07 1.14996E+04-1.01135E-07
 -1        36 1.75713E-01-4.03145E+05-1.53295E+06-8.00916E-07-7.89978E+05-1.84958E-06
 -1        37 1.26247E-01-1.08734E+04-4.17709E+04 1.45083E-01 1.26708E+04 1.74494E-01
 -1        38-5.03713E-02-2.04970E+05-7.85951E+05 1.52860E-01-3.89245E+05-2.18322E-01
 -1        39-6.43712E-02-3.18410E+05-1.73268E+06-2.20460E-01-7.32202E+05-3.60903E-02
 -1        40-2.79328E-01-6.71538E+03-3.90805E+04-1.71282E-01 1.14992E+04-1.75195E-01
 -1        41 1.77389E-01-4.03144E+05-1.53295E+06 3.41733E-01-7.89978E+05-4.68143E-03
 -1        42 1.26722E-01-1.08738E+04-4.17711E+04-6.82333E-09 1.26704E+04-4.80592E-08
 -1        43-5.20620E-02-2.04971E+05-7.85950E+05-3.05148E-07-3.89245E+05-8.53818E-07
 -1        44-6.69125E-02-3.18409E+05-1.73268E+06-7.65131E-07-7.32202E+05-1.91549E-06
 -1        45-3.28885E-01 3.05785E+02-3.32972E+04-5.20397E-01 7.47415E+03-4.32619E-01
 -1        46 3.11841E-01-5.49268E+05-1.17264E+06 7.82000E-01-8.04438E+05 8.48174E-02
 -1        47-3.30944E-01 3.06664E+02-3.32972E+04-6.26573E-07 7.47500E+03 7.40745E-09
 -1        48 3.06101E-01-5.49271E+05-1.17264E+06-1.65493E-06-8.04439E+05-1.45301E-06
 -1        49 1.54082E-01-3.78397E+03-3.63079E+04 2.19350E-01 9.26878E+03 2.07249E-01
 -1        50-8.76992E-03-2.74498E+05-6.02940E+05 2.10886E-01-3.98469E+05-2.70090E-01
 -1        51-1.16078E-01-4.77412E+05-1.35115E+06-3.23301E-01-7.97171E+05-3.81997E-02
 -1        52-3.29915E-01 3.06224E+02-3.32972E+04-2.24844E-01 7.47458E+03-1.92275E-01
 -1        53 3.08971E-01-5.49270E+05-1.17264E+06 4.97002E-01-8.04438E+05 8.06440E-03
 -1        54 1.53029E-01-3.78441E+03-3.63079E+04-7.00005E-08 9.26834E+03-1.17597E-07
 -1        55-1.26608E-02-2.74499E+05-6.02939E+05-9.65548E-07-3.98469E+05-7.13001E-07
 -1        56-1.20623E-01-4.77411E+05-1.35115E+06-1.09909E-06-7.97171E+05-1.59881E-06
 -1        57-3.52409E-01 4.73524E+03-2.79511E+04-6.74388E-01 4.45642E+03-4.31947E-01
 -1        58 5.27801E-01-6.49879E+05-8.73441E+05 1.12192E+00-7.54724E+05 1.15824E-01
 -1        59-3.57434E-01 4.73602E+03-2.79515E+04-3.33488E-07 4.45710E+03-3.59077E-07
 -1        60 5.18859E-01-6.49882E+05-8.73441E+05-1.02989E-06-7.54724E+05-1.55247E-06
 -1        61 1.76092E-01 1.87369E+03-3.07020E+04 2.99355E-01 5.94853E+03 2.20174E-01
 -1        62 8.75012E-02-3.22579E+05-4.50685E+05 3.21787E-01-3.75123E+05-3.00940E-01
 -1        63-1.98465E-01-6.00395E+05-1.02209E+06-4.64705E-01-7.79038E+05-4.76343E-02
 -1        64-3.54922E-01 4.73563E+03-2.79513E+04-2.58387E-01 4.45676E+03-1.74100E-01
 -1        65 5.23330E-01-6.49880E+05-8.73441E+05 7.06809E-01-7.54724E+05 2.86406E-02
 -1        66 1.72550E-01 1.87326E+03-3.07020E+04-6.57376E-07 5.94815E+03-1.09836E-07
 -1        67 8.05267E-02-3.22580E+05-4.50685E+05-7.47823E-07-3.75123E+05-9.33372E-07
 -1        68-2.05806E-01-6.00394E+05-1.02209E+06-1.21055E-06-7.79038E+05-1.58883E-06
 -1        69-3.11941E-01 7.80097E+03-2.30251E+04-7.87565E-01 2.09397E+03-3.63665E-01
 -1        70 8.81456E-01-7.04036E+05-6.37706E+05 1.61131E+00-6.70860E+05 1.81141E-01
 -1        71-3.21380E-01 7.80135E+03-2.30259E+04 3.02860E-07 2.09435E+03 2.02716E-07
 -1        72 8.67954E-01-7.04040E+05-6.37706E+05-5.28402E-07-6.70861E+05-1.25019E-06
 -1        73 1.77645E-01 5.71132E+03-2.55742E+04 3.70526E-01 3.40075E+03 2.04694E-01
 -1        74 2.84696E-01-3.48123E+05-3.30358E+05 5.30475E-01-3.34378E+05-2.97143E-01
 -1        75-3.34196E-01-6.77412E+05-7.55206E+05-6.65676E-01-7.12142E+05-6.99704E-02
 -1        76-3.16660E-01 7.80116E+03-2.30255E+04-2.46545E-01 2.09416E+03-1.09706E-01
 -1        77 8.74705E-01-7.04038E+05-6.37706E+05 9.90314E-01-6.70860E+05 6.36136E-02
 -1        78 1.70413E-01 5.71100E+03-2.55739E+04-4.43257E-07 3.40048E+03-2.68740E-08
 -1        79 2.73234E-01-3.48125E+05-3.30359E+05-7.03218E-07-3.34378E+05-4.97878E-07
 -1        80-3.45418E-01-6.77411E+05-7.55206E+05-9.63644E-07-7.12142E+05-1.32086E-06
 -1        81-1.47987E-01 9.81233E+03-1.87202E+04-7.97973E-01 4.31286E+02-2.02221E-01
 -1        82 1.45097E+00-7.17962E+05-4.58670E+05 2.32475E+00-5.74370E+05 3.01249E-01
 -1        83-1.63609E-01 9.81191E+03-1.87215E+04-1.48744E-06 4.31219E+02-1.54535E-07
 -1        84 1.43120E+00-7.17967E+05-4.58670E+05-8.44640E-07-5.74371E+05-5.59965E-07
 -1        85 1.35187E-01 8.38469E+03-2.09789E+04 4.08649E-01 1.45662E+03 1.49462E-01
 -1        86 6.51664E-01-3.54081E+05-2.38687E+05 9.04839E-01-2.86968E+05-2.39272E-01
 -1        87-5.55639E-01-7.11195E+05-5.48201E+05-9.57178E-01-6.22050E+05-1.13897E-01
 -1        88-1.55798E-01 9.81212E+03-1.87208E+04-1.54624E-01 4.31253E+02 1.43246E-02
 -1        89 1.44108E+00-7.17964E+05-4.58670E+05 1.37044E+00-5.74371E+05 1.22252E-01
 -1        90 1.22657E-01 8.38466E+03-2.09784E+04-1.21249E-07 1.45653E+03 2.25972E-07
 -1        91 6.33972E-01-3.54083E+05-2.38688E+05-7.10492E-07-2.86968E+05-3.54184E-07
 -1        92-5.72279E-01-7.11192E+05-5.48201E+05-5.93587E-07-6.22050E+05-1.05624E-06
 -1        93 2.28443E-01 1.11517E+04-1.50578E+04-6.11731E-01-6.93220E+02 8.32398E-02
 -1        94 2.34599E+00-7.00899E+05-3.26316E+05 3.36431E+00-4.78553E+05 5.02473E-01
 -1        95 2.04507E-01 1.11499E+04-1.50597E+04 1.67515E-06-6.93923E+02 1.22576E-06
 -1        96 2.31815E+00-7.00905E+05-3.26316E+05-6.16494E-06-4.78554E+05-1.24137E-06
 -1        97 1.23717E-02 1.01885E+04-1.70151E+04 3.75973E-01 7.66698E+01 4.02882E-02
 -1        98 1.28781E+00-3.44881E+05-1.70678E+05 1.54248E+00-2.39623E+05-1.02353E-01
 -1        99-9.09272E-01-7.09479E+05-3.92705E+05-1.38232E+00-5.26040E+05-1.91003E-01
 -1       100 2.16475E-01 1.11508E+04-1.50588E+04 6.15032E-02-6.93572E+02 2.13169E-01
 -1       101 2.33207E+00-7.00902E+05-3.26316E+05 1.86904E+00-4.78553E+05 2.15755E-01
 -1       102-7.40685E-03 1.01890E+04-1.70143E+04-1.74556E-07 7.68580E+01 4.27947E-07
 -1       103 1.26193E+00-3.44885E+05-1.70679E+05-2.47719E-06-2.39624E+05-1.13650E-07
 -1       104-9.33080E-01-7.09476E+05-3.92705E+05-1.63739E-06-5.26040E+05-7.23906E-07
 -1       105 9.42309E-01 1.20417E+04-1.20214E+04-9.86963E-02-1.40520E+03 5.27436E-01
 -1       106 3.71478E+00-6.61954E+05-2.30370E+05 4.85503E+00-3.90682E+05 8.16830E-01
 -1       107 9.08680E-01 1.20378E+04-1.20240E+04-9.44183E-07-1.40673E+03-3.57547E-07
 -1       108 3.67741E+00-6.61961E+05-2.30370E+05-9.21836E-07-3.90683E+05-7.60412E-07
 -1       109-2.44090E-01 1.14040E+04-1.36755E+04 2.16840E-01-8.58659E+02-1.39378E-01
 -1       110 2.32960E+00-3.24964E+05-1.21186E+05 2.57063E+00-1.96044E+05 1.43728E-01
 -1       111-1.45926E+00-6.81405E+05-2.78631E+05-1.99874E+00-4.34334E+05-3.15735E-01
 -1       112 9.25494E-01 1.20397E+04-1.20227E+04 4.51317E-01-1.40597E+03 5.02387E-01
 -1       113 3.69609E+00-6.61957E+05-2.30370E+05 2.49573E+00-3.90683E+05 3.56032E-01
 -1       114-2.72873E-01 1.14054E+04-1.36744E+04 2.30343E-07-8.58102E+02 1.14215E-07
 -1       115 2.29411E+00-3.24968E+05-1.21188E+05-1.41154E-06-1.96045E+05-4.88816E-07
 -1       116-1.49186E+00-6.81402E+05-2.78631E+05-4.62482E-06-4.34333E+05-9.65527E-07
 -1       117 2.15839E+00 1.26391E+04-9.54968E+03 9.14068E-01-1.82450E+03 1.16524E+00
 -1       118 5.74064E+00-6.08841E+05-1.61794E+05 6.94840E+00-3.13948E+05 1.28215E+00
 -1       119 2.11329E+00 1.26325E+04-9.55294E+03-1.07085E-06-1.82701E+03 6.41480E-07
 -1       120 5.69442E+00-6.08848E+05-1.61795E+05-9.89753E-08-3.13948E+05-1.54823E-06
 -1       121-7.06669E-01 1.22192E+04-1.09206E+04-1.41823E-01-1.45379E+03-4.07407E-01
 -1       122 3.95184E+00-2.98108E+05-8.56637E+04 4.15063E+00-1.57886E+05 5.33860E-01
 -1       123-2.29072E+00-6.35352E+05-1.96376E+05-2.87125E+00-3.52139E+05-5.05325E-01
 -1       124 2.13584E+00 1.26358E+04-9.55131E+03 1.05865E+00-1.82576E+03 8.93911E-01
 -1       125 5.71753E+00-6.08844E+05-1.61795E+05 3.22487E+00-3.13948E+05 5.54824E-01
 -1       126-7.46035E-01 1.22217E+04-1.09191E+04 1.18482E-07-1.45278E+03-2.39083E-08
 -1       127 3.90618E+00-2.98114E+05-8.56652E+04-6.02854E-08-1.57888E+05 2.76784E-07
 -1       128-2.33251E+00-6.35349E+05-1.96376E+05-3.65383E-06-3.52139E+05-1.04020E-06
 -1       129 4.06729E+00 1.30436E+04-7.56731E+03 2.60365E+00-2.04368E+03 2.02728E+00
 -1       130 8.64007E+00-5.47494E+05-1.13262E+05 9.73629E+00-2.49054E+05 1.93820E+00
 -1       131 4.01809E+00 1.30340E+04-7.57123E+03 2.53951E-06-2.04724E+03-1.34166E-06
 -1       132 8.58855E+00-5.47498E+05-1.13263E+05-1.70600E-06-2.49055E+05 1.42361E-06
 -1       133-1.46916E+00 1.27677E+04-8.68505E+03-7.96753E-01-1.80371E+03-7.80277E-01
 -1       134 6.35559E+00-2.67232E+05-6.04077E+04 6.41632E+00-1.25548E+05 1.10392E+00
 -1       135-3.50418E+00-5.78122E+05-1.37794E+05-4.08134E+00-2.81401E+05-7.79534E-01
 -1       136 4.04269E+00 1.30388E+04-7.56927E+03 1.89469E+00-2.04546E+03 1.39440E+00
 -1       137 8.61431E+00-5.47496E+05-1.13262E+05 3.95505E+00-2.49054E+05 8.17759E-01
 -1       138-1.51631E+00 1.27717E+04-8.68325E+03-5.04338E-07-1.80217E+03 7.20259E-08
 -1       139 6.30523E+00-2.67238E+05-6.04097E+04 1.01914E-06-1.25551E+05 2.67925E-07
 -1       140-3.55305E+00-5.78119E+05-1.37794E+05 4.85009E-07-2.81401E+05-1.28129E-06
 -1       141 6.86800E+00 1.33202E+04-5.99624E+03 5.19671E+00-2.13304E+03 3.12235E+00
 -1       142 1.25788E+01-4.82159E+05-7.91260E+04 1.33830E+01-1.95331E+05 2.83182E+00
 -1       143 6.80879E+00 1.33080E+04-6.00074E+03 3.18591E-06-2.13753E+03 6.96260E-07
 -1       144 1.25357E+01-4.82155E+05-7.91270E+04-2.56257E-06-1.95331E+05-1.88280E-06
 -1       145-2.62852E+00 1.31390E+04-6.89641E+03-1.82254E+00-1.98405E+03-1.27113E+00
 -1       146 9.73240E+00-2.34425E+05-4.25561E+04 9.55958E+00-9.87308E+04 1.89341E+00
 -1       147-5.21422E+00-5.14789E+05-9.64197E+04-5.63130E+00-2.22142E+05-1.15795E+00
 -1       148 6.83839E+00 1.33141E+04-5.99849E+03 2.89589E+00-2.13528E+03 1.98372E+00
 -1       149 1.25573E+01-4.82157E+05-7.91265E+04 4.43194E+00-1.95331E+05 1.14925E+00
 -1       150-2.68272E+00 1.31445E+04-6.89430E+03 3.04948E-06-1.98200E+03-6.65744E-07
 -1       151 9.68124E+00-2.34428E+05-4.25586E+04 1.73337E-07-9.87349E+04 2.82899E-08
 -1       152-5.26152E+00-5.14789E+05-9.64192E+04-4.67717E-08-2.22142E+05 6.61414E-07
 -1       153 1.06344E+01 1.35106E+04-4.76374E+03 8.55009E+00-2.14319E+03 4.44546E+00
 -1       154 1.77179E+01-4.15675E+05-5.51811E+04 1.72263E+01-1.51451E+05 3.96796E+00
 -1       155 1.06399E+01 1.34981E+04-4.76856E+03-9.89850E-07-2.14821E+03-1.12864E-06
 -1       156 1.77107E+01-4.15655E+05-5.51823E+04-1.28519E-07-1.51450E+05-4.60190E-07
 -1       157-4.29268E+00 1.33927E+04-5.48322E+03-3.36048E+00-2.05280E+03-1.87430E+00
 -1       158 1.41670E+01-2.01087E+05-2.99695E+04 1.31772E+01-7.67951E+04 2.91029E+00
 -1       159-7.48508E+00-4.48888E+05-6.73390E+04-7.66576E+00-1.73369E+05-1.66419E+00
 -1       160 1.06371E+01 1.35044E+04-4.76615E+03 3.82117E+00-2.14570E+03 2.64936E+00
 -1       161 1.77143E+01-4.15665E+05-5.51817E+04 4.14334E+00-1.51451E+05 1.50315E+00
 -1       162-4.31952E+00 1.33991E+04-5.48086E+03 1.97554E-06-2.05037E+03-2.97709E-07
 -1       163 1.41662E+01-2.01082E+05-2.99725E+04-1.18771E-06-7.68000E+04-1.57922E-06
 -1       164-7.51018E+00-4.48893E+05-6.73385E+04-4.63136E-06-1.73369E+05-8.08362E-07
 -1       165 1.53304E+01 1.36428E+04-3.80612E+03 1.31579E+01-2.11009E+03 5.84311E+00
 -1       166 2.35604E+01-3.49789E+05-3.83668E+04 2.23733E+01-1.15858E+05 5.45194E+00
 -1       167 1.52704E+01 1.36357E+04-3.81109E+03 5.54285E-06-2.11447E+03 1.67425E-06
 -1       168 2.36177E+01-3.49738E+05-3.83677E+04-5.57366E-06-1.15854E+05-2.25031E-06
 -1       169-6.41134E+00 1.35679E+04-4.38087E+03-5.11015E+00-2.05262E+03-2.58751E+00
 -1       170 1.95122E+01-1.68079E+05-2.10850E+04 1.80563E+01-5.89790E+04 4.21304E+00
 -1       171-1.03713E+01-3.82703E+05-4.69247E+04-9.36426E+00-1.33642E+05-2.28298E+00
 -1       172 1.53004E+01 1.36393E+04-3.80860E+03 4.17697E+00-2.11228E+03 3.19006E+00
 -1       173 2.35891E+01-3.49763E+05-3.83673E+04 2.07013E+00-1.15856E+05 1.91092E+00
 -1       174-6.43859E+00 1.35733E+04-4.37845E+03 2.92940E-06-2.05011E+03 8.33128E-07
 -1       175 1.95107E+01-1.68055E+05-2.10885E+04 2.52513E-06-5.89841E+04 1.48724E-07
 -1       176-1.03462E+01-3.82719E+05-4.69241E+04-1.40227E-06-1.33643E+05-2.13193E-06
 -1       177 1.99602E+01 1.37372E+04-3.06903E+03 1.54544E+01-2.05617E+03 7.35001E+00
 -1       178 3.02040E+01-2.85458E+05-2.64859E+04 2.06345E+01-8.69882E+04 6.77747E+00
 -1       179 2.04853E+01 1.37471E+04-3.07306E+03-3.04702E-06-2.05853E+03-1.11560E-06
 -1       180 3.05853E+01-2.85349E+05-2.64873E+04-3.22149E-06-8.69818E+04 6.54804E-08
 -1       181-9.06057E+00 1.36889E+04-3.53394E+03-7.83666E+00-2.01337E+03-3.25731E+00
 -1       182 2.48853E+01-1.35867E+05-1.47780E+04 1.83112E+01-4.45150E+04 5.50014E+00
 -1       183-1.34798E+01-3.17573E+05-3.25512E+04-1.25821E+01-1.01403E+05-3.11053E+00
 -1       184 2.02227E+01 1.37422E+04-3.07105E+03 2.79628E+00-2.05735E+03 3.82718E+00
 -1       185 3.03947E+01-2.85403E+05-2.64866E+04-3.39632E+00-8.69850E+04 1.90195E+00
 -1       186-8.82808E+00 1.36892E+04-3.53149E+03-1.70999E-06-2.01168E+03 3.07481E-07
 -1       187 2.53385E+01-1.35804E+05-1.47812E+04-4.43044E-06-4.45189E+04-1.22593E-06
 -1       188-1.32605E+01-3.17610E+05-3.25511E+04 1.07295E-07-1.01407E+05-1.08043E-06
 -1       189 2.37740E+01 1.38185E+04-2.51368E+03 2.33781E+01-2.00070E+03 7.60378E+00
 -1       190 3.25211E+01-2.23056E+05-1.79872E+04 3.35921E+01-6.34258E+04 9.49463E+00
 -1       191 2.31962E+01 1.38651E+04-2.51722E+03-2.39009E-07-1.99566E+03-3.20450E-06
 -1       192 3.24615E+01-2.22855E+05-1.79848E+04 5.53854E-06-6.34011E+04-2.96367E-06
 -1       193-1.09301E+01 1.37706E+04-2.89642E+03-7.17748E+00-1.95902E+03-4.06566E+00
 -1       194 2.89361E+01-1.04637E+05-1.02454E+04 2.87212E+01-3.26848E+04 7.45714E+00
 -1       195-1.67049E+01-2.54137E+05-2.23441E+04-7.35717E+00-7.51644E+04-3.60101E+00
 -1       196 2.34851E+01 1.38418E+04-2.51545E+03-1.77085E+00-1.99818E+03 2.79069E+00
 -1       197 3.24913E+01-2.22956E+05-1.79860E+04-1.56607E+01-6.34135E+04 2.52982E+00
 -1       198-1.09564E+01 1.37578E+04-2.89487E+03-2.62016E-06-1.95873E+03-2.29852E-06
 -1       199 2.86169E+01-1.04505E+05-1.02505E+04 1.68519E-06-3.26847E+04-3.75814E-06
 -1       200-1.65442E+01-2.54214E+05-2.23432E+04-2.63610E-06-7.51676E+04 4.31229E-07
 -1       201 2.04780E+01 1.39059E+04-2.09903E+03-3.83044E+00-1.92855E+03 9.31838E+00
 -1       202 3.68888E+01-1.62665E+05-1.17339E+04-3.68745E+01-4.37695E+04 5.83538E+00
 -1       203 2.46664E+01 1.40276E+04-2.09740E+03 5.55898E-08-1.91779E+03 3.07994E-06
 -1       204 4.11632E+01-1.62281E+05-1.17377E+04 3.25445E-07-4.37645E+04-1.58836E-06
 -1       205-1.34336E+01 1.38116E+04-2.42991E+03-1.53639E+01-1.89748E+03-3.45365E+00
 -1       206 2.58670E+01-7.43860E+04-6.92101E+03-2.05510E+01-2.28359E+04 6.31040E+00
 -1       207-1.71953E+01-1.92573E+05-1.49594E+04-2.46598E+01-5.35162E+04-5.63096E+00
 -1       208 2.25722E+01 1.39668E+04-2.09822E+03-1.40996E+01-1.92317E+03 4.98227E+00
 -1       209 3.90260E+01-1.62473E+05-1.17358E+04-3.75893E+01-4.37670E+04-1.61651E+00
 -1       210-1.16284E+01 1.37735E+04-2.42832E+03 9.34746E-07-1.90333E+03 5.78111E-07
 -1       211 3.00990E+01-7.41350E+04-6.91718E+03 1.17360E-07-2.28274E+04 2.70149E-06
 -1       212-1.50873E+01-1.92705E+05-1.49622E+04 3.45264E-06-5.35397E+04-4.13651E-06
 -1       213 1.03144E+01 1.40907E+04-1.87216E+03 6.23121E+01-1.90511E+03-2.32907E+00
 -1       214 1.26225E+00-1.03870E+05-7.04077E+03 1.43495E+02-2.72357E+04 2.40457E+01
 -1       215 2.85843E+00 1.43279E+04-1.86926E+03 3.84704E-06-1.85313E+03-4.58709E-06
 -1       216-1.07354E+01-1.03297E+05-7.02267E+03 3.85318E-06-2.70679E+04 3.23965E-06
 -1       217-5.62831E+00 1.38185E+04-2.10340E+03 2.06450E+01-1.87461E+03-5.76872E+00
 -1       218 1.63758E+01-4.49968E+04-4.39066E+03 1.03753E+02-1.43701E+04 1.36130E+01
 -1       219-1.61008E+01-1.32613E+05-9.46374E+03 6.28149E+01-3.53899E+04-2.10229E-01
 -1       220 6.58643E+00 1.42093E+04-1.87071E+03-3.39930E+01-1.87912E+03-1.04419E+01
 -1       221-4.73659E+00-1.03584E+05-7.03172E+03-8.33805E+01-2.71518E+04 7.72073E+00
 -1       222-7.26145E+00 1.37283E+04-2.10556E+03 2.86554E-06-1.88077E+03 4.27717E-08
 -1       223 6.64785E+00-4.45466E+04-4.41825E+03 1.93901E-06-1.43437E+04-2.43605E-06
 -1       224-1.99646E+01-1.32877E+05-9.46066E+03 1.13489E-06-3.53703E+04 3.01742E-07
 -1       225-3.19307E+01 1.43099E+04-1.65025E+03-2.92712E+02-1.62836E+03 2.04979E+01
 -1       226 2.84847E+01-4.71299E+04-3.00435E+03-7.24684E+02-1.13176E+04-5.68876E+01
 -1       227-4.40412E+00 1.47933E+04-1.64777E+03-1.06651E-07-1.62050E+03 1.46526E-06
 -1       228 9.41682E+01-4.58935E+04-3.01335E+03-4.25641E-06-1.16132E+04-1.87942E-06
 -1       229-1.05535E+01 1.37069E+04-1.86482E+03-8.06503E+01-1.79099E+03 8.65394E+00
 -1       230-4.09955E+01-1.62664E+04-2.43862E+03-5.14910E+02-6.73021E+03-1.96042E+01
 -1       231 1.60722E-01-7.41083E+04-5.07337E+03-1.99348E+02-1.91552E+04-2.23505E+01
 -1       232-1.81674E+01 1.45516E+04-1.64901E+03-8.72105E+01-1.62443E+03 3.00044E+01
 -1       233 6.13264E+01-4.65117E+04-3.00885E+03-1.36977E+02-1.14654E+04-4.40152E+01
 -1       234-5.20714E-01 1.35494E+04-1.86968E+03 7.99771E-08-1.83690E+03-3.78069E-06
 -1       235 5.61033E+00-1.55151E+04-2.33304E+03-1.60003E-07-6.67764E+03 7.58436E-07
 -1       236 2.70115E+01-7.44338E+04-5.08421E+03-2.34002E-07-1.93567E+04 1.08059E-06
 -1       237-1.61308E+02 1.14291E+04-2.35914E+03 8.95248E+02-2.30841E+03-2.00765E+02
 -1       238-5.58782E+02 2.11248E+04 8.08095E+01 2.35261E+03 3.27984E+02 5.46831E+01
 -1       239-2.09085E+02 8.50794E+03-2.24831E+03-3.43545E-06-2.45346E+03 3.87335E-07
 -1       240-8.19520E+02 1.24944E+04 1.59187E+01 9.71288E-07 1.16300E+03-1.03030E-05
 -1       241 6.42452E+01 1.36407E+04-1.74394E+03 3.77551E+02-2.10628E+03-3.02097E+01
 -1       242-2.12469E+02 1.60438E+04-7.48770E+02 1.66598E+03-5.19206E+02-4.45556E+01
 -1       243 2.43014E+01-1.54402E+04-1.47105E+03 9.16049E+02-5.92864E+03 7.68114E+01
 -1       244-1.85196E+02 9.96850E+03-2.30372E+03 4.41419E+02-2.38094E+03-1.68524E+02
 -1       245-6.89151E+02 1.68096E+04 4.83641E+01 8.29643E+02 7.45490E+02 1.24086E+02
 -1       246 5.41218E+01 1.33024E+04-1.72531E+03 5.24895E-07-2.07462E+03 1.58547E-06
 -1       247-3.66727E+02 1.05467E+04-1.09812E+03-4.98880E-07-7.16288E+02-2.97716E-06
 -1       248-7.32317E+01-1.63848E+04-1.49348E+03-1.33827E-06-5.39545E+03-5.49374E-06
 -1       249 1.47898E+00-1.78027E+04-2.65604E+06-3.52132E+00-5.20641E+03-5.98435E-01
 -1       250-9.72528E-01-2.82878E+04-5.54908E+04 6.77264E-01 1.22186E+04 1.82300E+00
 -1       251-1.84738E-01-3.28996E+04-5.08588E+04 1.26228E-01 2.19024E+04 2.03081E-01
 -1       252 1.47679E-02-6.49626E+04-2.33613E+06-2.16215E-01-4.20904E+05-8.74916E-02
 -1       253 1.47899E+00-1.78054E+04-2.65604E+06-3.09056E+00-5.20749E+03-4.84713E-01
 -1       254-9.72528E-01-2.82884E+04-5.54902E+04 9.17621E-01 1.22192E+04 1.71835E+00
 -1       255-1.83460E-01-3.28995E+04-5.08583E+04 6.91231E-02 2.19028E+04 6.84320E-02
 -1       256 1.52967E-02-6.49630E+04-2.33613E+06-1.40344E-01-4.20904E+05 1.33336E-02
 -1       257 2.51117E-01-2.29509E+04-1.35542E+06-1.57521E+00 4.49497E+03 6.15236E-01
 -1       258 8.41208E-02-2.78626E+04-5.16262E+04-4.38353E-02 1.67040E+04-7.31484E-02
 -1       259-8.51984E-02-4.89852E+04-1.19331E+06-9.01917E-02-1.99812E+05 7.81129E-02
 -1       260 1.23566E-02-3.71822E+04-2.50033E+06 7.58448E-02-2.12189E+05 4.99015E-02
 -1       261-2.26453E-01-1.44866E+04-4.44368E+04 2.28244E-01 1.46991E+04 3.05340E-01
 -1       262 9.06237E-02-2.31127E+05-1.93617E+06-3.59441E-01-6.72391E+05-7.45658E-02
 -1       263-2.25953E-01-1.44863E+04-4.44365E+04 1.15405E-01 1.46995E+04 1.31515E-01
 -1       264 8.97579E-02-2.31128E+05-1.93617E+06-2.26591E-01-6.72391E+05 1.23872E-02
 -1       265 1.00887E-01-2.32309E+04-4.76721E+04-8.47380E-02 1.79605E+04-1.28123E-01
 -1       266-6.81681E-02-1.22856E+05-9.90188E+05-1.19256E-01-3.28960E+05 1.53604E-01
 -1       267-2.67590E-02-1.48519E+05-2.13464E+06 1.41899E-01-5.49301E+05 3.92823E-02
 -1       268-2.79304E-01-6.71578E+03-3.90807E+04 3.64173E-01 1.14987E+04 3.85539E-01
 -1       269 1.79065E-01-4.03143E+05-1.53295E+06-5.39512E-01-7.89977E+05-7.36545E-02
 -1       270-2.79328E-01-6.71538E+03-3.90805E+04 1.71281E-01 1.14992E+04 1.75195E-01
 -1       271 1.77389E-01-4.03144E+05-1.53295E+06-3.41734E-01-7.89978E+05 4.67891E-03
 -1       272 1.26247E-01-1.08734E+04-4.17709E+04-1.45083E-01 1.26708E+04-1.74494E-01
 -1       273-5.03713E-02-2.04970E+05-7.85951E+05-1.52860E-01-3.89245E+05 2.18321E-01
 -1       274-6.43712E-02-3.18410E+05-1.73268E+06 2.20460E-01-7.32202E+05 3.60890E-02
 -1       275-3.28885E-01 3.05785E+02-3.32972E+04 5.20398E-01 7.47415E+03 4.32619E-01
 -1       276 3.11841E-01-5.49268E+05-1.17264E+06-7.82001E-01-8.04438E+05-8.48185E-02
 -1       277-3.29915E-01 3.06224E+02-3.32972E+04 2.24844E-01 7.47458E+03 1.92275E-01
 -1       278 3.08971E-01-5.49270E+05-1.17264E+06-4.97004E-01-8.04438E+05-8.06638E-03
 -1       279 1.54082E-01-3.78397E+03-3.63079E+04-2.19350E-01 9.26878E+03-2.07249E-01
 -1       280-8.76992E-03-2.74498E+05-6.02940E+05-2.10886E-01-3.98469E+05 2.70089E-01
 -1       281-1.16078E-01-4.77412E+05-1.35115E+06 3.23300E-01-7.97171E+05 3.81986E-02
 -1       282-3.52409E-01 4.73524E+03-2.79511E+04 6.74388E-01 4.45642E+03 4.31947E-01
 -1       283 5.27801E-01-6.49879E+05-8.73441E+05-1.12192E+00-7.54724E+05-1.15825E-01
 -1       284-3.54922E-01 4.73563E+03-2.79513E+04 2.58387E-01 4.45676E+03 1.74100E-01
 -1       285 5.23330E-01-6.49880E+05-8.73441E+05-7.06810E-01-7.54724E+05-2.86424E-02
 -1       286 1.76092E-01 1.87369E+03-3.07020E+04-2.99354E-01 5.94853E+03-2.20174E-01
 -1       287 8.75012E-02-3.22579E+05-4.50685E+05-3.21788E-01-3.75123E+05 3.00940E-01
 -1       288-1.98465E-01-6.00395E+05-1.02209E+06 4.64705E-01-7.79038E+05 4.76331E-02
 -1       289-3.11941E-01 7.80097E+03-2.30251E+04 7.87564E-01 2.09397E+03 3.63664E-01
 -1       290 8.81456E-01-7.04036E+05-6.37706E+05-1.61131E+00-6.70860E+05-1.81142E-01
 -1       291-3.16660E-01 7.80116E+03-2.30255E+04 2.46545E-01 2.09416E+03 1.09706E-01
 -1       292 8.74705E-01-7.04038E+05-6.37706E+05-9.90315E-01-6.70860E+05-6.36157E-02
 -1       293 1.77645E-01 5.71132E+03-2.55742E+04-3.70526E-01 3.40075E+03-2.04695E-01
 -1       294 2.84697E-01-3.48123E+05-3.30358E+05-5.30475E-01-3.34378E+05 2.97142E-01
 -1       295-3.34196E-01-6.77412E+05-7.55206E+05 6.65675E-01-7.12142E+05 6.99693E-02
 -1       296-1.47987E-01 9.81233E+03-1.87202E+04 7.97976E-01 4.31286E+02 2.02222E-01
 -1       297 1.45097E+00-7.17962E+05-4.58670E+05-2.32475E+00-5.74370E+05-3.01250E-01
 -1       298-1.55798E-01 9.81212E+03-1.87208E+04 1.54624E-01 4.31253E+02-1.43244E-02
 -1       299 1.44108E+00-7.17964E+05-4.58670E+05-1.37044E+00-5.74371E+05-1.22253E-01
 -1       300 1.35187E-01 8.38469E+03-2.09789E+04-4.08648E-01 1.45662E+03-1.49463E-01
 -1       301 6.51664E-01-3.54081E+05-2.38687E+05-9.04840E-01-2.86968E+05 2.39272E-01
 -1       302-5.55639E-01-7.11195E+05-5.48201E+05 9.57176E-01-6.22050E+05 1.13896E-01
 -1       303 2.28443E-01 1.11517E+04-1.50578E+04 6.11726E-01-6.93220E+02-8.32400E-02
 -1       304 2.34599E+00-7.00899E+05-3.26316E+05-3.36430E+00-4.78553E+05-5.02473E-01
 -1       305 2.16475E-01 1.11508E+04-1.50588E+04-6.15040E-02-6.93572E+02-2.13167E-01
 -1       306 2.33207E+00-7.00902E+05-3.26316E+05-1.86905E+00-4.78553E+05-2.15757E-01
 -1       307 1.23718E-02 1.01885E+04-1.70151E+04-3.75973E-01 7.66698E+01-4.02879E-02
 -1       308 1.28781E+00-3.44881E+05-1.70678E+05-1.54248E+00-2.39623E+05 1.02352E-01
 -1       309-9.09272E-01-7.09479E+05-3.92705E+05 1.38232E+00-5.26040E+05 1.91002E-01
 -1       310 9.42309E-01 1.20417E+04-1.20214E+04 9.86980E-02-1.40520E+03-5.27437E-01
 -1       311 3.71478E+00-6.61954E+05-2.30370E+05-4.85502E+00-3.90682E+05-8.16832E-01
 -1       312 9.25494E-01 1.20397E+04-1.20227E+04-4.51317E-01-1.40597E+03-5.02387E-01
 -1       313 3.69609E+00-6.61957E+05-2.30370E+05-2.49573E+00-3.90683E+05-3.56034E-01
 -1       314-2.44090E-01 1.14040E+04-1.36755E+04-2.16842E-01-8.58659E+02 1.39379E-01
 -1       315 2.32960E+00-3.24964E+05-1.21186E+05-2.57063E+00-1.96044E+05-1.43729E-01
 -1       316-1.45926E+00-6.81405E+05-2.78631E+05 1.99874E+00-4.34334E+05 3.15734E-01
 -1       317 2.15839E+00 1.26391E+04-9.54968E+03-9.14068E-01-1.82450E+03-1.16524E+00
 -1       318 5.74064E+00-6.08841E+05-1.61794E+05-6.94840E+00-3.13948E+05-1.28214E+00
 -1       319 2.13584E+00 1.26358E+04-9.55131E+03-1.05865E+00-1.82576E+03-8.93910E-01
 -1       320 5.71753E+00-6.08844E+05-1.61795E+05-3.22487E+00-3.13948E+05-5.54824E-01
 -1       321-7.06669E-01 1.22192E+04-1.09206E+04 1.41821E-01-1.45379E+03 4.07407E-01
 -1       322 3.95184E+00-2.98108E+05-8.56637E+04-4.15064E+00-1.57886E+05-5.33858E-01
 -1       323-2.29072E+00-6.35352E+05-1.96376E+05 2.87126E+00-3.52139E+05 5.05326E-01
 -1       324 4.06729E+00 1.30436E+04-7.56731E+03-2.60365E+00-2.04368E+03-2.02728E+00
 -1       325 8.64007E+00-5.47494E+05-1.13262E+05-9.73630E+00-2.49054E+05-1.93821E+00
 -1       326 4.04269E+00 1.30388E+04-7.56927E+03-1.89469E+00-2.04546E+03-1.39440E+00
 -1       327 8.61431E+00-5.47496E+05-1.13262E+05-3.95505E+00-2.49054E+05-8.17760E-01
 -1       328-1.46917E+00 1.27677E+04-8.68505E+03 7.96753E-01-1.80371E+03 7.80280E-01
 -1       329 6.35559E+00-2.67232E+05-6.04077E+04-6.41632E+00-1.25548E+05-1.10392E+00
 -1       330-3.50418E+00-5.78122E+05-1.37794E+05 4.08134E+00-2.81401E+05 7.79533E-01
 -1       331 6.86800E+00 1.33202E+04-5.99624E+03-5.19672E+00-2.13304E+03-3.12235E+00
 -1       332 1.25788E+01-4.82159E+05-7.91260E+04-1.33830E+01-1.95331E+05-2.83182E+00
 -1       333 6.83839E+00 1.33141E+04-5.99849E+03-2.89589E+00-2.13528E+03-1.98372E+00
 -1       334 1.25573E+01-4.82157E+05-7.91265E+04-4.43194E+00-1.95331E+05-1.14925E+00
 -1       335-2.62852E+00 1.31390E+04-6.89641E+03 1.82253E+00-1.98405E+03 1.27113E+00
 -1       336 9.73240E+00-2.34425E+05-4.25561E+04-9.55958E+00-9.87308E+04-1.89342E+00
 -1       337-5.21422E+00-5.14789E+05-9.64197E+04 5.63130E+00-2.22142E+05 1.15795E+00
 -1       338 1.06344E+01 1.35106E+04-4.76374E+03-8.55009E+00-2.14319E+03-4.44546E+00
 -1       339 1.77179E+01-4.15675E+05-5.51811E+04-1.72263E+01-1.51451E+05-3.96795E+00
 -1       340 1.06371E+01 1.35044E+04-4.76615E+03-3.82117E+00-2.14570E+03-2.64936E+00
 -1       341 1.77143E+01-4.15665E+05-5.51817E+04-4.14334E+00-1.51451E+05-1.50315E+00
 -1       342-4.29268E+00 1.33927E+04-5.48322E+03 3.36048E+00-2.05280E+03 1.87430E+00
 -1       343 1.41670E+01-2.01087E+05-2.99695E+04-1.31772E+01-7.67951E+04-2.91029E+00
 -1       344-7.48508E+00-4.48888E+05-6.73390E+04 7.66576E+00-1.73369E+05 1.66420E+00
 -1       345 1.53304E+01 1.36428E+04-3.80612E+03-1.31579E+01-2.11009E+03-5.84311E+00
 -1       346 2.35604E+01-3.49789E+05-3.83668E+04-2.23733E+01-1.15858E+05-5.45193E+00
 -1       347 1.53004E+01 1.36393E+04-3.80860E+03-4.17697E+00-2.11228E+03-3.19005E+00
 -1       348 2.35891E+01-3.49763E+05-3.83673E+04-2.07014E+00-1.15856E+05-1.91092E+00
 -1       349-6.41134E+00 1.35679E+04-4.38087E+03 5.11015E+00-2.05262E+03 2.58750E+00
 -1       350 1.95122E+01-1.68079E+05-2.10850E+04-1.80563E+01-5.89790E+04-4.21304E+00
 -1       351-1.03713E+01-3.82703E+05-4.69247E+04 9.36426E+00-1.33642E+05 2.28297E+00
 -1       352 1.99602E+01 1.37372E+04-3.06903E+03-1.54544E+01-2.05617E+03-7.35001E+00
 -1       353 3.02040E+01-2.85458E+05-2.64859E+04-2.06345E+01-8.69882E+04-6.77747E+00
 -1       354 2.02227E+01 1.37422E+04-3.07105E+03-2.79628E+00-2.05735E+03-3.82718E+00
 -1       355 3.03947E+01-2.85403E+05-2.64866E+04 3.39632E+00-8.69850E+04-1.90195E+00
 -1       356-9.06057E+00 1.36889E+04-3.53394E+03 7.83667E+00-2.01337E+03 3.25730E+00
 -1       357 2.48853E+01-1.35867E+05-1.47780E+04-1.83112E+01-4.45150E+04-5.50014E+00
 -1       358-1.34798E+01-3.17573E+05-3.25512E+04 1.25821E+01-1.01403E+05 3.11053E+00
 -1       359 2.37740E+01 1.38185E+04-2.51368E+03-2.33781E+01-2.00070E+03-7.60378E+00
 -1       360 3.25211E+01-2.23056E+05-1.79872E+04-3.35921E+01-6.34258E+04-9.49463E+00
 -1       361 2.34851E+01 1.38418E+04-2.51545E+03 1.77085E+00-1.99818E+03-2.79069E+00
 -1       362 3.24913E+01-2.22956E+05-1.79860E+04 1.56607E+01-6.34135E+04-2.52982E+00
 -1       363-1.09301E+01 1.37706E+04-2.89642E+03 7.17750E+00-1.95902E+03 4.06566E+00
 -1       364 2.89361E+01-1.04637E+05-1.02454E+04-2.87212E+01-3.26848E+04-7.45713E+00
 -1       365-1.67049E+01-2.54137E+05-2.23441E+04 7.35716E+00-7.51644E+04 3.60101E+00
 -1       366 2.04780E+01 1.39059E+04-2.09903E+03 3.83044E+00-1.92855E+03-9.31839E+00
 -1       367 3.68888E+01-1.62665E+05-1.17339E+04 3.68745E+01-4.37695E+04-5.83538E+00
 -1       368 2.25722E+01 1.39668E+04-2.09822E+03 1.40996E+01-1.92317E+03-4.98227E+00
 -1       369 3.90260E+01-1.62473E+05-1.17358E+04 3.75893E+01-4.37670E+04 1.61651E+00
 -1       370-1.34336E+01 1.38116E+04-2.42991E+03 1.53639E+01-1.89748E+03 3.45365E+00
 -1       371 2.58670E+01-7.43860E+04-6.92101E+03 2.05510E+01-2.28359E+04-6.31041E+00
 -1       372-1.71953E+01-1.92573E+05-1.49594E+04 2.46598E+01-5.35162E+04 5.63095E+00
 -1       373 1.03144E+01 1.40907E+04-1.87216E+03-6.23121E+01-1.90511E+03 2.32907E+00
 -1       374 1.26225E+00-1.03870E+05-7.04077E+03-1.43495E+02-2.72357E+04-2.40457E+01
 -1       375 6.58643E+00 1.42093E+04-1.87071E+03 3.39930E+01-1.87912E+03 1.04419E+01
 -1       376-4.73659E+00-1.03584E+05-7.03172E+03 8.33805E+01-2.71518E+04-7.72072E+00
 -1       377-5.62831E+00 1.38185E+04-2.10340E+03-2.06450E+01-1.87461E+03 5.76872E+00
 -1       378 1.63758E+01-4.49968E+04-4.39066E+03-1.03753E+02-1.43701E+04-1.36130E+01
 -1       379-1.61008E+01-1.32613E+05-9.46374E+03-6.28149E+01-3.53899E+04 2.10237E-01
 -1       380-3.19307E+01 1.43099E+04-1.65025E+03 2.92712E+02-1.62836E+03-2.04979E+01
 -1       381 2.84847E+01-4.71299E+04-3.00435E+03 7.24684E+02-1.13176E+04 5.68876E+01
 -1       382-1.81674E+01 1.45516E+04-1.64901E+03 8.72105E+01-1.62443E+03-3.00044E+01
 -1       383 6.13264E+01-4.65117E+04-3.00885E+03 1.36977E+02-1.14654E+04 4.40152E+01
 -1       384-1.05535E+01 1.37069E+04-1.86482E+03 8.06502E+01-1.79099E+03-8.65394E+00
 -1       385-4.09955E+01-1.62664E+04-2.43862E+03 5.14910E+02-6.73021E+03 1.96042E+01
 -1       386 1.60722E-01-7.41083E+04-5.07337E+03 1.99349E+02-1.91552E+04 2.23505E+01
 -1       387-1.61308E+02 1.14291E+04-2.35914E+03-8.95248E+02-2.30841E+03 2.00765E+02
 -1       388-5.58782E+02 2.11248E+04 8.08095E+01-2.35261E+03 3.27984E+02-5.46831E+01
 -1       389-1.85196E+02 9.96850E+03-2.30372E+03-4.41419E+02-2.38094E+03 1.68524E+02
 -1       390-6.89151E+02 1.68096E+04 4.83641E+01-8.29643E+02 7.45490E+02-1.24086E+02
 -1       391 6.42452E+01 1.36407E+04-1.74394E+03-3.77551E+02-2.10628E+03 3.02097E+01
 -1       392-2.12469E+02 1.60438E+04-7.48770E+02-1.66598E+03-5.19206E+02 4.45556E+01
 -1       393 2.43014E+01-1.54402E+04-1.47105E+03-9.16049E+02-5.92864E+03-7.68114E+01
 -1       394-1.46469E+00-3.94576E+04 2.76718E+06 8.20302E-01 3.30438E+04 1.84838E+00
 -1       395 1.76621E-01 6.85132E+04 2.42647E+06-1.59216E-01 4.41105E+05 2.79576E-02
 -1       396-1.46469E+00-3.94552E+04 2.76718E+06 7.71455E-09 3.30460E+04 1.35765E-06
 -1       397 1.71483E-01 6.85131E+04 2.42647E+06 4.05075E-07 4.41105E+05 2.43058E-06
 -1       398-1.21650E+00-3.39670E+04 1.35550E+06-8.16644E-02 2.16423E+04 1.56409E-02
 -1       399-9.04874E-02 1.56351E+04 2.59845E+06 7.48032E-02 2.34977E+05 4.76128E-02
 -1       400-3.84523E-03 1.78608E+04 1.18763E+06-1.87921E-01 2.31815E+05-6.72435E-02
 -1       401-1.46469E+00-3.94564E+04 2.76718E+06 7.46263E-01 3.30449E+04 2.01327E+00
 -1       402 1.74052E-01 6.85132E+04 2.42647E+06-5.86827E-02 4.41105E+05 1.28381E-01
 -1       403-1.21650E+00-3.39645E+04 1.35550E+06 4.23287E-08 2.16449E+04 6.55651E-07
 -1       404-9.30551E-02 1.56351E+04 2.59845E+06 1.75558E-07 2.34977E+05 1.84936E-06
 -1       405-5.14525E-03 1.78609E+04 1.18762E+06 1.20523E-07 2.31815E+05 1.00868E-06
 -1       406 1.95009E-01 2.33810E+05 2.00240E+06-1.33732E-01 7.07162E+05 3.08189E-01
 -1       407 1.89505E-01 2.33810E+05 2.00240E+06 6.71634E-07 7.07161E+05 2.02181E-06
 -1       408-8.59843E-02 1.52225E+05 2.21403E+06 7.84353E-02 5.75227E+05-8.04410E-02
 -1       409-1.54686E-02 1.09711E+05 9.78864E+05-2.34645E-01 3.61045E+05 3.96413E-02
 -1       410 1.92257E-01 2.33810E+05 2.00240E+06-1.98141E-02 7.07162E+05 3.20943E-01
 -1       411-9.13053E-02 1.52225E+05 2.21403E+06 5.68373E-07 5.75227E+05 2.22953E-06
 -1       412-1.77293E-02 1.09711E+05 9.78863E+05 3.13463E-07 3.61045E+05 8.82597E-07
 -1       413 2.76090E-01 4.18406E+05 1.58104E+06-3.29083E-02 8.24156E+05 6.49362E-01
 -1       414 2.68425E-01 4.18405E+05 1.58103E+06 1.21462E-06 8.24154E+05 2.05523E-06
 -1       415-1.08910E-01 3.26882E+05 1.79126E+06 4.80343E-02 7.66059E+05-2.33319E-01
 -1       416-1.35550E-03 2.05885E+05 7.70913E+05-2.63731E-01 4.17833E+05 1.94290E-01
 -1       417 2.72258E-01 4.18405E+05 1.58104E+06 6.43489E-02 8.24155E+05 5.63060E-01
 -1       418-1.15494E-01 3.26882E+05 1.79127E+06 6.72756E-07 7.66060E+05 1.98524E-06
 -1       419-5.22106E-03 2.05886E+05 7.70911E+05 3.41473E-07 4.17833E+05 8.55508E-07
 -1       420 4.43434E-01 5.70452E+05 1.20606E+06 1.69143E-01 8.36737E+05 1.07926E+00
 -1       421 4.33190E-01 5.70451E+05 1.20606E+06 4.89210E-07 8.36735E+05 1.32284E-06
 -1       422-1.67347E-01 4.94589E+05 1.39335E+06-2.44409E-02 8.30439E+05-4.22878E-01
 -1       423 5.75225E-02 2.85396E+05 5.86355E+05-2.55712E-01 4.22093E+05 4.19512E-01
 -1       424 4.38312E-01 5.70451E+05 1.20606E+06 2.08038E-01 8.36736E+05 8.68158E-01
 -1       425-1.76301E-01 4.94590E+05 1.39335E+06 8.22552E-07 8.30440E+05 1.73493E-06
 -1       426 5.13621E-02 2.85396E+05 5.86353E+05-2.43887E-07 4.22092E+05 6.55326E-07
 -1       427 7.35523E-01 6.75387E+05 8.96507E+05 5.18995E-01 7.82920E+05 1.63168E+00
 -1       428 7.21554E-01 6.75385E+05 8.96502E+05 1.62193E-06 7.82916E+05 1.39574E-06
 -1       429-2.76863E-01 6.22678E+05 1.05119E+06-1.56979E-01 8.09726E+05-6.64721E-01
 -1       430 1.91752E-01 3.40069E+05 4.34267E+05-1.75716E-01 3.93677E+05 7.42746E-01
 -1       431 7.28539E-01 6.75386E+05 8.96504E+05 4.31638E-01 7.82918E+05 1.25396E+00
 -1       432-2.88969E-01 6.22679E+05 1.05119E+06 1.07138E-06 8.09728E+05 1.61925E-06
 -1       433 1.82246E-01 3.40068E+05 4.34264E+05 7.10352E-07 3.93676E+05 4.95929E-07
 -1       434 1.20926E+00 7.31610E+05 6.53435E+05 1.08561E+00 6.94810E+05 2.34392E+00
 -1       435 1.19036E+00 7.31607E+05 6.53429E+05-9.05384E-07 6.94805E+05 1.08938E-06
 -1       436-4.60588E-01 7.03052E+05 7.74946E+05-3.78021E-01 7.38796E+05-9.76676E-01
 -1       437 4.48721E-01 3.69711E+05 3.15198E+05 3.04203E-02 3.48446E+05 1.19601E+00
 -1       438 1.19981E+00 7.31608E+05 6.53432E+05 7.60943E-01 6.94807E+05 1.74007E+00
 -1       439-4.77022E-01 7.03053E+05 7.74948E+05 7.14734E-07 7.38798E+05 8.91168E-07
 -1       440 4.34545E-01 3.69709E+05 3.15194E+05 2.89184E-07 3.48444E+05 6.20186E-07
 -1       441 1.94596E+00 7.46321E+05 4.69412E+05 1.96163E+00 5.94324E+05 3.25499E+00
 -1       442 1.92085E+00 7.46316E+05 4.69404E+05 3.93742E-06 5.94317E+05 1.09907E-06
 -1       443-7.52648E-01 7.38471E+05 5.61414E+05-7.27575E-01 6.44564E+05-1.37791E+00
 -1       444 8.98815E-01 3.78073E+05 2.25338E+05 4.40377E-01 2.97376E+05 1.81517E+00
 -1       445 1.93341E+00 7.46318E+05 4.69408E+05 1.22353E+00 5.94321E+05 2.34567E+00
 -1       446-7.74652E-01 7.38472E+05 5.61417E+05 7.85586E-07 6.44566E+05 9.24460E-07
 -1       447 8.78443E-01 3.78070E+05 2.25333E+05 7.69438E-07 2.97372E+05 4.69202E-07
 -1       448 3.05592E+00 7.29216E+05 3.33698E+05 3.26386E+00 4.95080E+05 4.40307E+00
 -1       449 3.02396E+00 7.29210E+05 3.33690E+05 6.28069E-07 4.95071E+05-2.77870E-07
 -1       450-1.20075E+00 7.37312E+05 4.01537E+05-1.25725E+00 5.44751E+05-1.88782E+00
 -1       451 1.64159E+00 3.70191E+05 1.59311E+05 1.15987E+00 2.47193E+05 2.63836E+00
 -1       452 3.03994E+00 7.29213E+05 3.33694E+05 1.84087E+00 4.95075E+05 3.08642E+00
 -1       453-1.22929E+00 7.37315E+05 4.01541E+05 1.96543E-06 5.44755E+05 6.51371E-07
 -1       454 1.61363E+00 3.70187E+05 1.59306E+05 1.38390E-06 2.47188E+05 5.79793E-07
 -1       455 4.67941E+00 6.89802E+05 2.35517E+05 5.12254E+00 4.04381E+05 5.81956E+00
 -1       456 4.64063E+00 6.89796E+05 2.35508E+05 1.43032E-06 4.04371E+05 1.91162E-06
 -1       457-1.86829E+00 7.09128E+05 2.84573E+05-2.03022E+00 4.49808E+05-2.52456E+00
 -1       458 2.80980E+00 3.50929E+05 1.11739E+05 2.31946E+00 2.01488E+05 3.70190E+00
 -1       459 4.66002E+00 6.89799E+05 2.35513E+05 2.61308E+00 4.04376E+05 3.96903E+00
 -1       460-1.90366E+00 7.09131E+05 2.84577E+05 2.07017E-06 4.49813E+05 6.95928E-07
 -1       461 2.77359E+00 3.50924E+05 1.11732E+05 7.21600E-07 2.01482E+05 7.06872E-07
 -1       462 6.97878E+00 6.36037E+05 1.65460E+05 7.67470E+00 3.25377E+05 7.52241E+00
 -1       463 6.93855E+00 6.36030E+05 1.65450E+05 5.86040E-07 3.25365E+05 6.07839E-07
 -1       464-2.83299E+00 6.62619E+05 2.00438E+05-3.10982E+00 3.64965E+05-3.30035E+00
 -1       465 4.56626E+00 3.24345E+05 7.79470E+04 4.07499E+00 1.61776E+05 5.03366E+00
 -1       466 6.95867E+00 6.36034E+05 1.65455E+05 3.48951E+00 3.25371E+05 4.98416E+00
 -1       467-2.87249E+00 6.62622E+05 2.00442E+05 1.59349E-06 3.64970E+05 2.78394E-07
 -1       468 4.52360E+00 3.24338E+05 7.79399E+04-7.67036E-07 1.61769E+05-1.05499E-07
 -1       469 1.01109E+01 5.74001E+05 1.15947E+05 1.09639E+01 2.58688E+05 9.48932E+00
 -1       470 1.00721E+01 5.73996E+05 1.15936E+05-2.80954E-06 2.58675E+05-5.12790E-07
 -1       471-4.18129E+00 6.04790E+05 1.40639E+05-4.56357E+00 2.92112E+05-4.21946E+00
 -1       472 7.08719E+00 2.93529E+05 5.41829E+04 6.53740E+00 1.28321E+05 6.63712E+00
 -1       473 1.00915E+01 5.73998E+05 1.15941E+05 4.32067E+00 2.58681E+05 6.08874E+00
 -1       474-4.22078E+00 6.04793E+05 1.40644E+05-5.69993E-07 2.92118E+05 6.08977E-07
 -1       475 7.04321E+00 2.93521E+05 5.41751E+04-7.37397E-07 1.28314E+05-1.15418E-06
 -1       476 1.41635E+01 5.08016E+05 8.11613E+04 1.50443E+01 2.03557E+05 1.16668E+01
 -1       477 1.41696E+01 5.08019E+05 8.11497E+04 3.99167E-06 2.03543E+05 1.29455E-06
 -1       478-5.98263E+00 5.40841E+05 9.84781E+04-6.35573E+00 2.31187E+05-5.25244E+00
 -1       479 1.05067E+01 2.60674E+05 3.75775E+04 9.85077E+00 1.00711E+05 8.47825E+00
 -1       480 1.41665E+01 5.08017E+05 8.11555E+04 4.76592E+00 2.03550E+05 7.20126E+00
 -1       481-5.99894E+00 5.40842E+05 9.84838E+04-2.34043E-06 2.31194E+05 1.63909E-07
 -1       482 1.04802E+01 2.60668E+05 3.75692E+04 3.72712E-06 1.00703E+05 3.73843E-07
 -1       483 1.90273E+01 4.40953E+05 5.67876E+04 1.90596E+01 1.58577E+05 1.37947E+01
 -1       484 1.90367E+01 4.40973E+05 5.67759E+04 2.96117E-06 1.58566E+05-1.66720E-06
 -1       485-8.26502E+00 4.74371E+05 6.88859E+04-8.56268E+00 1.81112E+05-6.37286E+00
 -1       486 1.48400E+01 2.27237E+05 2.60090E+04 1.35158E+01 7.82150E+04 1.04165E+01
 -1       487 1.90320E+01 4.40963E+05 5.67818E+04 4.17913E+00 1.58572E+05 8.11145E+00
 -1       488-8.25724E+00 4.74366E+05 6.88917E+04 4.55128E-06 1.81119E+05-3.64192E-07
 -1       489 1.48475E+01 2.27239E+05 2.60007E+04 1.61419E-06 7.82096E+04-6.13114E-07
 -1       490 2.41439E+01 3.74562E+05 3.96947E+04 2.37375E+01 1.22128E+05 1.57909E+01
 -1       491 2.45090E+01 3.74616E+05 3.96841E+04 1.60117E-07 1.22122E+05 3.69862E-07
 -1       492-1.08566E+01 4.07698E+05 4.81350E+04-1.02124E+01 1.40377E+05-7.33602E+00
 -1       493 1.96704E+01 1.94108E+05 1.79428E+04 1.81570E+01 6.00043E+04 1.22515E+01
 -1       494 2.43265E+01 3.74589E+05 3.96894E+04 1.32393E+00 1.22125E+05 8.64223E+00
 -1       495-1.06693E+01 4.07682E+05 4.81407E+04 1.21522E-06 1.40381E+05-7.16274E-08
 -1       496 1.98231E+01 1.94129E+05 1.79356E+04 3.10949E-07 6.00037E+04 5.85304E-07
 -1       497 2.81088E+01 3.09776E+05 2.76399E+04 2.04085E+01 9.25906E+04 1.60142E+01
 -1       498 2.79817E+01 3.09889E+05 2.76312E+04 7.95361E-06 9.26005E+04 1.32163E-06
 -1       499-1.34986E+01 3.42182E+05 3.35344E+04-1.30075E+01 1.07364E+05-8.31346E+00
 -1       500 2.42314E+01 1.61763E+05 1.22860E+04 1.76646E+01 4.52601E+04 1.32457E+01
 -1       501 2.80453E+01 3.09833E+05 2.76356E+04-5.73525E+00 9.25956E+04 7.81999E+00
 -1       502-1.33795E+01 3.42141E+05 3.35392E+04 5.51545E-06 1.07365E+05 7.10649E-07
 -1       503 2.44303E+01 1.61821E+05 1.22801E+04 3.74949E-06 4.52697E+04 8.03885E-07
 -1       504 2.79523E+01 2.46912E+05 1.90396E+04 2.93194E+01 6.85162E+04 1.67159E+01
 -1       505 3.08418E+01 2.47138E+05 1.90370E+04-4.34954E-06 6.85335E+04 9.44137E-07
 -1       506-1.45305E+01 2.78472E+05 2.31716E+04-6.36650E+00 8.05452E+04-7.41058E+00
 -1       507 2.50747E+01 1.30383E+05 8.25795E+03 2.61126E+01 3.32292E+04 1.32519E+01
 -1       508 2.93970E+01 2.47025E+05 1.90383E+04-2.07520E+01 6.85249E+04 6.48524E+00
 -1       509-1.31496E+01 2.78394E+05 2.31752E+04 2.59836E-06 8.05328E+04 2.20531E-06
 -1       510 2.62309E+01 1.30511E+05 8.25937E+03-1.32970E-06 3.32552E+04-4.56120E-07
 -1       511 1.73073E+01 1.85984E+05 1.27176E+04-4.76067E+01 4.84126E+04 3.96990E+00
 -1       512 1.23889E+01 1.86350E+05 1.27205E+04-2.49721E-06 4.85246E+04 3.75853E-06
 -1       513-1.45424E+01 2.16780E+05 1.56699E+04-2.15766E+01 5.84693E+04-9.00842E+00
 -1       514 2.17090E+01 9.99512E+04 5.31379E+03-2.55200E+01 2.32289E+04 7.91062E+00
 -1       515 1.48481E+01 1.86167E+05 1.27190E+04-4.79665E+01 4.84686E+04-2.62432E+00
 -1       516-1.55559E+01 2.16625E+05 1.56693E+04-4.88622E-06 5.84615E+04 3.74763E-06
 -1       517 2.13435E+01 1.00197E+05 5.31114E+03-1.14765E-06 2.32896E+04 1.46353E-06
 -1       518-9.53402E+00 1.26325E+05 7.96036E+03 1.15409E+02 3.16470E+04 1.57543E+01
 -1       519 1.52485E+01 1.27067E+05 7.97872E+03-7.91821E-06 3.16097E+04-1.25488E-06
 -1       520 7.75847E-01 1.56857E+05 1.01378E+04 7.27503E+01 4.01065E+04 6.22188E+00
 -1       521-1.01973E+01 7.03148E+04 2.97829E+03 8.80119E+01 1.46706E+04 3.95794E+00
 -1       522 2.85726E+00 1.26696E+05 7.96954E+03-9.90135E+01 3.16284E+04-9.18529E-03
 -1       523 1.07055E+01 1.56631E+05 1.01319E+04-4.93319E-06 4.00015E+04-2.00227E-06
 -1       524-1.53287E+00 7.07595E+04 3.02701E+03-1.24479E-07 1.47615E+04-1.15866E-06
 -1       525-9.79768E+01 6.84964E+04 3.56447E+03-7.60162E+02 1.49676E+04-9.69385E+01
 -1       526-1.63500E+02 6.92538E+04 3.63174E+03-1.43613E-08 1.58117E+04-2.26760E-06
 -1       527-4.77550E+00 9.87522E+04 5.62876E+03-1.87365E+02 2.36185E+04-2.28379E+01
 -1       528-2.56813E+01 4.12596E+04 1.06843E+03-5.20225E+02 6.92684E+03-3.68110E+01
 -1       529-1.30739E+02 6.88751E+04 3.59811E+03-1.75282E+02 1.53896E+04-6.60286E+01
 -1       530-2.51404E+01 9.82268E+04 5.62725E+03-4.13268E-06 2.37462E+04 1.17117E-06
 -1       531-4.46805E+01 4.19885E+04 9.94464E+02-2.08203E-06 7.15636E+03-1.36668E-06
 -1       532 3.85553E+01 1.81485E+04 1.11685E+02 2.65410E+03 6.86053E+03 3.78575E+01
 -1       533 2.68489E+02 1.10344E+04 4.20901E+01 1.07439E-05 3.37919E+03 7.61765E-06
 -1       534 1.55246E+02 4.05902E+04 2.68931E+03 9.65849E+02 1.08858E+04 1.29101E+02
 -1       535-2.08952E+02 1.50220E+04-1.51412E+03 1.73262E+03 1.80505E+03-1.09939E+02
 -1       536 1.53522E+02 1.45914E+04 7.68876E+01 1.11190E+03 5.11986E+03 1.12644E+02
 -1       537 2.37447E+02 4.03099E+04 2.57658E+03 5.47462E-06 9.94462E+03 1.10093E-06
 -1       538-1.17874E+02 9.72560E+03-1.12119E+03 2.92102E-06 5.33916E+02 2.02183E-06
 -1       539-1.46469E+00-3.94576E+04 2.76718E+06-8.20302E-01 3.30438E+04-1.84838E+00
 -1       540 1.76621E-01 6.85132E+04 2.42647E+06 1.59217E-01 4.41105E+05-2.79566E-02
 -1       541-1.46469E+00-3.94564E+04 2.76718E+06-7.46263E-01 3.30449E+04-2.01327E+00
 -1       542 1.74052E-01 6.85132E+04 2.42647E+06 5.86832E-02 4.41105E+05-1.28378E-01
 -1       543-1.21650E+00-3.39670E+04 1.35550E+06 8.16645E-02 2.16423E+04-1.56396E-02
 -1       544-9.04874E-02 1.56351E+04 2.59845E+06-7.48031E-02 2.34977E+05-4.76111E-02
 -1       545-3.84524E-03 1.78608E+04 1.18763E+06 1.87921E-01 2.31815E+05 6.72436E-02
 -1       546 1.95009E-01 2.33810E+05 2.00240E+06 1.33733E-01 7.07162E+05-3.08188E-01
 -1       547 1.92257E-01 2.33810E+05 2.00240E+06 1.98151E-02 7.07162E+05-3.20940E-01
 -1       548-8.59843E-02 1.52225E+05 2.21403E+06-7.84347E-02 5.75227E+05 8.04423E-02
 -1       549-1.54686E-02 1.09711E+05 9.78864E+05 2.34646E-01 3.61045E+05-3.96407E-02
 -1       550 2.76090E-01 4.18406E+05 1.58104E+06 3.29090E-02 8.24156E+05-6.49361E-01
 -1       551 2.72258E-01 4.18405E+05 1.58104E+06-6.43474E-02 8.24155E+05-5.63058E-01
 -1       552-1.08910E-01 3.26882E+05 1.79126E+06-4.80339E-02 7.66059E+05 2.33321E-01
 -1       553-1.35550E-03 2.05885E+05 7.70913E+05 2.63731E-01 4.17833E+05-1.94290E-01
 -1       554 4.43434E-01 5.70452E+05 1.20606E+06-1.69140E-01 8.36737E+05-1.07926E+00
 -1       555 4.38312E-01 5.70451E+05 1.20606E+06-2.08036E-01 8.36736E+05-8.68156E-01
 -1       556-1.67347E-01 4.94589E+05 1.39335E+06 2.44427E-02 8.30439E+05 4.22880E-01
 -1       557 5.75224E-02 2.85396E+05 5.86355E+05 2.55714E-01 4.22093E+05-4.19511E-01
 -1       558 7.35523E-01 6.75387E+05 8.96507E+05-5.18995E-01 7.82920E+05-1.63168E+00
 -1       559 7.28539E-01 6.75386E+05 8.96504E+05-4.31637E-01 7.82918E+05-1.25396E+00
 -1       560-2.76863E-01 6.22678E+05 1.05119E+06 1.56979E-01 8.09726E+05 6.64723E-01
 -1       561 1.91752E-01 3.40069E+05 4.34267E+05 1.75717E-01 3.93677E+05-7.42745E-01
 -1       562 1.20926E+00 7.31610E+05 6.53435E+05-1.08560E+00 6.94810E+05-2.34392E+00
 -1       563 1.19981E+00 7.31608E+05 6.53432E+05-7.60942E-01 6.94807E+05-1.74007E+00
 -1       564-4.60588E-01 7.03052E+05 7.74946E+05 3.78023E-01 7.38796E+05 9.76677E-01
 -1       565 4.48721E-01 3.69711E+05 3.15198E+05-3.04192E-02 3.48446E+05-1.19601E+00
 -1       566 1.94596E+00 7.46321E+05 4.69412E+05-1.96163E+00 5.94324E+05-3.25499E+00
 -1       567 1.93341E+00 7.46318E+05 4.69408E+05-1.22352E+00 5.94321E+05-2.34567E+00
 -1       568-7.52648E-01 7.38471E+05 5.61414E+05 7.27576E-01 6.44564E+05 1.37791E+00
 -1       569 8.98815E-01 3.78073E+05 2.25338E+05-4.40378E-01 2.97376E+05-1.81517E+00
 -1       570 3.05592E+00 7.29216E+05 3.33698E+05-3.26385E+00 4.95080E+05-4.40307E+00
 -1       571 3.03994E+00 7.29213E+05 3.33694E+05-1.84086E+00 4.95075E+05-3.08642E+00
 -1       572-1.20075E+00 7.37312E+05 4.01537E+05 1.25725E+00 5.44751E+05 1.88782E+00
 -1       573 1.64159E+00 3.70191E+05 1.59311E+05-1.15987E+00 2.47193E+05-2.63836E+00
 -1       574 4.67941E+00 6.89802E+05 2.35517E+05-5.12255E+00 4.04381E+05-5.81956E+00
 -1       575 4.66002E+00 6.89799E+05 2.35513E+05-2.61308E+00 4.04376E+05-3.96903E+00
 -1       576-1.86829E+00 7.09128E+05 2.84573E+05 2.03022E+00 4.49808E+05 2.52457E+00
 -1       577 2.80980E+00 3.50929E+05 1.11739E+05-2.31946E+00 2.01488E+05-3.70190E+00
 -1       578 6.97878E+00 6.36037E+05 1.65460E+05-7.67470E+00 3.25377E+05-7.52241E+00
 -1       579 6.95867E+00 6.36034E+05 1.65455E+05-3.48951E+00 3.25371E+05-4.98416E+00
 -1       580-2.83299E+00 6.62619E+05 2.00438E+05 3.10982E+00 3.64965E+05 3.30035E+00
 -1       581 4.56626E+00 3.24345E+05 7.79470E+04-4.07498E+00 1.61776E+05-5.03366E+00
 -1       582 1.01109E+01 5.74001E+05 1.15947E+05-1.09638E+01 2.58688E+05-9.48932E+00
 -1       583 1.00915E+01 5.73998E+05 1.15941E+05-4.32067E+00 2.58681E+05-6.08874E+00
 -1       584-4.18129E+00 6.04790E+05 1.40639E+05 4.56358E+00 2.92112E+05 4.21947E+00
 -1       585 7.08719E+00 2.93529E+05 5.41829E+04-6.53740E+00 1.28321E+05-6.63712E+00
 -1       586 1.41635E+01 5.08016E+05 8.11613E+04-1.50443E+01 2.03557E+05-1.16668E+01
 -1       587 1.41665E+01 5.08017E+05 8.11555E+04-4.76591E+00 2.03550E+05-7.20126E+00
 -1       588-5.98263E+00 5.40841E+05 9.84781E+04 6.35573E+00 2.31187E+05 5.25244E+00
 -1       589 1.05067E+01 2.60674E+05 3.75775E+04-9.85077E+00 1.00711E+05-8.47825E+00
 -1       590 1.90273E+01 4.40953E+05 5.67876E+04-1.90596E+01 1.58577E+05-1.37947E+01
 -1       591 1.90320E+01 4.40963E+05 5.67818E+04-4.17913E+00 1.58572E+05-8.11145E+00
 -1       592-8.26502E+00 4.74371E+05 6.88859E+04 8.56269E+00 1.81112E+05 6.37286E+00
 -1       593 1.48400E+01 2.27237E+05 2.60090E+04-1.35158E+01 7.82150E+04-1.04165E+01
 -1       594 2.41439E+01 3.74562E+05 3.96947E+04-2.37375E+01 1.22128E+05-1.57909E+01
 -1       595 2.43265E+01 3.74589E+05 3.96894E+04-1.32392E+00 1.22125E+05-8.64223E+00
 -1       596-1.08566E+01 4.07698E+05 4.81350E+04 1.02124E+01 1.40377E+05 7.33602E+00
 -1       597 1.96704E+01 1.94108E+05 1.79428E+04-1.81570E+01 6.00043E+04-1.22515E+01
 -1       598 2.81088E+01 3.09776E+05 2.76399E+04-2.04085E+01 9.25906E+04-1.60142E+01
 -1       599 2.80453E+01 3.09833E+05 2.76356E+04 5.73525E+00 9.25956E+04-7.81999E+00
 -1       600-1.34986E+01 3.42182E+05 3.35344E+04 1.30075E+01 1.07364E+05 8.31346E+00
 -1       601 2.42314E+01 1.61763E+05 1.22860E+04-1.76646E+01 4.52601E+04-1.32457E+01
 -1       602 2.79523E+01 2.46912E+05 1.90396E+04-2.93194E+01 6.85162E+04-1.67159E+01
 -1       603 2.93970E+01 2.47025E+05 1.90383E+04 2.07520E+01 6.85249E+04-6.48524E+00
 -1       604-1.45305E+01 2.78472E+05 2.31716E+04 6.36650E+00 8.05452E+04 7.41058E+00
 -1       605 2.50747E+01 1.30383E+05 8.25795E+03-2.61126E+01 3.32292E+04-1.32519E+01
 -1       606 1.73073E+01 1.85984E+05 1.27176E+04 4.76067E+01 4.84126E+04-3.96989E+00
 -1       607 1.48481E+01 1.86167E+05 1.27190E+04 4.79665E+01 4.84686E+04 2.62433E+00
 -1       608-1.45424E+01 2.16780E+05 1.56699E+04 2.15766E+01 5.84693E+04 9.00841E+00
 -1       609 2.17090E+01 9.99512E+04 5.31379E+03 2.55200E+01 2.32289E+04-7.91061E+00
 -1       610-9.53402E+00 1.26325E+05 7.96036E+03-1.15409E+02 3.16470E+04-1.57543E+01
 -1       611 2.85726E+00 1.26696E+05 7.96954E+03 9.90135E+01 3.16284E+04 9.18323E-03
 -1       612 7.75847E-01 1.56857E+05 1.01378E+04-7.27503E+01 4.01065E+04-6.22188E+00
 -1       613-1.01973E+01 7.03148E+04 2.97829E+03-8.80119E+01 1.46706E+04-3.95794E+00
 -1       614-9.79768E+01 6.84964E+04 3.56447E+03 7.60162E+02 1.49676E+04 9.69385E+01
 -1       615-1.30739E+02 6.88751E+04 3.59811E+03 1.75282E+02 1.53896E+04 6.60286E+01
 -1       616-4.77550E+00 9.87522E+04 5.62876E+03 1.87365E+02 2.36185E+04 2.28379E+01
 -1       617-2.56813E+01 4.12596E+04 1.06843E+03 5.20225E+02 6.92684E+03 3.68110E+01
 -1       618 3.85553E+01 1.81485E+04 1.11685E+02-2.65410E+03 6.86053E+03-3.78575E+01
 -1       619 1.53522E+02 1.45914E+04 7.68876E+01-1.11190E+03 5.11986E+03-1.12644E+02
 -1       620 1.55246E+02 4.05902E+04 2.68931E+03-9.65849E+02 1.08858E+04-1.29101E+02
 -1       621-2.08952E+02 1.50220E+04-1.51412E+03-1.73262E+03 1.80505E+03 1.09939E+02
 -3
    1PSTEP                        25          13           1          
  100CL  113 8.00000E-01         621                     0   13           1
 -4  DISP        4    1
 -5  D1          1    2    1    0
 -5  D2          1    2    2    0
 -5  D3          1    2    3    0
 -5  ALL         1    2    0    0    1ALL
 -1         1 0.00000E+00 0.00000E+00 0.00000E+00
 -1         2 0.00000E+00 0.00000E+00 0.00000E+00
 -1         3 1.31771E-09 4.79098E-02-3.22708E-03
 -1         4-2.02474E-09 4.65912E-02-1.70757E-02
 -1         5 0.00000E+00 0.00000E+00 0.00000E+00
 -1         6 0.00000E+00 0.00000E+00 0.00000E+00
 -1         7-6.09337E-16 4.79098E-02-3.22708E-03
 -1         8-2.55657E-15 4.65912E-02-1.70757E-02
 -1         9 0.00000E+00 0.00000E+00 0.00000E+00
 -1        10-2.57966E-10 1.22498E-02-4.94353E-04
 -1        11-3.53660E-10 4.72471E-02-1.01457E-02
 -1        12 5.30418E-10 1.18795E-02-7.62205E-03
 -1        13 0.00000E+00 0.00000E+00 0.00000E+00
 -1        14 0.00000E+00 0.00000E+00 0.00000E+00
 -1        15 6.59021E-10 4.79098E-02-3.22708E-03
 -1        16-1.01222E-09 4.65912E-02-1.70757E-02
 -1        17 0.00000E+00 0.00000E+00 0.00000E+00
 -1        18-2.45878E-16 1.22498E-02-4.94352E-04
 -1        19-1.58162E-15 4.72471E-02-1.01457E-02
 -1        20-9.70079E-16 1.18795E-02-7.62205E-03
 -1        21 3.26424E-09 1.83314E-01-2.26661E-02
 -1        22-4.02850E-09 1.78637E-01-4.85013E-02
 -1        23-2.22742E-15 1.83314E-01-2.26661E-02
 -1        24-6.24188E-15 1.78637E-01-4.85013E-02
 -1        25-1.05750E-09 1.05478E-01-1.01015E-02
 -1        26-3.81925E-10 1.80975E-01-3.55794E-02
 -1        27 1.49587E-09 1.02683E-01-3.01727E-02
 -1        28 1.63219E-09 1.83314E-01-2.26661E-02
 -1        29-2.01436E-09 1.78637E-01-4.85013E-02
 -1        30-1.68195E-15 1.05478E-01-1.01015E-02
 -1        31-4.20366E-15 1.80975E-01-3.55794E-02
 -1        32-4.02320E-15 1.02683E-01-3.01727E-02
 -1        33 5.99598E-09 3.93250E-01-6.94916E-02
 -1        34-6.31811E-09 3.83939E-01-1.05372E-01
 -1        35-4.00642E-15 3.93250E-01-6.94916E-02
 -1        36-9.77524E-15 3.83939E-01-1.05372E-01
 -1        37-2.20497E-09 2.79789E-01-4.21537E-02
 -1        38-1.60764E-10 3.88594E-01-8.74276E-02
 -1        39 2.53104E-09 2.72920E-01-7.32426E-02
 -1        40 2.99798E-09 3.93250E-01-6.94916E-02
 -1        41-3.15930E-09 3.83939E-01-1.05372E-01
 -1        42-3.86104E-15 2.79789E-01-4.21537E-02
 -1        43-6.86817E-15 3.88594E-01-8.74276E-02
 -1        44-7.66445E-15 2.72920E-01-7.32426E-02
 -1        45 9.70026E-09 6.64862E-01-1.50200E-01
 -1        46-9.23190E-09 6.50253E-01-1.94289E-01
 -1        47-6.02627E-15 6.64862E-01-1.50200E-01
 -1        48-1.33060E-14 6.50253E-01-1.94289E-01
 -1        49-3.79018E-09 5.22117E-01-1.05358E-01
 -1        50 2.34655E-10 6.57558E-01-1.72241E-01
 -1        51 3.78271E-09 5.10217E-01-1.45559E-01
 -1        52 4.84997E-09 6.64862E-01-1.50200E-01
 -1        53-4.61638E-09 6.50253E-01-1.94289E-01
 -1        54-5.87662E-15 5.22117E-01-1.05358E-01
 -1        55-9.66212E-15 6.57558E-01-1.72241E-01
 -1        56-1.13162E-14 5.10217E-01-1.45559E-01
 -1        57 1.45506E-08 9.86386E-01-2.67690E-01
 -1        58-1.32595E-08 9.66264E-01-3.18361E-01
 -1        59-7.20258E-15 9.86386E-01-2.67691E-01
 -1        60-1.65080E-14 9.66264E-01-3.18361E-01
 -1        61-5.91083E-09 8.20064E-01-2.04277E-01
 -1        62 6.46276E-10 9.76326E-01-2.93023E-01
 -1        63 5.44146E-09 8.02710E-01-2.51847E-01
 -1        64 7.27493E-09 9.86386E-01-2.67691E-01
 -1        65-6.63041E-09 9.66264E-01-3.18361E-01
 -1        66-7.83963E-15 8.20064E-01-2.04277E-01
 -1        67-1.15222E-14 9.76326E-01-2.93023E-01
 -1        68-1.47734E-14 8.02710E-01-2.51847E-01
 -1        69 2.06269E-08 1.34762E+00-4.22304E-01
 -1        70-1.91875E-08 1.32208E+00-4.78172E-01
 -1        71-9.84214E-15 1.34762E+00-4.22304E-01
 -1        72-2.23333E-14 1.32208E+00-4.78172E-01
 -1        73-8.64314E-09 1.16261E+00-3.40409E-01
 -1        74 7.20813E-10 1.33485E+00-4.50236E-01
 -1        75 7.80555E-09 1.13976E+00-3.93840E-01
 -1        76 1.03127E-08 1.34762E+00-4.22304E-01
 -1        77-9.59473E-09 1.32208E+00-4.78172E-01
 -1        78-8.65797E-15 1.16261E+00-3.40409E-01
 -1        79-1.57428E-14 1.33485E+00-4.50236E-01
 -1        80-1.80003E-14 1.13976E+00-3.93840E-01
 -1        81 2.77824E-08 1.74003E+00-6.12688E-01
 -1        82-2.82963E-08 1.70936E+00-6.72614E-01
 -1        83-1.40853E-14 1.74003E+00-6.12688E-01
 -1        84-2.79876E-14 1.70936E+00-6.72614E-01
 -1        85-1.19913E-08 1.54040E+00-5.13154E-01
 -1        86-2.55253E-10 1.72470E+00-6.42649E-01
 -1        87 1.13625E-08 1.51225E+00-5.71184E-01
 -1        88 1.38901E-08 1.74003E+00-6.12688E-01
 -1        89-1.41496E-08 1.70936E+00-6.72614E-01
 -1        90-1.37458E-14 1.54040E+00-5.13154E-01
 -1        91-2.04931E-14 1.72470E+00-6.42649E-01
 -1        92-2.62169E-14 1.51225E+00-5.71184E-01
 -1        93 3.54348E-08 2.15669E+00-8.36456E-01
 -1        94-4.26398E-08 2.12129E+00-8.99525E-01
 -1        95-1.73350E-14 2.15669E+00-8.36456E-01
 -1        96-3.41730E-14 2.12129E+00-8.99525E-01
 -1        97-1.58050E-08 1.94571E+00-7.20572E-01
 -1        98-3.60002E-09 2.13899E+00-8.67989E-01
 -1        99 1.69044E-08 1.91262E+00-7.82177E-01
 -1       100 1.77156E-08 2.15669E+00-8.36456E-01
 -1       101-2.13219E-08 2.12129E+00-8.99525E-01
 -1       102-1.70880E-14 1.94571E+00-7.20572E-01
 -1       103-2.57584E-14 2.13899E+00-8.67989E-01
 -1       104-3.15040E-14 1.91262E+00-7.82177E-01
 -1       105 4.22523E-08 2.59204E+00-1.09067E+00
 -1       106-6.54349E-08 2.55238E+00-1.15615E+00
 -1       107-1.64469E-14 2.59204E+00-1.09067E+00
 -1       108-3.96507E-14 2.55238E+00-1.15615E+00
 -1       109-1.96526E-08 2.37233E+00-9.59951E-01
 -1       110-1.15878E-08 2.57221E+00-1.12341E+00
 -1       111 2.56923E-08 2.33474E+00-1.02431E+00
 -1       112 2.11237E-08 2.59204E+00-1.09067E+00
 -1       113-3.27202E-08 2.55238E+00-1.15615E+00
 -1       114-1.83067E-14 2.37233E+00-9.59951E-01
 -1       115-2.85174E-14 2.57221E+00-1.12341E+00
 -1       116-3.69891E-14 2.33474E+00-1.02431E+00
 -1       117 4.57137E-08 3.04174E+00-1.37215E+00
 -1       118-1.01585E-07 2.99829E+00-1.43948E+00
 -1       119-1.63681E-14 3.04174E+00-1.37215E+00
 -1       120-4.05544E-14 2.99829E+00-1.43948E+00
 -1       121-2.26343E-08 2.81533E+00-1.22820E+00
 -1       122-2.79304E-08 3.02002E+00-1.40581E+00
 -1       123 3.96819E-08 2.77372E+00-1.29467E+00
 -1       124 2.28535E-08 3.04174E+00-1.37215E+00
 -1       125-5.07958E-08 2.99829E+00-1.43948E+00
 -1       126-1.45073E-14 2.81533E+00-1.22820E+00
 -1       127-2.79635E-14 3.02002E+00-1.40581E+00
 -1       128-3.57414E-14 2.77372E+00-1.29467E+00
 -1       129 4.15279E-08 3.50238E+00-1.67769E+00
 -1       130-1.58324E-07 3.45560E+00-1.74643E+00
 -1       131-1.62883E-14 3.50238E+00-1.67769E+00
 -1       132-4.29587E-14 3.45561E+00-1.74643E+00
 -1       133-2.31282E-08 3.27088E+00-1.52211E+00
 -1       134-5.83925E-08 3.47900E+00-1.71205E+00
 -1       135 6.18214E-08 3.22570E+00-1.59019E+00
 -1       136 2.07603E-08 3.50238E+00-1.67769E+00
 -1       137-7.91658E-08 3.45561E+00-1.74643E+00
 -1       138-1.86039E-14 3.27088E+00-1.52211E+00
 -1       139-3.03692E-14 3.47900E+00-1.71205E+00
 -1       140-3.89781E-14 3.22570E+00-1.59019E+00
 -1       141 2.29593E-08 3.97133E+00-2.00417E+00
 -1       142-2.45970E-07 3.92168E+00-2.07398E+00
 -1       143-1.75324E-14 3.97133E+00-2.00417E+00
 -1       144-4.81627E-14 3.92168E+00-2.07398E+00
 -1       145-1.84622E-08 3.73596E+00-1.83850E+00
 -1       146-1.11493E-07 3.94651E+00-2.03907E+00
 -1       147 9.64009E-08 3.68769E+00-1.90781E+00
 -1       148 1.14753E-08 3.97133E+00-2.00417E+00
 -1       149-1.22988E-07 3.92168E+00-2.07398E+00
 -1       150-2.08651E-14 3.73596E+00-1.83850E+00
 -1       151-3.29778E-14 3.94651E+00-2.03907E+00
 -1       152-4.91827E-14 3.68769E+00-1.90781E+00
 -1       153-1.98667E-08 4.44657E+00-2.34865E+00
 -1       154-3.78474E-07 4.39447E+00-2.41926E+00
 -1       155-3.25726E-15 4.44657E+00-2.34865E+00
 -1       156-3.01407E-14 4.39447E+00-2.41926E+00
 -1       157-4.57011E-09 4.20827E+00-2.17434E+00
 -1       158-1.99174E-07 4.42052E+00-2.38395E+00
 -1       159 1.49449E-07 4.15735E+00-2.24458E+00
 -1       160-9.93296E-09 4.44657E+00-2.34865E+00
 -1       161-1.89237E-07 4.39447E+00-2.41926E+00
 -1       162-9.90052E-15 4.20827E+00-2.17434E+00
 -1       163-1.67343E-14 4.42052E+00-2.38395E+00
 -1       164-3.70618E-14 4.15735E+00-2.24458E+00
 -1       165-1.00251E-07 4.92654E+00-2.70836E+00
 -1       166-5.73972E-07 4.87238E+00-2.77957E+00
 -1       167 1.21438E-14 4.92654E+00-2.70836E+00
 -1       168-1.72082E-14 4.87238E+00-2.77957E+00
 -1       169 2.43791E-08 4.68605E+00-2.52676E+00
 -1       170-3.37041E-07 4.89946E+00-2.74396E+00
 -1       171 2.28923E-07 4.63287E+00-2.59770E+00
 -1       172-5.01301E-08 4.92654E+00-2.70836E+00
 -1       173-2.86980E-07 4.87238E+00-2.77957E+00
 -1       174-2.56480E-16 4.68605E+00-2.52676E+00
 -1       175-2.47796E-15 4.89946E+00-2.74396E+00
 -1       176-2.07019E-14 4.63287E+00-2.59770E+00
 -1       177-2.34715E-07 5.41003E+00-3.08071E+00
 -1       178-8.52714E-07 5.35418E+00-3.15237E+00
 -1       179 1.62171E-14 5.41003E+00-3.08071E+00
 -1       180-1.11617E-14 5.35418E+00-3.15237E+00
 -1       181 7.58348E-08 5.16790E+00-2.89311E+00
 -1       182-5.43915E-07 5.38210E+00-3.11654E+00
 -1       183 3.44950E-07 5.11286E+00-2.96456E+00
 -1       184-1.17319E-07 5.41003E+00-3.08071E+00
 -1       185-4.26333E-07 5.35418E+00-3.15237E+00
 -1       186 9.58735E-15 5.16790E+00-2.89311E+00
 -1       187 2.35713E-15 5.38210E+00-3.11654E+00
 -1       188-1.14407E-14 5.11286E+00-2.96456E+00
 -1       189-4.39728E-07 5.89611E+00-3.46332E+00
 -1       190-1.23823E-06 5.83892E+00-3.53530E+00
 -1       191 3.58152E-14 5.89611E+00-3.46332E+00
 -1       192 1.31371E-14 5.83892E+00-3.53530E+00
 -1       193 1.59059E-07 5.65279E+00-3.27088E+00
 -1       194-8.38109E-07 5.86752E+00-3.49931E+00
 -1       195 5.07970E-07 5.59623E+00-3.34271E+00
 -1       196-2.19906E-07 5.89611E+00-3.46332E+00
 -1       197-6.19096E-07 5.83892E+00-3.53530E+00
 -1       198 2.13264E-14 5.65279E+00-3.27088E+00
 -1       199 2.43708E-14 5.86752E+00-3.49931E+00
 -1       200 4.14583E-15 5.59623E+00-3.34271E+00
 -1       201-7.28376E-07 6.38407E+00-3.85393E+00
 -1       202-1.73405E-06 6.32585E+00-3.92614E+00
 -1       203 6.74454E-14 6.38407E+00-3.85393E+00
 -1       204 4.99514E-14 6.32585E+00-3.92614E+00
 -1       205 2.80742E-07 6.13990E+00-3.65776E+00
 -1       206-1.23450E-06 6.35496E+00-3.89004E+00
 -1       207 7.30131E-07 6.08215E+00-3.72987E+00
 -1       208-3.63880E-07 6.38407E+00-3.85393E+00
 -1       209-8.66779E-07 6.32585E+00-3.92614E+00
 -1       210 4.25125E-14 6.13990E+00-3.65776E+00
 -1       211 6.02250E-14 6.35496E+00-3.89004E+00
 -1       212 3.10874E-14 6.08215E+00-3.72987E+00
 -1       213-1.08983E-06 6.87331E+00-4.25043E+00
 -1       214-2.36742E-06 6.81437E+00-4.32280E+00
 -1       215 7.12324E-14 6.87331E+00-4.25043E+00
 -1       216 5.28264E-14 6.81437E+00-4.32280E+00
 -1       217 4.49514E-07 6.62856E+00-4.05157E+00
 -1       218-1.71556E-06 6.84384E+00-4.28661E+00
 -1       219 1.00655E-06 6.56995E+00-4.12387E+00
 -1       220-5.45465E-07 6.87331E+00-4.25043E+00
 -1       221-1.18433E-06 6.81437E+00-4.32280E+00
 -1       222 6.70437E-14 6.62856E+00-4.05157E+00
 -1       223 6.25130E-14 6.84384E+00-4.28661E+00
 -1       224 5.29959E-14 6.56995E+00-4.12387E+00
 -1       225-1.48711E-06 7.36335E+00-4.65080E+00
 -1       226-2.94338E-06 7.30400E+00-4.72326E+00
 -1       227 7.81727E-14 7.36335E+00-4.65080E+00
 -1       228 5.17281E-14 7.30399E+00-4.72326E+00
 -1       229 6.38093E-07 7.11826E+00-4.45026E+00
 -1       230-2.26665E-06 7.33368E+00-4.68703E+00
 -1       231 1.35640E-06 7.05907E+00-4.52268E+00
 -1       232-7.41532E-07 7.36335E+00-4.65080E+00
 -1       233-1.46780E-06 7.30399E+00-4.72326E+00
 -1       234 6.36866E-14 7.11826E+00-4.45026E+00
 -1       235 6.51459E-14 7.33367E+00-4.68703E+00
 -1       236 4.78089E-14 7.05907E+00-4.52268E+00
 -1       237-1.76721E-06 7.85379E+00-5.05310E+00
 -1       238-3.82464E-06 7.79429E+00-5.12558E+00
 -1       239 1.11529E-13 7.85378E+00-5.05310E+00
 -1       240 8.75268E-14 7.79428E+00-5.12558E+00
 -1       241 8.66522E-07 7.60855E+00-4.85183E+00
 -1       242-2.59190E-06 7.82404E+00-5.08934E+00
 -1       243 1.61283E-06 7.54908E+00-4.92431E+00
 -1       244-8.87113E-07 7.85378E+00-5.05310E+00
 -1       245-1.92799E-06 7.79429E+00-5.12558E+00
 -1       246 7.73202E-14 7.60855E+00-4.85183E+00
 -1       247 9.57634E-14 7.82403E+00-5.08934E+00
 -1       248 6.61760E-14 7.54908E+00-4.92431E+00
 -1       249 0.00000E+00 0.00000E+00 0.00000E+00
 -1       250 0.00000E+00 0.00000E+00 0.00000E+00
 -1       251-1.31772E-09 4.79098E-02-3.22708E-03
 -1       252 2.02474E-09 4.65912E-02-1.70757E-02
 -1       253 0.00000E+00 0.00000E+00 0.00000E+00
 -1       254 0.00000E+00 0.00000E+00 0.00000E+00
 -1       255-6.59022E-10 4.79098E-02-3.22708E-03
 -1       256 1.01222E-09 4.65912E-02-1.70757E-02
 -1       257 0.00000E+00 0.00000E+00 0.00000E+00
 -1       258 2.57966E-10 1.22498E-02-4.94353E-04
 -1       259 3.53657E-10 4.72471E-02-1.01457E-02
 -1       260-5.30420E-10 1.18795E-02-7.62205E-03
 -1       261-3.26424E-09 1.83314E-01-2.26661E-02
 -1       262 4.02849E-09 1.78637E-01-4.85013E-02
 -1       263-1.63219E-09 1.83314E-01-2.26661E-02
 -1       264 2.01435E-09 1.78637E-01-4.85013E-02
 -1       265 1.05750E-09 1.05478E-01-1.01015E-02
 -1       266 3.81917E-10 1.80975E-01-3.55794E-02
 -1       267-1.49588E-09 1.02683E-01-3.01727E-02
 -1       268-5.99599E-09 3.93250E-01-6.94916E-02
 -1       269 6.31809E-09 3.83939E-01-1.05372E-01
 -1       270-2.99799E-09 3.93250E-01-6.94916E-02
 -1       271 3.15928E-09 3.83939E-01-1.05372E-01
 -1       272 2.20497E-09 2.79789E-01-4.21537E-02
 -1       273 1.60749E-10 3.88594E-01-8.74276E-02
 -1       274-2.53105E-09 2.72920E-01-7.32426E-02
 -1       275-9.70028E-09 6.64862E-01-1.50200E-01
 -1       276 9.23187E-09 6.50253E-01-1.94289E-01
 -1       277-4.84999E-09 6.64862E-01-1.50200E-01
 -1       278 4.61635E-09 6.50253E-01-1.94289E-01
 -1       279 3.79017E-09 5.22117E-01-1.05358E-01
 -1       280-2.34675E-10 6.57558E-01-1.72241E-01
 -1       281-3.78273E-09 5.10217E-01-1.45559E-01
 -1       282-1.45506E-08 9.86386E-01-2.67690E-01
 -1       283 1.32595E-08 9.66264E-01-3.18361E-01
 -1       284-7.27494E-09 9.86386E-01-2.67691E-01
 -1       285 6.63038E-09 9.66264E-01-3.18361E-01
 -1       286 5.91082E-09 8.20064E-01-2.04277E-01
 -1       287-6.46300E-10 9.76326E-01-2.93023E-01
 -1       288-5.44149E-09 8.02710E-01-2.51847E-01
 -1       289-2.06269E-08 1.34762E+00-4.22304E-01
 -1       290 1.91874E-08 1.32208E+00-4.78172E-01
 -1       291-1.03128E-08 1.34762E+00-4.22304E-01
 -1       292 9.59469E-09 1.32208E+00-4.78172E-01
 -1       293 8.64312E-09 1.16261E+00-3.40409E-01
 -1       294-7.20845E-10 1.33485E+00-4.50236E-01
 -1       295-7.80559E-09 1.13976E+00-3.93840E-01
 -1       296-2.77825E-08 1.74003E+00-6.12688E-01
 -1       297 2.82962E-08 1.70936E+00-6.72614E-01
 -1       298-1.38901E-08 1.74003E+00-6.12688E-01
 -1       299 1.41495E-08 1.70936E+00-6.72614E-01
 -1       300 1.19912E-08 1.54040E+00-5.13154E-01
 -1       301 2.55211E-10 1.72470E+00-6.42649E-01
 -1       302-1.13625E-08 1.51225E+00-5.71184E-01
 -1       303-3.54348E-08 2.15669E+00-8.36456E-01
 -1       304 4.26397E-08 2.12129E+00-8.99525E-01
 -1       305-1.77157E-08 2.15669E+00-8.36456E-01
 -1       306 2.13219E-08 2.12129E+00-8.99525E-01
 -1       307 1.58049E-08 1.94571E+00-7.20572E-01
 -1       308 3.59997E-09 2.13899E+00-8.67989E-01
 -1       309-1.69045E-08 1.91262E+00-7.82177E-01
 -1       310-4.22524E-08 2.59204E+00-1.09067E+00
 -1       311 6.54348E-08 2.55238E+00-1.15615E+00
 -1       312-2.11237E-08 2.59204E+00-1.09067E+00
 -1       313 3.27201E-08 2.55238E+00-1.15615E+00
 -1       314 1.96525E-08 2.37233E+00-9.59951E-01
 -1       315 1.15878E-08 2.57221E+00-1.12341E+00
 -1       316-2.56924E-08 2.33474E+00-1.02431E+00
 -1       317-4.57138E-08 3.04174E+00-1.37215E+00
 -1       318 1.01585E-07 2.99829E+00-1.43948E+00
 -1       319-2.28536E-08 3.04174E+00-1.37215E+00
 -1       320 5.07958E-08 2.99829E+00-1.43948E+00
 -1       321 2.26342E-08 2.81533E+00-1.22820E+00
 -1       322 2.79304E-08 3.02002E+00-1.40581E+00
 -1       323-3.96820E-08 2.77372E+00-1.29467E+00
 -1       324-4.15280E-08 3.50238E+00-1.67769E+00
 -1       325 1.58324E-07 3.45560E+00-1.74643E+00
 -1       326-2.07604E-08 3.50238E+00-1.67769E+00
 -1       327 7.91657E-08 3.45561E+00-1.74643E+00
 -1       328 2.31282E-08 3.27088E+00-1.52211E+00
 -1       329 5.83924E-08 3.47900E+00-1.71205E+00
 -1       330-6.18215E-08 3.22570E+00-1.59019E+00
 -1       331-2.29594E-08 3.97133E+00-2.00417E+00
 -1       332 2.45970E-07 3.92168E+00-2.07398E+00
 -1       333-1.14753E-08 3.97133E+00-2.00417E+00
 -1       334 1.22988E-07 3.92168E+00-2.07398E+00
 -1       335 1.84621E-08 3.73596E+00-1.83850E+00
 -1       336 1.11492E-07 3.94651E+00-2.03907E+00
 -1       337-9.64010E-08 3.68769E+00-1.90781E+00
 -1       338 1.98667E-08 4.44657E+00-2.34865E+00
 -1       339 3.78474E-07 4.39447E+00-2.41926E+00
 -1       340 9.93295E-09 4.44657E+00-2.34865E+00
 -1       341 1.89237E-07 4.39447E+00-2.41926E+00
 -1       342 4.57010E-09 4.20827E+00-2.17434E+00
 -1       343 1.99174E-07 4.42052E+00-2.38395E+00
 -1       344-1.49449E-07 4.15735E+00-2.24458E+00
 -1       345 1.00251E-07 4.92654E+00-2.70836E+00
 -1       346 5.73972E-07 4.87238E+00-2.77957E+00
 -1       347 5.01301E-08 4.92654E+00-2.70836E+00
 -1       348 2.86980E-07 4.87238E+00-2.77957E+00
 -1       349-2.43791E-08 4.68605E+00-2.52676E+00
 -1       350 3.37041E-07 4.89946E+00-2.74396E+00
 -1       351-2.28923E-07 4.63287E+00-2.59770E+00
 -1       352 2.34715E-07 5.41003E+00-3.08071E+00
 -1       353 8.52714E-07 5.35418E+00-3.15237E+00
 -1       354 1.17319E-07 5.41003E+00-3.08071E+00
 -1       355 4.26333E-07 5.35418E+00-3.15237E+00
 -1       356-7.58347E-08 5.16790E+00-2.89311E+00
 -1       357 5.43915E-07 5.38210E+00-3.11654E+00
 -1       358-3.44950E-07 5.11286E+00-2.96456E+00
 -1       359 4.39728E-07 5.89611E+00-3.46332E+00
 -1       360 1.23823E-06 5.83892E+00-3.53530E+00
 -1       361 2.19907E-07 5.89611E+00-3.46332E+00
 -1       362 6.19096E-07 5.83892E+00-3.53530E+00
 -1       363-1.59059E-07 5.65279E+00-3.27088E+00
 -1       364 8.38109E-07 5.86752E+00-3.49931E+00
 -1       365-5.07970E-07 5.59623E+00-3.34271E+00
 -1       366 7.28376E-07 6.38407E+00-3.85393E+00
 -1       367 1.73405E-06 6.32585E+00-3.92614E+00
 -1       368 3.63880E-07 6.38407E+00-3.85393E+00
 -1       369 8.66779E-07 6.32585E+00-3.92614E+00
 -1       370-2.80742E-07 6.13990E+00-3.65776E+00
 -1       371 1.23450E-06 6.35496E+00-3.89004E+00
 -1       372-7.30131E-07 6.08215E+00-3.72987E+00
 -1       373 1.08983E-06 6.87331E+00-4.25043E+00
 -1       374 2.36742E-06 6.81437E+00-4.32280E+00
 -1       375 5.45465E-07 6.87331E+00-4.25043E+00
 -1       376 1.18433E-06 6.81437E+00-4.32280E+00
 -1       377-4.49513E-07 6.62856E+00-4.05157E+00
 -1       378 1.71556E-06 6.84384E+00-4.28661E+00
 -1       379-1.00655E-06 6.56995E+00-4.12387E+00
 -1       380 1.48711E-06 7.36335E+00-4.65080E+00
 -1       381 2.94338E-06 7.30400E+00-4.72326E+00
 -1       382 7.41532E-07 7.36335E+00-4.65080E+00
 -1       383 1.46780E-06 7.30399E+00-4.72326E+00
 -1       384-6.38093E-07 7.11826E+00-4.45026E+00
 -1       385 2.26665E-06 7.33368E+00-4.68703E+00
 -1       386-1.35640E-06 7.05907E+00-4.52268E+00
 -1       387 1.76721E-06 7.85379E+00-5.05310E+00
 -1       388 3.82464E-06 7.79429E+00-5.12558E+00
 -1       389 8.87114E-07 7.85378E+00-5.05310E+00
 -1       390 1.92799E-06 7.79429E+00-5.12558E+00
 -1       391-8.66521E-07 7.60855E+00-4.85183E+00
 -1       392 2.59190E-06 7.82404E+00-5.08934E+00
 -1       393-1.61283E-06 7.54908E+00-4.92431E+00
 -1       394 0.00000E+00 0.00000E+00 0.00000E+00
 -1       395 1.49184E-09 4.92271E-02 1.06092E-02
 -1       396 0.00000E+00 0.00000E+00 0.00000E+00
 -1       397 7.88137E-16 4.92271E-02 1.06093E-02
 -1       398 0.00000E+00 0.00000E+00 0.00000E+00
 -1       399-4.50212E-10 1.26201E-02 6.63872E-03
 -1       400 1.40401E-09 4.85719E-02 3.68566E-03
 -1       401 0.00000E+00 0.00000E+00 0.00000E+00
 -1       402 7.45562E-10 4.92271E-02 1.06093E-02
 -1       403 0.00000E+00 0.00000E+00 0.00000E+00
 -1       404 5.90063E-16 1.26201E-02 6.63872E-03
 -1       405 8.16331E-17 4.85719E-02 3.68566E-03
 -1       406 2.37819E-09 1.87989E-01 3.15744E-03
 -1       407 6.53175E-16 1.87989E-01 3.15745E-03
 -1       408-1.04393E-09 1.08274E-01 9.97417E-03
 -1       409 2.82063E-09 1.85652E-01-9.75850E-03
 -1       410 1.18870E-09 1.87989E-01 3.15744E-03
 -1       411 1.07674E-15 1.08274E-01 9.97416E-03
 -1       412-7.13349E-16 1.85652E-01-9.75850E-03
 -1       413 2.58009E-09 4.02558E-01-3.36185E-02
 -1       414-1.48784E-16 4.02558E-01-3.36185E-02
 -1       415-1.33790E-09 2.86660E-01-1.10613E-02
 -1       416 4.28733E-09 3.97904E-01-5.15591E-02
 -1       417 1.28949E-09 4.02558E-01-3.36185E-02
 -1       418 9.01058E-16 2.86660E-01-1.10613E-02
 -1       419-2.08068E-15 3.97904E-01-5.15591E-02
 -1       420 1.80650E-09 6.79469E-01-1.06114E-01
 -1       421-9.83844E-16 6.79469E-01-1.06114E-01
 -1       422-1.24759E-09 5.34018E-01-6.51557E-02
 -1       423 5.75251E-09 6.72165E-01-1.28160E-01
 -1       424 9.02511E-10 6.79469E-01-1.06114E-01
 -1       425 9.09668E-16 5.34018E-01-6.51557E-02
 -1       426-3.56823E-15 6.72165E-01-1.28160E-01
 -1       427-5.30901E-10 1.00651E+00-2.17021E-01
 -1       428-3.08619E-16 1.00651E+00-2.17021E-01
 -1       429-5.66716E-10 8.37417E-01-1.56706E-01
 -1       430 7.00867E-09 9.96445E-01-2.42359E-01
 -1       431-2.66460E-10 1.00651E+00-2.17021E-01
 -1       432 3.37863E-16 8.37417E-01-1.56706E-01
 -1       433-3.57058E-15 9.96445E-01-2.42359E-01
 -1       434-5.45168E-09 1.37316E+00-3.66436E-01
 -1       435 8.10415E-16 1.37316E+00-3.66436E-01
 -1       436 1.08642E-09 1.18546E+00-2.86980E-01
 -1       437 7.58597E-09 1.36039E+00-3.94372E-01
 -1       438-2.72721E-09 1.37316E+00-3.66436E-01
 -1       439 1.46635E-15 1.18546E+00-2.86980E-01
 -1       440-4.21385E-15 1.36039E+00-3.94372E-01
 -1       441-1.46055E-08 1.77070E+00-5.52760E-01
 -1       442-2.54098E-15 1.77070E+00-5.52760E-01
 -1       443 4.34933E-09 1.56854E+00-4.55125E-01
 -1       444 6.58627E-09 1.75537E+00-5.82726E-01
 -1       445-7.30457E-09 1.77070E+00-5.52760E-01
 -1       446 2.68079E-16 1.56854E+00-4.55125E-01
 -1       447-7.69118E-15 1.75537E+00-5.82725E-01
 -1       448-3.05562E-08 2.19208E+00-7.73386E-01
 -1       449-3.10182E-15 2.19208E+00-7.73386E-01
 -1       450 1.02339E-08 1.97879E+00-6.58969E-01
 -1       451 2.43622E-09 2.17438E+00-8.04922E-01
 -1       452-1.52804E-08 2.19208E+00-7.73386E-01
 -1       453-8.82634E-16 1.97879E+00-6.58969E-01
 -1       454-1.02919E-14 2.17438E+00-8.04922E-01
 -1       455-5.71701E-08 2.63171E+00-1.02518E+00
 -1       456 2.57520E-15 2.63171E+00-1.02518E+00
 -1       457 2.02921E-08 2.40991E+00-8.95590E-01
 -1       458-7.46270E-09 2.61188E+00-1.05793E+00
 -1       459-2.85879E-08 2.63171E+00-1.02518E+00
 -1       460 4.02146E-16 2.40991E+00-8.95590E-01
 -1       461-7.08480E-15 2.61188E+00-1.05793E+00
 -1       462-1.00108E-07 3.08520E+00-1.30481E+00
 -1       463 6.41042E-16 3.08520E+00-1.30481E+00
 -1       464 3.68390E-08 2.85695E+00-1.16172E+00
 -1       465-2.72030E-08 3.06347E+00-1.33848E+00
 -1       466-5.00569E-08 3.08520E+00-1.30481E+00
 -1       467 9.31954E-15 2.85695E+00-1.16172E+00
 -1       468-7.25248E-15 3.06347E+00-1.33848E+00
 -1       469-1.67411E-07 3.54916E+00-1.60894E+00
 -1       470 4.01678E-15 3.54916E+00-1.60894E+00
 -1       471 6.32219E-08 3.31605E+00-1.45402E+00
 -1       472-6.29459E-08 3.52577E+00-1.64332E+00
 -1       473-8.37087E-08 3.54916E+00-1.60894E+00
 -1       474 6.49584E-15 3.31605E+00-1.45402E+00
 -1       475-6.56673E-15 3.52577E+00-1.64332E+00
 -1       476-2.70036E-07 4.02099E+00-1.93436E+00
 -1       477 7.73646E-15 4.02099E+00-1.93436E+00
 -1       478 1.04141E-07 3.78423E+00-1.76919E+00
 -1       479-1.23556E-07 3.99616E+00-1.96927E+00
 -1       480-1.35018E-07 4.02099E+00-1.93436E+00
 -1       481 9.12905E-15 3.78423E+00-1.76919E+00
 -1       482-5.10174E-15 3.99616E+00-1.96927E+00
 -1       483-4.22313E-07 4.49867E+00-2.27804E+00
 -1       484 1.74161E-14 4.49867E+00-2.27804E+00
 -1       485 1.65858E-07 4.25920E+00-2.10410E+00
 -1       486-2.21069E-07 4.47262E+00-2.31334E+00
 -1       487-2.11156E-07 4.49867E+00-2.27804E+00
 -1       488 1.81996E-14 4.25920E+00-2.10410E+00
 -1       489 7.67482E-15 4.47262E+00-2.31334E+00
 -1       490-6.41185E-07 4.98069E+00-2.63714E+00
 -1       491 2.79612E-14 4.98069E+00-2.63714E+00
 -1       492 2.56471E-07 4.73922E+00-2.45583E+00
 -1       493-3.70842E-07 4.95361E+00-2.67275E+00
 -1       494-3.20568E-07 4.98069E+00-2.63714E+00
 -1       495 2.59444E-14 4.73922E+00-2.45583E+00
 -1       496 1.93591E-14 4.95361E+00-2.67275E+00
 -1       497-9.45880E-07 5.46587E+00-3.00905E+00
 -1       498 3.66927E-14 5.46587E+00-3.00905E+00
 -1       499 3.84807E-07 5.22295E+00-2.82165E+00
 -1       500-5.89928E-07 5.43795E+00-3.04488E+00
 -1       501-4.72945E-07 5.46587E+00-3.00905E+00
 -1       502 3.50782E-14 5.22295E+00-2.82165E+00
 -1       503 2.73371E-14 5.43795E+00-3.04488E+00
 -1       504-1.34776E-06 5.95331E+00-3.39133E+00
 -1       505 5.14172E-14 5.95330E+00-3.39133E+00
 -1       506 5.61512E-07 5.70935E+00-3.19904E+00
 -1       507-8.95137E-07 5.92471E+00-3.42732E+00
 -1       508-6.73690E-07 5.95330E+00-3.39133E+00
 -1       509 4.32362E-14 5.70935E+00-3.19904E+00
 -1       510 4.35982E-14 5.92471E+00-3.42732E+00
 -1       511-1.85900E-06 6.44229E+00-3.78171E+00
 -1       512 7.64119E-14 6.44228E+00-3.78171E+00
 -1       513 7.86644E-07 6.19764E+00-3.58564E+00
 -1       514-1.28890E-06 6.41318E+00-3.81782E+00
 -1       515-9.29795E-07 6.44228E+00-3.78171E+00
 -1       516 6.04754E-14 6.19764E+00-3.58564E+00
 -1       517 7.22624E-14 6.41317E+00-3.81782E+00
 -1       518-2.40527E-06 6.93225E+00-4.17807E+00
 -1       519 7.64648E-14 6.93224E+00-4.17806E+00
 -1       520 1.07535E-06 6.68717E+00-3.97927E+00
 -1       521-1.76470E-06 6.90278E+00-4.21425E+00
 -1       522-1.20107E-06 6.93225E+00-4.17806E+00
 -1       523 8.55734E-14 6.68717E+00-3.97927E+00
 -1       524 7.48622E-14 6.90278E+00-4.21425E+00
 -1       525-3.03320E-06 7.42272E+00-4.57835E+00
 -1       526 8.26155E-14 7.42272E+00-4.57835E+00
 -1       527 1.32713E-06 7.17744E+00-4.37784E+00
 -1       528-2.19963E-06 7.39304E+00-4.61458E+00
 -1       529-1.52049E-06 7.42272E+00-4.57835E+00
 -1       530 8.91360E-14 7.17744E+00-4.37784E+00
 -1       531 8.13170E-14 7.39303E+00-4.61458E+00
 -1       532-2.96928E-06 7.91331E+00-4.98062E+00
 -1       533 1.06574E-13 7.91329E+00-4.98062E+00
 -1       534 1.73284E-06 7.66801E+00-4.77935E+00
 -1       535-2.58451E-06 7.88354E+00-5.01686E+00
 -1       536-1.47121E-06 7.91330E+00-4.98062E+00
 -1       537 1.03367E-13 7.66802E+00-4.77935E+00
 -1       538 1.05694E-13 7.88354E+00-5.01686E+00
 -1       539 0.00000E+00 0.00000E+00 0.00000E+00
 -1       540-1.49184E-09 4.92271E-02 1.06092E-02
 -1       541 0.00000E+00 0.00000E+00 0.00000E+00
 -1       542-7.45561E-10 4.92271E-02 1.06093E-02
 -1       543 0.00000E+00 0.00000E+00 0.00000E+00
 -1       544 4.50213E-10 1.26201E-02 6.63872E-03
 -1       545-1.40401E-09 4.85719E-02 3.68566E-03
 -1       546-2.37819E-09 1.87989E-01 3.15744E-03
 -1       547-1.18870E-09 1.87989E-01 3.15744E-03
 -1       548 1.04393E-09 1.08274E-01 9.97417E-03
 -1       549-2.82063E-09 1.85652E-01-9.75850E-03
 -1       550-2.58009E-09 4.02558E-01-3.36185E-02
 -1       551-1.28949E-09 4.02558E-01-3.36185E-02
 -1       552 1.33790E-09 2.86660E-01-1.10613E-02
 -1       553-4.28733E-09 3.97904E-01-5.15591E-02
 -1       554-1.80650E-09 6.79469E-01-1.06114E-01
 -1       555-9.02512E-10 6.79469E-01-1.06114E-01
 -1       556 1.24759E-09 5.34018E-01-6.51557E-02
 -1       557-5.75251E-09 6.72165E-01-1.28160E-01
 -1       558 5.30903E-10 1.00651E+00-2.17021E-01
 -1       559 2.66461E-10 1.00651E+00-2.17021E-01
 -1       560 5.66715E-10 8.37417E-01-1.56706E-01
 -1       561-7.00868E-09 9.96445E-01-2.42359E-01
 -1       562 5.45169E-09 1.37316E+00-3.66436E-01
 -1       563 2.72721E-09 1.37316E+00-3.66436E-01
 -1       564-1.08642E-09 1.18546E+00-2.86980E-01
 -1       565-7.58598E-09 1.36039E+00-3.94372E-01
 -1       566 1.46055E-08 1.77070E+00-5.52760E-01
 -1       567 7.30457E-09 1.77070E+00-5.52760E-01
 -1       568-4.34933E-09 1.56854E+00-4.55125E-01
 -1       569-6.58628E-09 1.75537E+00-5.82726E-01
 -1       570 3.05562E-08 2.19208E+00-7.73386E-01
 -1       571 1.52804E-08 2.19208E+00-7.73386E-01
 -1       572-1.02339E-08 1.97879E+00-6.58969E-01
 -1       573-2.43624E-09 2.17438E+00-8.04922E-01
 -1       574 5.71701E-08 2.63171E+00-1.02518E+00
 -1       575 2.85879E-08 2.63171E+00-1.02518E+00
 -1       576-2.02921E-08 2.40991E+00-8.95590E-01
 -1       577 7.46269E-09 2.61188E+00-1.05793E+00
 -1       578 1.00108E-07 3.08520E+00-1.30481E+00
 -1       579 5.00569E-08 3.08520E+00-1.30481E+00
 -1       580-3.68390E-08 2.85695E+00-1.16172E+00
 -1       581 2.72030E-08 3.06347E+00-1.33848E+00
 -1       582 1.67411E-07 3.54916E+00-1.60894E+00
 -1       583 8.37087E-08 3.54916E+00-1.60894E+00
 -1       584-6.32219E-08 3.31605E+00-1.45402E+00
 -1       585 6.29459E-08 3.52577E+00-1.64332E+00
 -1       586 2.70036E-07 4.02099E+00-1.93436E+00
 -1       587 1.35018E-07 4.02099E+00-1.93436E+00
 -1       588-1.04141E-07 3.78423E+00-1.76919E+00
 -1       589 1.23556E-07 3.99616E+00-1.96927E+00
 -1       590 4.22313E-07 4.49867E+00-2.27804E+00
 -1       591 2.11156E-07 4.49867E+00-2.27804E+00
 -1       592-1.65858E-07 4.25920E+00-2.10410E+00
 -1       593 2.21069E-07 4.47262E+00-2.31334E+00
 -1       594 6.41185E-07 4.98069E+00-2.63714E+00
 -1       595 3.20568E-07 4.98069E+00-2.63714E+00
 -1       596-2.56471E-07 4.73922E+00-2.45583E+00
 -1       597 3.70842E-07 4.95361E+00-2.67275E+00
 -1       598 9.45880E-07 5.46587E+00-3.00905E+00
 -1       599 4.72945E-07 5.46587E+00-3.00905E+00
 -1       600-3.84807E-07 5.22295E+00-2.82165E+00
 -1       601 5.89928E-07 5.43795E+00-3.04488E+00
 -1       602 1.34776E-06 5.95331E+00-3.39133E+00
 -1       603 6.73690E-07 5.95330E+00-3.39133E+00
 -1       604-5.61512E-07 5.70935E+00-3.19904E+00
 -1       605 8.95137E-07 5.92471E+00-3.42732E+00
 -1       606 1.85900E-06 6.44229E+00-3.78171E+00
 -1       607 9.29795E-07 6.44228E+00-3.78171E+00
 -1       608-7.86644E-07 6.19764E+00-3.58564E+00
 -1       609 1.28890E-06 6.41318E+00-3.81782E+00
 -1       610 2.40527E-06 6.93225E+00-4.17807E+00
 -1       611 1.20107E-06 6.93225E+00-4.17806E+00
 -1       612-1.07535E-06 6.68717E+00-3.97927E+00
 -1       613 1.76470E-06 6.90278E+00-4.21425E+00
 -1       614 3.03320E-06 7.42272E+00-4.57835E+00
 -1       615 1.52049E-06 7.42272E+00-4.57835E+00
 -1       616-1.32713E-06 7.17744E+00-4.37784E+00
 -1       617 2.19963E-06 7.39304E+00-4.61458E+00
 -1       618 2.96928E-06 7.91331E+00-4.98062E+00
 -1       619 1.47121E-06 7.91330E+00-4.98062E+00
 -1       620-1.73284E-06 7.66801E+00-4.77935E+00
 -1       621 2.58451E-06 7.88354E+00-5.01686E+00
 -3
    1PSTEP                        26          13           1          
  100CL  113 8.00000E-01         621                     0   13           1
 -4  STRESS      6    1
 -5  SXX         1    4    1    1
 -5  SYY         1    4    2    2
 -5  SZZ         1    4    3    3
 -5  SXY         1    4    1    2
 -5  SYZ         1    4    2    3
 -5  SZX         1    4    3    1
 -1         1 2.10217E+00-2.07215E+04-2.87581E+06 4.81419E+00-7.07388E+03 4.07191E-01
 -1         2-1.23197E+00-3.38880E+04-6.51776E+04-9.72282E-01 1.42168E+04-2.01917E+00
 -1         3-2.09427E-01-3.74176E+04-5.94089E+04-1.60769E-01 2.51722E+04-2.43468E-01
 -1         4-1.00234E-02-8.15252E+04-2.49774E+06 2.60386E-01-4.88045E+05 1.05426E-01
 -1         5 2.10217E+00-2.07288E+04-2.87581E+06 8.91810E-08-7.07620E+03-1.05675E-07
 -1         6-1.23197E+00-3.38896E+04-6.51763E+04 5.35499E-08 1.42183E+04-3.99108E-08
 -1         7-2.06815E-01-3.74172E+04-5.94079E+04-5.39614E-09 2.51732E+04-3.09427E-08
 -1         8-7.50752E-03-8.15263E+04-2.49774E+06-6.00015E-08-4.88046E+05-1.86311E-07
 -1         9 4.31583E-01-2.71440E+04-1.47010E+06 2.15773E+00 4.75189E+03-8.13731E-01
 -1        10 9.39009E-02-3.21709E+04-6.04258E+04 5.56640E-02 1.92023E+04 9.20195E-02
 -1        11-1.10006E-01-5.95434E+04-1.27835E+06 9.77983E-02-2.31815E+05-9.64325E-02
 -1        12 3.36833E-02-4.57642E+04-2.69215E+06-8.58093E-02-2.46882E+05-6.76769E-02
 -1        13 2.10217E+00-2.07251E+04-2.87581E+06 4.22626E+00-7.07504E+03 2.46990E-01
 -1        14-1.23197E+00-3.38888E+04-6.51769E+04-1.26854E+00 1.42176E+04-1.88523E+00
 -1        15-2.08121E-01-3.74174E+04-5.94084E+04-8.55957E-02 2.51727E+04-7.85441E-02
 -1        16-8.76545E-03-8.15257E+04-2.49774E+06 1.64556E-01-4.88045E+05-3.21090E-02
 -1        17 4.31583E-01-2.71510E+04-1.47010E+06 1.21737E-07 4.75055E+03-7.96044E-08
 -1        18 9.52063E-02-3.21710E+04-6.04264E+04 3.44419E-08 1.92018E+04 2.09295E-09
 -1        19-1.07434E-01-5.95437E+04-1.27835E+06-3.33250E-08-2.31815E+05-9.20907E-08
 -1        20 3.49428E-02-4.57639E+04-2.69215E+06-7.79106E-09-2.46882E+05-1.45925E-07
 -1        21-2.60984E-01-1.51990E+04-5.12442E+04-2.87570E-01 1.62579E+04-3.50759E-01
 -1        22 9.49167E-02-2.83738E+05-2.02558E+06 4.48960E-01-7.62716E+05 6.28566E-02
 -1        23-2.59871E-01-1.51981E+04-5.12436E+04-2.05171E-07 1.62590E+04-5.98676E-08
 -1        24 9.30896E-02-2.83740E+05-2.02558E+06-1.40613E-08-7.62717E+05-6.89293E-08
 -1        25 1.15616E-01-2.58794E+04-5.53334E+04 1.07541E-01 2.02735E+04 1.49694E-01
 -1        26-8.33499E-02-1.49539E+05-1.03826E+06 1.39527E-01-3.73362E+05-1.92912E-01
 -1        27-2.26614E-02-1.83577E+05-2.25949E+06-1.75721E-01-6.28655E+05-4.03731E-02
 -1        28-2.60428E-01-1.51985E+04-5.12439E+04-1.42209E-01 1.62584E+04-1.46084E-01
 -1        29 9.40032E-02-2.83739E+05-2.02558E+06 2.75646E-01-7.62716E+05-4.84650E-02
 -1        30 1.17478E-01-2.58798E+04-5.53338E+04-9.41285E-08 2.02730E+04-6.82150E-09
 -1        31-8.36969E-02-1.49540E+05-1.03826E+06-1.34523E-07-3.73362E+05-7.00865E-08
 -1        32-2.23181E-02-1.83576E+05-2.25949E+06-2.45195E-08-6.28655E+05-1.55740E-07
 -1        33-3.23542E-01-5.99602E+03-4.43842E+04-4.52356E-01 1.21489E+04-4.32652E-01
 -1        34 2.08531E-01-4.84102E+05-1.55999E+06 6.76965E-01-8.73722E+05 3.53167E-02
 -1        35-3.23674E-01-5.99490E+03-4.43840E+04 4.69184E-08 1.21499E+04-6.97249E-08
 -1        36 2.04685E-01-4.84105E+05-1.55999E+06 2.93127E-07-8.73722E+05-2.22814E-07
 -1        37 1.45991E-01-1.10587E+04-4.77933E+04 1.81556E-01 1.36938E+04 1.98000E-01
 -1        38-5.78490E-02-2.45102E+05-8.02110E+05 1.83842E-01-4.30789E+05-2.76908E-01
 -1        39-7.24821E-02-3.85714E+05-1.79026E+06-2.76489E-01-8.19282E+05-2.33857E-02
 -1        40-3.23608E-01-5.99546E+03-4.43841E+04-2.09226E-01 1.21494E+04-1.92633E-01
 -1        41 2.06608E-01-4.84103E+05-1.55999E+06 4.21495E-01-8.73722E+05-5.65307E-02
 -1        42 1.46481E-01-1.10592E+04-4.77935E+04-1.24153E-07 1.36932E+04-1.20094E-08
 -1        43-5.98273E-02-2.45103E+05-8.02110E+05 3.16433E-07-4.30788E+05-1.67481E-07
 -1        44-7.53181E-02-3.85713E+05-1.79026E+06 2.63279E-08-8.19282E+05-1.73766E-07
 -1        45-3.81245E-01 1.99018E+03-3.70786E+04-6.37539E-01 7.27901E+03-4.75964E-01
 -1        46 3.72953E-01-6.44355E+05-1.15651E+06 9.79581E-01-8.65595E+05 1.84365E-02
 -1        47-3.83730E-01 1.99139E+03-3.70787E+04 2.22025E-07 7.27992E+03 1.02900E-07
 -1        48 3.66123E-01-6.44359E+05-1.15651E+06-6.97172E-07-8.65595E+05-1.33862E-07
 -1        49 1.78605E-01-2.79394E+03-4.08570E+04 2.70598E-01 9.49074E+03 2.30317E-01
 -1        50-4.50606E-03-3.21203E+05-5.96765E+05 2.57972E-01-4.29140E+05-3.47728E-01
 -1        51-1.37384E-01-5.65767E+05-1.35620E+06-4.05416E-01-8.69379E+05-1.21102E-02
 -1        52-3.82488E-01 1.99078E+03-3.70786E+04-2.71743E-01 7.27946E+03-2.09545E-01
 -1        53 3.69538E-01-6.44357E+05-1.15651E+06 6.17083E-01-8.65595E+05-6.22650E-02
 -1        54 1.77296E-01-2.79454E+03-4.08570E+04 1.24753E-07 9.49025E+03-6.68192E-09
 -1        55-9.15308E-03-3.21204E+05-5.96764E+05-5.84951E-07-4.29139E+05 4.31406E-08
 -1        56-1.42722E-01-5.65765E+05-1.35620E+06-1.91169E-07-8.69379E+05-1.79561E-07
 -1        57-4.07834E-01 6.79390E+03-3.04530E+04-8.14938E-01 3.78830E+03-4.65606E-01
 -1        58 6.36495E-01-7.44927E+05-8.32900E+05 1.40146E+00-7.89317E+05 1.66582E-02
 -1        59-4.13822E-01 6.79495E+03-3.04536E+04 8.69696E-08 3.78898E+03-3.31576E-07
 -1        60 6.25849E-01-7.44931E+05-8.32899E+05-7.93494E-07-7.89317E+05 2.70869E-07
 -1        61 2.04028E-01 3.56701E+03-3.38679E+04 3.64217E-01 5.56505E+03 2.39871E-01
 -1        62 1.14006E-01-3.69074E+05-4.31670E+05 3.98102E-01-3.92751E+05-3.99268E-01
 -1        63-2.38469E-01-6.95581E+05-9.93634E+05-5.81184E-01-8.26615E+05-6.57694E-03
 -1        64-4.10828E-01 6.79443E+03-3.04533E+04-3.07872E-01 3.78864E+03-1.87963E-01
 -1        65 6.31172E-01-7.44929E+05-8.32900E+05 8.80507E-01-7.89317E+05-6.57656E-02
 -1        66 1.99791E-01 3.56642E+03-3.38677E+04 4.07664E-07 5.56465E+03-1.78955E-07
 -1        67 1.05699E-01-3.69076E+05-4.31670E+05-1.36845E-07-3.92750E+05-2.16832E-07
 -1        68-2.47207E-01-6.95579E+05-9.93634E+05-1.98857E-07-8.26615E+05-3.72203E-08
 -1        69-3.59076E-01 9.97807E+03-2.45001E+04-9.37677E-01 1.19646E+03-3.82267E-01
 -1        70 1.06502E+00-7.89178E+05-5.87190E+05 2.00723E+00-6.81755E+05 4.15821E-02
 -1        71-3.70262E-01 9.97859E+03-2.45012E+04 1.06944E-06 1.19677E+03-3.36647E-08
 -1        72 1.04899E+00-7.89184E+05-5.87189E+05 1.54657E-06-6.81755E+05 1.52673E-07
 -1        73 2.05264E-01 7.71112E+03-2.76071E+04 4.44464E-01 2.68885E+03 2.18129E-01
 -1        74 3.52772E-01-3.89606E+05-3.05841E+05 6.59554E-01-3.40274E+05-4.20062E-01
 -1        75-4.03457E-01-7.67495E+05-7.09734E+05-8.30190E-01-7.34654E+05-1.09074E-02
 -1        76-3.64669E-01 9.97833E+03-2.45006E+04-2.86824E-01 1.19661E+03-1.17516E-01
 -1        77 1.05701E+00-7.89181E+05-5.87189E+05 1.23546E+00-6.81755E+05-6.25955E-02
 -1        78 1.96677E-01 7.71069E+03-2.76067E+04 1.38427E-07 2.68860E+03-1.71362E-07
 -1        79 3.39173E-01-3.89608E+05-3.05841E+05 1.13040E-06-3.40273E+05-1.30788E-07
 -1        80-4.16796E-01-7.67493E+05-7.09735E+05-3.24778E-08-7.34654E+05 2.23416E-07
 -1        81-1.65382E-01 1.19730E+04-1.94378E+04-9.31681E-01-5.10660E+02-2.01826E-01
 -1        82 1.75163E+00-7.87975E+05-4.07520E+05 2.88828E+00-5.67338E+05 1.10300E-01
 -1        83-1.83834E-01 1.19725E+04-1.94394E+04-2.97556E-07-5.10854E+02 6.72726E-07
 -1        84 1.72824E+00-7.87982E+05-4.07520E+05-2.87203E-07-5.67338E+05-9.96161E-07
 -1        85 1.54788E-01 1.04894E+04-2.21311E+04 4.82177E-01 6.06478E+02 1.54222E-01
 -1        86 7.93153E-01-3.88008E+05-2.13473E+05 1.12460E+00-2.83923E+05-3.93696E-01
 -1        87-6.71107E-01-7.88705E+05-4.97502E+05-1.19060E+00-6.23842E+05-3.22682E-02
 -1        88-1.74608E-01 1.19728E+04-1.94386E+04-1.67061E-01-5.10757E+02 1.40584E-02
 -1        89 1.73994E+00-7.87978E+05-4.07520E+05 1.71019E+00-5.67338E+05-4.55660E-02
 -1        90 1.39970E-01 1.04893E+04-2.21305E+04 1.04648E-06 6.06444E+02 8.37110E-08
 -1        91 7.72240E-01-3.88011E+05-2.13473E+05-1.10086E-06-2.83923E+05-3.87277E-07
 -1        92-6.90819E-01-7.88702E+05-4.97502E+05-3.55601E-07-6.23842E+05-6.94510E-08
 -1        93 2.77452E-01 1.32484E+04-1.52498E+04-6.85627E-01-1.57487E+03 1.04095E-01
 -1        94 2.82594E+00-7.54271E+05-2.79681E+05 4.16838E+00-4.59716E+05 2.44717E-01
 -1        95 2.49243E-01 1.32461E+04-1.52520E+04-1.43775E-07-1.57574E+03-3.16729E-07
 -1        96 2.79317E+00-7.54279E+05-2.79680E+05 1.51644E-07-4.59715E+05 1.38740E-06
 -1        97 1.00590E-02 1.22913E+04-1.75278E+04 4.32426E-01-7.78873E+02 3.49059E-02
 -1        98 1.55215E+00-3.70520E+05-1.47456E+05 1.91031E+00-2.30646E+05-2.99282E-01
 -1        99-1.09655E+00-7.71098E+05-3.43957E+05-1.71500E+00-5.13042E+05-8.03287E-02
 -1       100 2.63348E-01 1.32472E+04-1.52509E+04 1.03847E-01-1.57531E+03 2.20260E-01
 -1       101 2.80955E+00-7.54275E+05-2.79680E+05 2.33161E+00-4.59715E+05-5.78635E-03
 -1       102-1.32712E-02 1.22919E+04-1.75268E+04-4.68712E-07-7.78609E+02 7.96073E-08
 -1       103 1.52167E+00-3.70525E+05-1.47457E+05 2.78176E-08-2.30646E+05 2.42577E-07
 -1       104-1.12463E+00-7.71095E+05-3.43957E+05 1.04635E-06-5.13042E+05-2.82013E-07
 -1       105 1.11585E+00 1.40647E+04-1.18730E+04-4.58612E-02-2.17450E+03 5.66403E-01
 -1       106 4.46210E+00-6.99574E+05-1.90473E+05 5.99777E+00-3.65287E+05 4.71362E-01
 -1       107 1.07628E+00 1.40599E+04-1.18758E+04-7.14785E-07-2.17621E+03 1.43793E-06
 -1       108 4.41833E+00-6.99582E+05-1.90473E+05-1.37753E-06-3.65286E+05-1.38118E-06
 -1       109-2.91348E-01 1.34606E+04-1.37498E+04 2.29382E-01-1.64409E+03-1.54831E-01
 -1       110 2.78991E+00-3.42764E+05-1.01163E+05 3.16820E+00-1.83731E+05-1.11970E-01
 -1       111-1.75544E+00-7.26843E+05-2.35488E+05-2.47296E+00-4.12202E+05-1.67026E-01
 -1       112 1.09606E+00 1.40623E+04-1.18744E+04 5.84479E-01-2.17536E+03 5.14448E-01
 -1       113 4.44021E+00-6.99578E+05-1.90473E+05 3.11159E+00-3.65287E+05 6.61780E-02
 -1       114-3.25238E-01 1.34623E+04-1.37485E+04-4.75705E-07-1.64344E+03 9.16319E-07
 -1       115 2.74824E+00-3.42770E+05-1.01164E+05-1.37885E-06-1.83732E+05 5.66134E-07
 -1       116-1.79370E+00-7.26839E+05-2.35488E+05-8.02482E-07-4.12202E+05-4.77944E-07
 -1       117 2.54303E+00 1.45956E+04-9.19755E+03 1.19113E+00-2.46484E+03 1.21458E+00
 -1       118 6.87393E+00-6.32887E+05-1.29083E+05 8.55621E+00-2.85967E+05 8.21776E-01
 -1       119 2.49001E+00 1.45875E+04-9.20100E+03-7.75400E-09-2.46753E+03 1.22394E-07
 -1       120 6.82040E+00-6.32895E+05-1.29083E+05-1.73834E-06-2.85966E+05 1.05795E-06
 -1       121-8.34374E-01 1.42169E+04-1.07138E+04-2.13164E-01-2.13289E+03-4.30590E-01
 -1       122 4.71069E+00-3.09154E+05-6.91309E+04 5.08897E+00-1.44216E+05 1.96998E-01
 -1       123-2.74744E+00-6.66147E+05-1.60165E+05-3.54193E+00-3.25461E+05-3.06647E-01
 -1       124 2.51652E+00 1.45916E+04-9.19928E+03 1.32652E+00-2.46618E+03 9.05823E-01
 -1       125 6.84717E+00-6.32891E+05-1.29083E+05 4.01924E+00-2.85966E+05 1.79961E-01
 -1       126-8.80673E-01 1.42201E+04-1.07123E+04-4.45501E-07-2.13178E+03 7.16487E-07
 -1       127 4.65742E+00-3.09162E+05-6.91324E+04-1.96178E-07-1.44217E+05-7.88759E-08
 -1       128-2.79609E+00-6.66142E+05-1.60165E+05-1.42664E-06-3.25461E+05 2.75225E-07
 -1       129 4.78266E+00 1.49455E+04-7.10701E+03 3.23383E+00-2.55825E+03 2.07245E+00
 -1       130 1.03106E+01-5.60642E+05-8.72363E+04 1.19497E+01-2.21227E+05 1.33053E+00
 -1       131 4.72487E+00 1.49337E+04-7.11105E+03 1.13542E-06-2.56195E+03-3.56789E-07
 -1       132 1.02512E+01-5.60648E+05-8.72370E+04-1.76165E-06-2.21226E+05 6.82527E-07
 -1       133-1.72906E+00 1.47090E+04-8.31271E+03-1.00882E+00-2.36626E+03-8.05758E-01
 -1       134 7.54844E+00-2.72856E+05-4.71636E+04 7.82927E+00-1.11892E+05 6.57524E-01
 -1       135-4.18943E+00-5.96697E+05-1.08490E+05-5.01799E+00-2.53518E+05-5.15724E-01
 -1       136 4.75376E+00 1.49396E+04-7.10903E+03 2.34350E+00-2.56010E+03 1.39811E+00
 -1       137 1.02809E+01-5.60645E+05-8.72366E+04 4.93164E+00-2.21227E+05 3.40589E-01
 -1       138-1.78447E+00 1.47140E+04-8.31083E+03 1.10720E-06-2.36464E+03 9.43190E-08
 -1       139 7.48988E+00-2.72864E+05-4.71657E+04 8.78603E-07-1.11895E+05 6.54427E-09
 -1       140-4.24585E+00-5.96694E+05-1.08490E+05 4.33577E-07-2.53518E+05 8.65037E-07
 -1       141 8.06853E+00 1.51793E+04-5.49058E+03 6.34653E+00-2.53495E+03 3.14090E+00
 -1       142 1.49575E+01-4.87101E+05-5.88797E+04 1.63633E+01-1.69391E+05 2.04051E+00
 -1       143 7.99893E+00 1.51643E+04-5.49515E+03 2.65534E-08-2.53950E+03 3.30027E-07
 -1       144 1.49120E+01-4.87098E+05-5.88806E+04-3.69832E-07-1.69389E+05 1.14118E-06
 -1       145-3.08919E+00 1.50322E+04-6.43876E+03-2.24568E+00-2.43478E+03-1.28978E+00
 -1       146 1.15218E+01-2.35968E+05-3.21791E+04 1.16103E+01-8.59616E+04 1.30529E+00
 -1       147-6.21190E+00-5.23825E+05-7.33261E+04-6.90117E+00-1.95280E+05-8.12074E-01
 -1       148 8.03373E+00 1.51718E+04-5.49286E+03 3.55947E+00-2.53722E+03 1.96846E+00
 -1       149 1.49347E+01-4.87099E+05-5.88802E+04 5.54307E+00-1.69390E+05 5.54872E-01
 -1       150-3.15289E+00 1.50390E+04-6.43661E+03 9.07018E-07-2.43268E+03 1.74180E-07
 -1       151 1.14643E+01-2.35973E+05-3.21816E+04 9.24943E-10-8.59651E+04 1.26127E-06
 -1       152-6.26433E+00-5.23824E+05-7.33257E+04-3.40220E-06-1.95280E+05 2.15950E-08
 -1       153 1.24879E+01 1.53365E+04-4.25126E+03 1.03646E+01-2.44930E+03 4.40836E+00
 -1       154 2.09771E+01-4.14857E+05-3.97137E+04 2.09978E+01-1.28382E+05 2.96664E+00
 -1       155 1.24945E+01 1.53211E+04-4.25609E+03-3.15554E-06-2.45428E+03 2.86273E-06
 -1       156 2.09694E+01-4.14835E+05-3.97147E+04 5.25224E-06-1.28380E+05-2.33375E-07
 -1       157-5.04174E+00 1.52473E+04-4.99312E+03-4.08733E+00-2.40399E+03-1.87304E+00
 -1       158 1.67237E+01-1.99767E+05-2.19786E+04 1.59502E+01-6.54138E+04 2.15135E+00
 -1       159-8.88524E+00-4.50948E+05-4.95085E+04-9.35618E+00-1.48881E+05-1.21740E+00
 -1       160 1.24912E+01 1.53288E+04-4.25367E+03 4.69412E+00-2.45179E+03 2.60303E+00
 -1       161 2.09733E+01-4.14846E+05-3.97142E+04 5.23274E+00-1.28381E+05 7.86603E-01
 -1       162-5.07324E+00 1.52552E+04-4.99073E+03-3.06697E-06-2.40155E+03 8.29816E-07
 -1       163 1.67231E+01-1.99762E+05-2.19816E+04 1.97581E-06-6.54183E+04-3.37193E-07
 -1       164-8.91185E+00-4.50954E+05-4.95081E+04 9.16850E-08-1.48882E+05 3.04686E-06
 -1       165 1.79995E+01 1.54434E+04-3.30795E+03 1.58474E+01-2.33767E+03 5.71845E+00
 -1       166 2.77674E+01-3.45304E+05-2.67461E+04 2.71150E+01-9.61386E+04 4.21514E+00
 -1       167 1.79285E+01 1.54342E+04-3.31291E+03 1.06960E-07-2.34195E+03-1.63595E-06
 -1       168 2.78689E+01-3.45246E+05-2.67468E+04-6.09104E-06-9.61329E+04 1.66345E-06
 -1       169-7.52787E+00 1.53928E+04-3.89079E+03-6.18668E+00-2.31951E+03-2.55036E+00
 -1       170 2.29482E+01-1.64937E+05-1.50248E+04 2.17456E+01-4.92328E+04 3.26779E+00
 -1       171-1.22511E+01-3.80052E+05-3.33971E+04-1.14006E+01-1.12259E+05-1.72902E+00
 -1       172 1.79640E+01 1.54388E+04-3.31043E+03 5.15323E+00-2.33981E+03 3.10411E+00
 -1       173 2.78181E+01-3.45275E+05-2.67465E+04 2.78991E+00-9.61358E+04 1.08196E+00
 -1       174-7.56007E+00 1.53995E+04-3.88839E+03 1.42855E-06-2.31703E+03 1.54722E-06
 -1       175 2.29633E+01-1.64910E+05-1.50282E+04-2.73890E-06-4.92379E+04 3.50739E-07
 -1       176-1.22042E+01-3.80071E+05-3.33965E+04 3.09370E-06-1.12261E+05-1.89071E-06
 -1       177 2.34355E+01 1.55191E+04-2.59454E+03 1.86617E+01-2.22135E+03 7.11043E+00
 -1       178 3.52946E+01-2.79017E+05-1.79183E+04 2.50183E+01-7.07742E+04 5.38956E+00
 -1       179 2.40531E+01 1.55299E+04-2.59839E+03 1.68082E-06-2.22361E+03 6.69387E-07
 -1       180 3.56823E+01-2.78890E+05-1.79199E+04 3.33415E-06-7.07674E+04 3.20534E-06
 -1       181-1.06379E+01 1.54914E+04-3.06201E+03-9.41594E+00-2.21153E+03-3.16998E+00
 -1       182 2.91760E+01-1.31756E+05-1.02563E+04 2.20782E+01-3.64899E+04 4.40147E+00
 -1       183-1.58527E+01-3.12105E+05-2.24691E+04-1.51997E+01-8.34409E+04-2.43166E+00
 -1       184 2.37443E+01 1.55245E+04-2.59646E+03 3.60691E+00-2.22248E+03 3.69277E+00
 -1       185 3.54885E+01-2.78953E+05-1.79191E+04-3.76801E+00-7.07708E+04 1.02265E+00
 -1       186-1.03647E+01 1.54922E+04-3.05955E+03-1.94798E-06-2.20989E+03-6.24946E-07
 -1       187 2.96787E+01-1.31684E+05-1.02595E+04 3.04377E-06-3.64946E+04 1.15461E-06
 -1       188-1.56081E+01-3.12149E+05-2.24690E+04-2.77346E-06-8.34454E+04 3.21280E-06
 -1       189 2.79167E+01 1.55877E+04-2.06398E+03 2.78958E+01-2.11790E+03 7.26669E+00
 -1       190 3.77073E+01-2.16008E+05-1.18393E+04 3.99078E+01-5.06971E+04 7.89690E+00
 -1       191 2.72350E+01 1.56422E+04-2.06784E+03-2.40569E-06-2.11299E+03 2.54476E-07
 -1       192 3.79734E+01-2.15770E+05-1.18365E+04-6.76378E-07-5.06712E+04-3.96112E-06
 -1       193-1.28333E+01 1.55560E+04-2.45033E+03-8.73104E+00-2.10306E+03-3.91299E+00
 -1       194 3.35672E+01-1.00228E+05-6.94635E+03 3.41039E+01-2.63739E+04 6.28195E+00
 -1       195-1.94085E+01-2.47373E+05-1.49983E+04-8.96123E+00-6.06904E+04-2.90286E+00
 -1       196 2.75759E+01 1.56150E+04-2.06591E+03-1.81253E+00-2.11544E+03 2.65679E+00
 -1       197 3.78404E+01-2.15889E+05-1.18379E+04-1.83340E+01-5.06842E+04 1.65734E+00
 -1       198-1.28654E+01 1.55414E+04-2.44894E+03 1.45980E-06-2.10278E+03 1.44566E-06
 -1       199 3.33590E+01-1.00074E+05-6.95120E+03-1.74418E-06-2.63764E+04-2.07260E-06
 -1       200-1.90818E+01-2.47463E+05-1.49971E+04-3.92517E-06-6.06931E+04-8.09505E-07
 -1       201 2.40529E+01 1.56744E+04-1.67348E+03-3.56902E+00-2.01096E+03 8.85664E+00
 -1       202 4.11929E+01-1.56036E+05-7.52358E+03-4.35550E+01-3.43942E+04 4.88420E+00
 -1       203 2.89793E+01 1.58166E+04-1.67081E+03 4.56270E-06-2.00076E+03-1.37533E-06
 -1       204 4.51662E+01-1.55584E+05-7.53008E+03 2.78436E-06-3.43993E+04 5.81202E-06
 -1       205-1.57768E+01 1.55836E+04-2.01191E+03-1.81854E+01-2.00055E+03-3.27890E+00
 -1       206 2.99368E+01-7.01868E+04-4.60275E+03-2.37690E+01-1.81881E+04 5.41161E+00
 -1       207-1.99043E+01-1.85683E+05-9.79598E+03-2.91034E+01-4.24571E+04-4.75222E+00
 -1       208 2.65161E+01 1.57455E+04-1.67215E+03-1.59293E+01-2.00586E+03 4.75174E+00
 -1       209 4.31796E+01-1.55810E+05-7.52683E+03-4.50410E+01-3.43968E+04-2.11442E+00
 -1       210-1.36546E+01 1.55387E+04-2.00990E+03 8.75909E-07-2.00621E+03-1.17936E-06
 -1       211 3.43873E+01-6.98918E+04-4.59982E+03 5.48109E-06-1.81843E+04 2.33069E-06
 -1       212-1.77841E+01-1.85840E+05-9.79909E+03 4.08273E-06-4.24822E+04 7.02901E-07
 -1       213 1.21240E+01 1.58691E+04-1.46445E+03 7.22677E+01-1.96443E+03-2.39158E+00
 -1       214 1.57316E-01-9.84059E+04-4.44129E+03 1.66144E+02-2.11519E+04 2.22499E+01
 -1       215 3.35211E+00 1.61521E+04-1.46543E+03-2.96231E-06-1.91429E+03-9.84728E-07
 -1       216-9.76483E+00-9.77153E+04-4.41774E+03-4.37455E-06-2.09668E+04-1.72311E-06
 -1       217-6.61202E+00 1.55732E+04-1.70440E+03 2.34557E+01-1.94774E+03-5.47574E+00
 -1       218 1.62145E+01-4.13711E+04-2.88940E+03 1.19990E+02-1.13178E+04 1.30442E+01
 -1       219-1.70345E+01-1.26450E+05-6.07425E+03 7.44259E+01-2.76577E+04-1.69785E-01
 -1       220 7.73804E+00 1.60106E+04-1.46494E+03-4.05663E+01-1.93936E+03-1.00890E+01
 -1       221-4.80376E+00-9.80606E+04-4.42952E+03-9.82691E+01-2.10594E+04 7.32553E+00
 -1       222-8.53416E+00 1.54682E+04-1.70777E+03-1.68538E-06-1.95346E+03-2.48972E-06
 -1       223 6.86621E+00-4.08410E+04-2.91512E+03-6.39514E-06-1.13022E+04-1.59267E-06
 -1       224-2.00105E+01-1.26759E+05-6.06901E+03 2.30042E-06-2.76262E+04 5.36749E-06
 -1       225-3.74982E+01 1.61579E+04-1.28517E+03-3.38615E+02-1.67997E+03 1.95866E+01
 -1       226 1.92080E+01-4.33384E+04-1.78300E+03-8.54563E+02-8.12102E+03-5.24760E+01
 -1       227-5.13184E+00 1.67166E+04-1.27303E+03-5.10946E-06-1.67431E+03-3.37924E-06
 -1       228 8.15211E+01-4.19093E+04-1.81436E+03 3.73772E-06-8.52511E+03 1.97353E-06
 -1       229-1.24106E+01 1.54474E+04-1.48970E+03-9.29962E+01-1.84504E+03 8.36548E+00
 -1       230-4.64460E+01-1.34515E+04-1.64197E+03-6.02517E+02-5.21417E+03-1.74801E+01
 -1       231-3.20072E-01-6.92451E+04-3.17834E+03-2.33046E+02-1.45382E+04-2.06745E+01
 -1       232-2.13150E+01 1.64373E+04-1.27910E+03-9.85774E+01-1.67714E+03 2.87564E+01
 -1       233 5.03645E+01-4.26239E+04-1.79868E+03-1.68705E+02-8.32307E+03-4.19338E+01
 -1       234-6.15792E-01 1.52572E+04-1.49034E+03-2.53487E-06-1.88949E+03-3.30771E-06
 -1       235 8.94495E-01-1.25631E+04-1.54595E+03-1.51051E-06-5.17146E+03-1.69650E-06
 -1       236 2.58809E+01-6.96474E+04-3.19271E+03 1.00455E-06-1.47684E+04-3.50017E-07
 -1       237-1.89547E+02 1.27512E+04-2.04526E+03 1.02237E+03-2.32587E+03-1.92550E+02
 -1       238-5.89315E+02 2.46751E+04-1.30893E+02 2.77250E+03-4.02046E+02 6.84394E+01
 -1       239-2.45702E+02 9.36065E+03-1.95673E+03 2.34444E-07-2.45549E+03 4.07648E-06
 -1       240-8.40209E+02 1.46365E+04-1.48343E+02 4.61530E-06 8.33926E+02-8.95888E-06
 -1       241 7.54851E+01 1.53093E+04-1.31622E+03 4.36413E+02-2.14376E+03-2.89240E+01
 -1       242-2.49354E+02 1.84834E+04-7.09047E+02 1.93762E+03-7.71401E+02-3.29589E+01
 -1       243 4.34168E+01-1.21932E+04-8.91544E+02 1.08126E+03-4.73748E+03 7.08017E+01
 -1       244-2.17624E+02 1.10559E+04-2.00100E+03 4.97375E+02-2.39068E+03-1.61621E+02
 -1       245-7.14762E+02 1.96558E+04-1.39618E+02 1.00588E+03 2.15940E+02 1.33657E+02
 -1       246 6.35926E+01 1.49256E+04-1.30810E+03-2.61249E-06-2.11115E+03 1.98447E-06
 -1       247-4.02878E+02 1.20403E+04-1.03392E+03 3.39195E-06-8.90418E+02 1.46593E-06
 -1       248-5.08775E+01-1.32549E+04-9.02382E+02 2.27180E-06-4.06772E+03-5.23569E-06
 -1       249 2.10217E+00-2.07215E+04-2.87581E+06-4.81419E+00-7.07388E+03-4.07191E-01
 -1       250-1.23197E+00-3.38880E+04-6.51776E+04 9.72282E-01 1.42168E+04 2.01917E+00
 -1       251-2.09427E-01-3.74176E+04-5.94089E+04 1.60769E-01 2.51722E+04 2.43468E-01
 -1       252-1.00234E-02-8.15252E+04-2.49774E+06-2.60386E-01-4.88045E+05-1.05426E-01
 -1       253 2.10217E+00-2.07251E+04-2.87581E+06-4.22626E+00-7.07504E+03-2.46990E-01
 -1       254-1.23197E+00-3.38888E+04-6.51769E+04 1.26854E+00 1.42176E+04 1.88523E+00
 -1       255-2.08121E-01-3.74174E+04-5.94084E+04 8.55957E-02 2.51727E+04 7.85441E-02
 -1       256-8.76544E-03-8.15257E+04-2.49774E+06-1.64556E-01-4.88045E+05 3.21088E-02
 -1       257 4.31583E-01-2.71440E+04-1.47010E+06-2.15773E+00 4.75189E+03 8.13731E-01
 -1       258 9.39009E-02-3.21709E+04-6.04258E+04-5.56640E-02 1.92023E+04-9.20196E-02
 -1       259-1.10006E-01-5.95434E+04-1.27835E+06-9.77982E-02-2.31815E+05 9.64325E-02
 -1       260 3.36833E-02-4.57642E+04-2.69215E+06 8.58093E-02-2.46882E+05 6.76768E-02
 -1       261-2.60984E-01-1.51990E+04-5.12442E+04 2.87570E-01 1.62579E+04 3.50759E-01
 -1       262 9.49167E-02-2.83738E+05-2.02558E+06-4.48960E-01-7.62716E+05-6.28568E-02
 -1       263-2.60428E-01-1.51985E+04-5.12439E+04 1.42208E-01 1.62584E+04 1.46084E-01
 -1       264 9.40032E-02-2.83739E+05-2.02558E+06-2.75646E-01-7.62716E+05 4.84648E-02
 -1       265 1.15616E-01-2.58794E+04-5.53334E+04-1.07541E-01 2.02735E+04-1.49694E-01
 -1       266-8.33499E-02-1.49539E+05-1.03826E+06-1.39527E-01-3.73362E+05 1.92912E-01
 -1       267-2.26614E-02-1.83577E+05-2.25949E+06 1.75721E-01-6.28655E+05 4.03730E-02
 -1       268-3.23542E-01-5.99602E+03-4.43842E+04 4.52356E-01 1.21489E+04 4.32652E-01
 -1       269 2.08531E-01-4.84102E+05-1.55999E+06-6.76966E-01-8.73722E+05-3.53169E-02
 -1       270-3.23608E-01-5.99546E+03-4.43841E+04 2.09226E-01 1.21494E+04 1.92633E-01
 -1       271 2.06608E-01-4.84103E+05-1.55999E+06-4.21494E-01-8.73722E+05 5.65304E-02
 -1       272 1.45991E-01-1.10587E+04-4.77933E+04-1.81556E-01 1.36938E+04-1.98000E-01
 -1       273-5.78490E-02-2.45102E+05-8.02110E+05-1.83843E-01-4.30789E+05 2.76908E-01
 -1       274-7.24821E-02-3.85714E+05-1.79026E+06 2.76489E-01-8.19282E+05 2.33856E-02
 -1       275-3.81245E-01 1.99018E+03-3.70786E+04 6.37539E-01 7.27901E+03 4.75964E-01
 -1       276 3.72953E-01-6.44355E+05-1.15651E+06-9.79581E-01-8.65595E+05-1.84357E-02
 -1       277-3.82488E-01 1.99078E+03-3.70786E+04 2.71743E-01 7.27946E+03 2.09545E-01
 -1       278 3.69538E-01-6.44357E+05-1.15651E+06-6.17084E-01-8.65595E+05 6.22653E-02
 -1       279 1.78605E-01-2.79394E+03-4.08570E+04-2.70598E-01 9.49074E+03-2.30317E-01
 -1       280-4.50607E-03-3.21203E+05-5.96765E+05-2.57971E-01-4.29140E+05 3.47728E-01
 -1       281-1.37384E-01-5.65767E+05-1.35620E+06 4.05416E-01-8.69379E+05 1.21105E-02
 -1       282-4.07834E-01 6.79390E+03-3.04530E+04 8.14937E-01 3.78830E+03 4.65606E-01
 -1       283 6.36495E-01-7.44927E+05-8.32900E+05-1.40146E+00-7.89317E+05-1.66592E-02
 -1       284-4.10828E-01 6.79443E+03-3.04533E+04 3.07871E-01 3.78864E+03 1.87963E-01
 -1       285 6.31172E-01-7.44929E+05-8.32900E+05-8.80508E-01-7.89317E+05 6.57653E-02
 -1       286 2.04028E-01 3.56701E+03-3.38679E+04-3.64217E-01 5.56505E+03-2.39871E-01
 -1       287 1.14006E-01-3.69074E+05-4.31670E+05-3.98102E-01-3.92751E+05 3.99268E-01
 -1       288-2.38469E-01-6.95581E+05-9.93634E+05 5.81185E-01-8.26615E+05 6.57660E-03
 -1       289-3.59076E-01 9.97807E+03-2.45001E+04 9.37676E-01 1.19646E+03 3.82266E-01
 -1       290 1.06502E+00-7.89178E+05-5.87190E+05-2.00723E+00-6.81755E+05-4.15827E-02
 -1       291-3.64669E-01 9.97833E+03-2.45006E+04 2.86825E-01 1.19661E+03 1.17515E-01
 -1       292 1.05701E+00-7.89181E+05-5.87189E+05-1.23546E+00-6.81755E+05 6.25954E-02
 -1       293 2.05264E-01 7.71112E+03-2.76071E+04-4.44465E-01 2.68885E+03-2.18129E-01
 -1       294 3.52772E-01-3.89606E+05-3.05841E+05-6.59556E-01-3.40274E+05 4.20061E-01
 -1       295-4.03457E-01-7.67495E+05-7.09734E+05 8.30188E-01-7.34654E+05 1.09071E-02
 -1       296-1.65382E-01 1.19730E+04-1.94378E+04 9.31676E-01-5.10660E+02 2.01826E-01
 -1       297 1.75163E+00-7.87975E+05-4.07520E+05-2.88828E+00-5.67338E+05-1.10299E-01
 -1       298-1.74608E-01 1.19728E+04-1.94386E+04 1.67058E-01-5.10757E+02-1.40578E-02
 -1       299 1.73994E+00-7.87978E+05-4.07520E+05-1.71019E+00-5.67338E+05 4.55655E-02
 -1       300 1.54788E-01 1.04894E+04-2.21311E+04-4.82181E-01 6.06478E+02-1.54222E-01
 -1       301 7.93153E-01-3.88008E+05-2.13473E+05-1.12460E+00-2.83923E+05 3.93696E-01
 -1       302-6.71108E-01-7.88705E+05-4.97502E+05 1.19061E+00-6.23842E+05 3.22681E-02
 -1       303 2.77452E-01 1.32484E+04-1.52498E+04 6.85631E-01-1.57487E+03-1.04095E-01
 -1       304 2.82594E+00-7.54271E+05-2.79681E+05-4.16838E+00-4.59716E+05-2.44718E-01
 -1       305 2.63347E-01 1.32472E+04-1.52509E+04-1.03846E-01-1.57531E+03-2.20260E-01
 -1       306 2.80955E+00-7.54275E+05-2.79680E+05-2.33161E+00-4.59715E+05 5.78723E-03
 -1       307 1.00590E-02 1.22913E+04-1.75278E+04-4.32426E-01-7.78873E+02-3.49062E-02
 -1       308 1.55215E+00-3.70520E+05-1.47456E+05-1.91031E+00-2.30646E+05 2.99281E-01
 -1       309-1.09655E+00-7.71098E+05-3.43957E+05 1.71500E+00-5.13042E+05 8.03275E-02
 -1       310 1.11585E+00 1.40647E+04-1.18730E+04 4.58577E-02-2.17450E+03-5.66405E-01
 -1       311 4.46210E+00-6.99574E+05-1.90473E+05-5.99776E+00-3.65287E+05-4.71363E-01
 -1       312 1.09606E+00 1.40623E+04-1.18744E+04-5.84481E-01-2.17536E+03-5.14448E-01
 -1       313 4.44021E+00-6.99578E+05-1.90473E+05-3.11159E+00-3.65287E+05-6.61795E-02
 -1       314-2.91348E-01 1.34606E+04-1.37498E+04-2.29383E-01-1.64409E+03 1.54829E-01
 -1       315 2.78991E+00-3.42764E+05-1.01163E+05-3.16820E+00-1.83731E+05 1.11968E-01
 -1       316-1.75544E+00-7.26843E+05-2.35488E+05 2.47296E+00-4.12202E+05 1.67027E-01
 -1       317 2.54303E+00 1.45956E+04-9.19755E+03-1.19113E+00-2.46484E+03-1.21458E+00
 -1       318 6.87393E+00-6.32887E+05-1.29083E+05-8.55620E+00-2.85967E+05-8.21774E-01
 -1       319 2.51652E+00 1.45916E+04-9.19928E+03-1.32653E+00-2.46618E+03-9.05822E-01
 -1       320 6.84717E+00-6.32891E+05-1.29083E+05-4.01924E+00-2.85966E+05-1.79959E-01
 -1       321-8.34374E-01 1.42169E+04-1.07138E+04 2.13161E-01-2.13289E+03 4.30590E-01
 -1       322 4.71069E+00-3.09154E+05-6.91309E+04-5.08897E+00-1.44216E+05-1.96996E-01
 -1       323-2.74744E+00-6.66147E+05-1.60165E+05 3.54194E+00-3.25461E+05 3.06648E-01
 -1       324 4.78266E+00 1.49455E+04-7.10701E+03-3.23383E+00-2.55825E+03-2.07245E+00
 -1       325 1.03106E+01-5.60642E+05-8.72363E+04-1.19497E+01-2.21227E+05-1.33053E+00
 -1       326 4.75376E+00 1.49396E+04-7.10903E+03-2.34350E+00-2.56010E+03-1.39811E+00
 -1       327 1.02809E+01-5.60645E+05-8.72366E+04-4.93165E+00-2.21227E+05-3.40590E-01
 -1       328-1.72906E+00 1.47090E+04-8.31271E+03 1.00882E+00-2.36626E+03 8.05759E-01
 -1       329 7.54844E+00-2.72856E+05-4.71636E+04-7.82928E+00-1.11892E+05-6.57526E-01
 -1       330-4.18943E+00-5.96697E+05-1.08490E+05 5.01799E+00-2.53518E+05 5.15724E-01
 -1       331 8.06853E+00 1.51793E+04-5.49058E+03-6.34652E+00-2.53495E+03-3.14091E+00
 -1       332 1.49575E+01-4.87101E+05-5.88797E+04-1.63633E+01-1.69391E+05-2.04051E+00
 -1       333 8.03373E+00 1.51718E+04-5.49286E+03-3.55947E+00-2.53722E+03-1.96846E+00
 -1       334 1.49347E+01-4.87099E+05-5.88802E+04-5.54307E+00-1.69390E+05-5.54874E-01
 -1       335-3.08919E+00 1.50322E+04-6.43876E+03 2.24568E+00-2.43478E+03 1.28978E+00
 -1       336 1.15218E+01-2.35968E+05-3.21791E+04-1.16103E+01-8.59616E+04-1.30529E+00
 -1       337-6.21190E+00-5.23825E+05-7.33261E+04 6.90117E+00-1.95280E+05 8.12070E-01
 -1       338 1.24879E+01 1.53365E+04-4.25126E+03-1.03646E+01-2.44930E+03-4.40836E+00
 -1       339 2.09771E+01-4.14857E+05-3.97137E+04-2.09978E+01-1.28382E+05-2.96664E+00
 -1       340 1.24912E+01 1.53288E+04-4.25367E+03-4.69413E+00-2.45179E+03-2.60303E+00
 -1       341 2.09733E+01-4.14846E+05-3.97142E+04-5.23273E+00-1.28381E+05-7.86602E-01
 -1       342-5.04174E+00 1.52473E+04-4.99312E+03 4.08733E+00-2.40399E+03 1.87304E+00
 -1       343 1.67237E+01-1.99767E+05-2.19786E+04-1.59502E+01-6.54138E+04-2.15135E+00
 -1       344-8.88524E+00-4.50948E+05-4.95085E+04 9.35619E+00-1.48881E+05 1.21740E+00
 -1       345 1.79995E+01 1.54434E+04-3.30795E+03-1.58474E+01-2.33767E+03-5.71845E+00
 -1       346 2.77674E+01-3.45304E+05-2.67461E+04-2.71150E+01-9.61386E+04-4.21513E+00
 -1       347 1.79640E+01 1.54388E+04-3.31043E+03-5.15323E+00-2.33981E+03-3.10411E+00
 -1       348 2.78181E+01-3.45275E+05-2.67465E+04-2.78991E+00-9.61358E+04-1.08196E+00
 -1       349-7.52787E+00 1.53928E+04-3.89079E+03 6.18669E+00-2.31951E+03 2.55036E+00
 -1       350 2.29482E+01-1.64937E+05-1.50248E+04-2.17456E+01-4.92328E+04-3.26778E+00
 -1       351-1.22511E+01-3.80052E+05-3.33971E+04 1.14006E+01-1.12259E+05 1.72903E+00
 -1       352 2.34355E+01 1.55191E+04-2.59454E+03-1.86617E+01-2.22135E+03-7.11042E+00
 -1       353 3.52946E+01-2.79017E+05-1.79183E+04-2.50183E+01-7.07742E+04-5.38956E+00
 -1       354 2.37443E+01 1.55245E+04-2.59646E+03-3.60692E+00-2.22248E+03-3.69277E+00
 -1       355 3.54885E+01-2.78953E+05-1.79191E+04 3.76802E+00-7.07708E+04-1.02265E+00
 -1       356-1.06379E+01 1.54914E+04-3.06201E+03 9.41593E+00-2.21153E+03 3.16998E+00
 -1       357 2.91760E+01-1.31756E+05-1.02563E+04-2.20782E+01-3.64899E+04-4.40147E+00
 -1       358-1.58527E+01-3.12105E+05-2.24691E+04 1.51997E+01-8.34409E+04 2.43166E+00
 -1       359 2.79167E+01 1.55877E+04-2.06398E+03-2.78958E+01-2.11790E+03-7.26669E+00
 -1       360 3.77073E+01-2.16008E+05-1.18393E+04-3.99078E+01-5.06971E+04-7.89691E+00
 -1       361 2.75759E+01 1.56150E+04-2.06591E+03 1.81253E+00-2.11544E+03-2.65679E+00
 -1       362 3.78404E+01-2.15889E+05-1.18379E+04 1.83340E+01-5.06842E+04-1.65734E+00
 -1       363-1.28333E+01 1.55560E+04-2.45033E+03 8.73104E+00-2.10306E+03 3.91299E+00
 -1       364 3.35672E+01-1.00228E+05-6.94635E+03-3.41039E+01-2.63739E+04-6.28195E+00
 -1       365-1.94085E+01-2.47373E+05-1.49983E+04 8.96122E+00-6.06904E+04 2.90286E+00
 -1       366 2.40529E+01 1.56744E+04-1.67348E+03 3.56901E+00-2.01096E+03-8.85664E+00
 -1       367 4.11929E+01-1.56036E+05-7.52358E+03 4.35550E+01-3.43942E+04-4.88420E+00
 -1       368 2.65161E+01 1.57455E+04-1.67215E+03 1.59293E+01-2.00586E+03-4.75174E+00
 -1       369 4.31796E+01-1.55810E+05-7.52683E+03 4.50410E+01-3.43968E+04 2.11443E+00
 -1       370-1.57768E+01 1.55836E+04-2.01191E+03 1.81854E+01-2.00055E+03 3.27890E+00
 -1       371 2.99368E+01-7.01868E+04-4.60275E+03 2.37690E+01-1.81881E+04-5.41161E+00
 -1       372-1.99043E+01-1.85683E+05-9.79598E+03 2.91034E+01-4.24571E+04 4.75222E+00
 -1       373 1.21240E+01 1.58691E+04-1.46445E+03-7.22677E+01-1.96443E+03 2.39159E+00
 -1       374 1.57316E-01-9.84059E+04-4.44129E+03-1.66144E+02-2.11519E+04-2.22499E+01
 -1       375 7.73804E+00 1.60106E+04-1.46494E+03 4.05663E+01-1.93936E+03 1.00890E+01
 -1       376-4.80376E+00-9.80606E+04-4.42952E+03 9.82691E+01-2.10594E+04-7.32553E+00
 -1       377-6.61202E+00 1.55732E+04-1.70440E+03-2.34557E+01-1.94774E+03 5.47575E+00
 -1       378 1.62145E+01-4.13711E+04-2.88940E+03-1.19990E+02-1.13178E+04-1.30442E+01
 -1       379-1.70345E+01-1.26450E+05-6.07425E+03-7.44259E+01-2.76577E+04 1.69782E-01
 -1       380-3.74982E+01 1.61579E+04-1.28517E+03 3.38615E+02-1.67997E+03-1.95866E+01
 -1       381 1.92080E+01-4.33384E+04-1.78300E+03 8.54563E+02-8.12102E+03 5.24761E+01
 -1       382-2.13150E+01 1.64373E+04-1.27910E+03 9.85774E+01-1.67714E+03-2.87564E+01
 -1       383 5.03645E+01-4.26239E+04-1.79868E+03 1.68705E+02-8.32307E+03 4.19339E+01
 -1       384-1.24106E+01 1.54474E+04-1.48970E+03 9.29962E+01-1.84504E+03-8.36547E+00
 -1       385-4.64460E+01-1.34515E+04-1.64197E+03 6.02517E+02-5.21417E+03 1.74801E+01
 -1       386-3.20072E-01-6.92451E+04-3.17834E+03 2.33046E+02-1.45382E+04 2.06745E+01
 -1       387-1.89547E+02 1.27512E+04-2.04526E+03-1.02237E+03-2.32587E+03 1.92550E+02
 -1       388-5.89315E+02 2.46751E+04-1.30893E+02-2.77250E+03-4.02046E+02-6.84394E+01
 -1       389-2.17624E+02 1.10559E+04-2.00100E+03-4.97375E+02-2.39068E+03 1.61621E+02
 -1       390-7.14762E+02 1.96558E+04-1.39618E+02-1.00588E+03 2.15940E+02-1.33657E+02
 -1       391 7.54851E+01 1.53093E+04-1.31622E+03-4.36413E+02-2.14376E+03 2.89240E+01
 -1       392-2.49354E+02 1.84834E+04-7.09047E+02-1.93762E+03-7.71401E+02 3.29589E+01
 -1       393 4.34168E+01-1.21932E+04-8.91544E+02-1.08126E+03-4.73748E+03-7.08017E+01
 -1       394-1.55329E+00-4.79705E+04 3.00637E+06 1.10163E+00 3.99680E+04 2.02238E+00
 -1       395 1.97651E-01 8.67360E+04 2.60197E+06-1.67369E-01 5.13281E+05 4.75053E-02
 -1       396-1.55329E+00-4.79671E+04 3.00637E+06-9.56838E-08 3.99702E+04 1.74247E-07
 -1       397 1.92056E-01 8.67357E+04 2.60197E+06-5.62316E-08 5.13281E+05 2.30980E-07
 -1       398-1.38911E+00-4.10900E+04 1.47020E+06-1.72101E-01 2.59120E+04 9.34672E-03
 -1       399-9.96952E-02 2.07618E+04 2.80650E+06 8.02383E-02 2.74283E+05 4.53545E-02
 -1       400-5.60604E-03 2.47311E+04 1.27106E+06-2.12058E-01 2.69605E+05-7.05705E-02
 -1       401-1.55329E+00-4.79688E+04 3.00637E+06 1.05656E+00 3.99691E+04 2.19669E+00
 -1       402 1.94854E-01 8.67359E+04 2.60197E+06-5.45070E-02 5.13281E+05 1.47844E-01
 -1       403-1.38911E+00-4.10866E+04 1.47020E+06-7.14381E-08 2.59148E+04 7.39798E-08
 -1       404-1.02492E-01 2.07618E+04 2.80650E+06-2.99864E-09 2.74283E+05 1.40823E-07
 -1       405-7.10755E-03 2.47313E+04 1.27106E+06-3.01877E-08 2.69605E+05 8.34829E-08
 -1       406 2.24042E-01 2.89022E+05 2.09952E+06-1.24738E-01 8.04597E+05 3.62570E-01
 -1       407 2.17806E-01 2.89021E+05 2.09952E+06 2.23975E-07 8.04595E+05 1.80972E-07
 -1       408-9.77986E-02 1.89227E+05 2.35007E+06 7.97984E-02 6.60247E+05-9.83096E-02
 -1       409-1.81551E-02 1.36982E+05 1.02399E+06-2.64986E-01 4.10560E+05 5.48661E-02
 -1       410 2.20924E-01 2.89021E+05 2.09952E+06 6.79166E-04 8.04596E+05 3.61457E-01
 -1       411-1.03715E-01 1.89227E+05 2.35007E+06 1.47780E-07 6.60248E+05 1.39846E-07
 -1       412-2.07270E-02 1.36982E+05 1.02399E+06 3.43088E-08 4.10560E+05 6.62402E-08
 -1       413 3.20419E-01 5.04530E+05 1.61185E+06 1.27912E-02 9.13783E+05 7.43804E-01
 -1       414 3.11724E-01 5.04529E+05 1.61184E+06 5.32802E-07 9.13781E+05 2.36057E-07
 -1       415-1.26144E-01 3.97723E+05 1.85499E+06 3.61118E-02 8.59577E+05-2.70122E-01
 -1       416-1.21775E-03 2.49321E+05 7.83655E+05-2.91320E-01 4.62968E+05 2.33816E-01
 -1       417 3.16072E-01 5.04530E+05 1.61184E+06 1.12368E-01 9.13782E+05 6.28815E-01
 -1       418-1.33610E-01 3.97723E+05 1.85499E+06-4.49185E-08 8.59578E+05 9.24839E-08
 -1       419-5.64224E-03 2.49321E+05 7.83654E+05 1.43450E-07 4.62967E+05 1.04377E-07
 -1       420 5.14638E-01 6.71502E+05 1.19121E+06 2.74890E-01 9.02372E+05 1.21769E+00
 -1       421 5.02984E-01 6.71500E+05 1.19120E+06-8.26648E-07 9.02369E+05 1.43403E-07
 -1       422-1.94552E-01 5.88154E+05 1.40122E+06-6.00212E-02 9.07981E+05-4.80648E-01
 -1       423 6.70566E-02 3.36767E+05 5.77036E+05-2.68276E-01 4.54807E+05 4.89826E-01
 -1       424 5.08811E-01 6.71501E+05 1.19120E+06 2.97222E-01 9.02370E+05 9.62173E-01
 -1       425-2.04726E-01 5.88155E+05 1.40123E+06-9.92298E-08 9.07982E+05 2.06776E-07
 -1       426 5.99767E-02 3.36766E+05 5.77033E+05 4.50659E-08 4.54806E+05 6.45296E-08
 -1       427 8.51404E-01 7.76598E+05 8.56004E+05 7.15312E-01 8.20543E+05 1.81796E+00
 -1       428 8.35481E-01 7.76595E+05 8.55999E+05-3.32044E-07 8.20539E+05 1.32789E-07
 -1       429-3.21137E-01 7.23677E+05 1.02349E+06-2.29310E-01 8.61293E+05-7.45396E-01
 -1       430 2.22109E-01 3.91704E+05 4.12769E+05-1.54654E-01 4.12152E+05 8.50974E-01
 -1       431 8.43442E-01 7.76596E+05 8.56002E+05 5.78871E-01 8.20541E+05 1.37900E+00
 -1       432-3.34925E-01 7.23678E+05 1.02349E+06-7.26373E-07 8.61295E+05 1.67891E-07
 -1       433 2.11144E-01 3.91703E+05 4.12766E+05-3.38954E-07 4.12150E+05 8.70856E-08
 -1       434 1.39674E+00 8.22675E+05 6.02419E+05 1.41394E+00 7.07639E+05 2.58173E+00
 -1       435 1.37512E+00 8.22671E+05 6.02413E+05-2.46195E-08 7.07634E+05 1.28388E-07
 -1       436-5.32734E-01 7.99027E+05 7.29193E+05-5.04654E-01 7.64009E+05-1.08217E+00
 -1       437 5.19033E-01 4.16332E+05 2.88956E+05 1.13353E-01 3.54412E+05 1.34945E+00
 -1       438 1.38593E+00 8.22673E+05 6.02416E+05 9.87353E-01 7.07637E+05 1.89884E+00
 -1       439-5.51502E-01 7.99029E+05 7.29196E+05-5.23676E-07 7.64011E+05 1.01061E-07
 -1       440 5.02623E-01 4.16330E+05 2.88952E+05 7.00012E-07 3.54410E+05 2.37654E-07
 -1       441 2.24520E+00 8.21889E+05 4.17611E+05 2.47845E+00 5.88457E+05 3.54705E+00
 -1       442 2.21635E+00 8.21884E+05 4.17604E+05-1.38800E-06 5.88450E+05-6.47712E-07
 -1       443-8.68951E-01 8.21642E+05 5.10013E+05-9.32461E-01 6.48067E+05-1.50992E+00
 -1       444 1.03988E+00 4.16938E+05 1.99080E+05 6.27083E-01 2.93972E+05 2.02054E+00
 -1       445 2.23077E+00 8.21887E+05 4.17608E+05 1.55500E+00 5.88454E+05 2.54058E+00
 -1       446-8.94183E-01 8.21644E+05 5.10016E+05-9.05795E-07 6.48070E+05-4.76951E-07
 -1       447 1.01622E+00 4.16935E+05 1.99076E+05-3.42926E-08 2.93969E+05 2.38067E-07
 -1       448 3.52558E+00 7.87780E+05 2.86432E+05 4.04496E+00 4.76910E+05 4.75002E+00
 -1       449 3.48863E+00 7.87773E+05 2.86424E+05 1.98958E-06 4.76901E+05 1.20257E-07
 -1       450-1.38535E+00 8.04267E+05 3.52002E+05-1.57279E+00 5.32771E+05-2.04733E+00
 -1       451 1.90106E+00 4.00523E+05 1.35582E+05 1.51073E+00 2.37668E+05 2.90075E+00
 -1       452 3.50710E+00 7.87776E+05 2.86428E+05 2.30741E+00 4.76906E+05 3.31906E+00
 -1       453-1.41825E+00 8.04271E+05 3.52006E+05 1.14882E-06 5.32776E+05 3.21990E-08
 -1       454 1.86847E+00 4.00518E+05 1.35577E+05 8.99020E-07 2.37663E+05 1.94522E-07
 -1       455 5.40267E+00 7.32319E+05 1.95074E+05 6.26606E+00 3.79345E+05 6.21836E+00
 -1       456 5.35752E+00 7.32310E+05 1.95065E+05 3.71210E-06 3.79334E+05 6.27584E-07
 -1       457-2.15612E+00 7.59591E+05 2.40709E+05-2.49942E+00 4.28246E+05-2.71118E+00
 -1       458 3.25833E+00 3.73201E+05 9.15904E+04 2.91785E+00 1.88586E+05 4.02323E+00
 -1       459 5.38009E+00 7.32314E+05 1.95069E+05 3.24580E+00 3.79340E+05 4.23948E+00
 -1       460-2.19717E+00 7.59595E+05 2.40713E+05 2.72679E-06 4.28251E+05-1.39956E-07
 -1       461 3.21596E+00 3.73194E+05 9.15842E+04 1.83135E-06 1.88580E+05 4.94995E-07
 -1       462 8.06883E+00 6.64765E+05 1.32295E+05 9.30373E+00 2.97568E+05 7.96453E+00
 -1       463 8.02129E+00 6.64756E+05 1.32285E+05-3.53899E-06 2.97555E+05-2.01022E-06
 -1       464-3.27290E+00 6.98191E+05 1.63620E+05-3.78681E+00 3.38576E+05-3.51137E+00
 -1       465 5.30372E+00 3.39689E+05 6.15392E+04 5.03213E+00 1.47552E+05 5.41074E+00
 -1       466 8.04506E+00 6.64760E+05 1.32290E+05 4.31308E+00 2.97561E+05 5.29023E+00
 -1       467-3.31924E+00 6.98195E+05 1.63624E+05 2.70199E-07 3.38582E+05-8.42386E-07
 -1       468 5.25344E+00 3.39680E+05 6.15323E+04-2.45024E-06 1.47544E+05-2.74863E-07
 -1       469 1.17140E+01 5.91690E+05 8.95488E+04 1.32129E+01 2.30919E+05 9.95798E+00
 -1       470 1.16675E+01 5.91683E+05 8.95385E+04 1.35845E-06 2.30905E+05-2.82909E-07
 -1       471-4.83857E+00 6.27968E+05 1.10843E+05-5.51543E+00 2.64348E+05-4.44905E+00
 -1       472 8.24648E+00 3.03325E+05 4.12129E+04 7.98583E+00 1.14180E+05 7.05918E+00
 -1       473 1.16907E+01 5.91686E+05 8.95436E+04 5.33781E+00 2.30912E+05 6.42494E+00
 -1       474-4.88556E+00 6.27972E+05 1.10848E+05-1.96920E-06 2.64355E+05-9.46967E-07
 -1       475 8.19437E+00 3.03315E+05 4.12054E+04 5.52182E-08 1.14172E+05-1.63525E-07
 -1       476 1.64509E+01 5.17413E+05 6.06075E+04 1.80670E+01 1.77603E+05 1.21368E+01
 -1       477 1.64533E+01 5.17415E+05 6.05968E+04 3.03284E-06 1.77588E+05-6.49023E-08
 -1       478-6.93902E+00 5.54366E+05 7.49900E+04-7.64613E+00 2.04342E+05-5.48983E+00
 -1       479 1.22509E+01 2.66303E+05 2.75524E+04 1.19514E+01 8.75328E+04 8.92427E+00
 -1       480 1.64521E+01 5.17414E+05 6.06021E+04 5.92848E+00 1.77596E+05 7.55880E+00
 -1       481-6.96106E+00 5.54367E+05 7.49953E+04 3.37681E-06 2.04350E+05-1.16205E-07
 -1       482 1.22173E+01 2.66296E+05 2.75446E+04 1.35713E-06 8.75252E+04-3.93110E-07
 -1       483 2.21797E+01 4.44545E+05 4.10620E+04 2.28757E+01 1.35449E+05 1.42261E+01
 -1       484 2.21895E+01 4.44567E+05 4.10514E+04-3.15451E-07 1.35436E+05-5.02027E-06
 -1       485-9.61284E+00 4.80855E+05 5.07365E+04-1.02752E+01 1.56580E+05-6.60368E+00
 -1       486 1.73427E+01 2.29947E+05 1.84015E+04 1.63512E+01 6.64977E+04 1.08534E+01
 -1       487 2.21846E+01 4.44556E+05 4.10567E+04 5.33454E+00 1.35442E+05 8.47691E+00
 -1       488-9.60676E+00 4.80850E+05 5.07418E+04 4.73138E-06 1.56587E+05-2.47243E-06
 -1       489 1.73509E+01 2.29949E+05 1.83938E+04-2.66296E-06 6.64923E+04 5.73095E-07
 -1       490 2.82631E+01 3.74464E+05 2.78530E+04 2.85297E+01 1.02318E+05 1.61457E+01
 -1       491 2.86580E+01 3.74525E+05 2.78435E+04 6.72104E-06 1.02310E+05 9.25787E-07
 -1       492-1.26807E+01 4.09442E+05 3.43437E+04-1.22721E+01 1.18910E+05-7.53582E+00
 -1       493 2.30666E+01 1.94960E+05 1.22703E+04 2.19242E+01 4.99846E+04 1.26311E+01
 -1       494 2.84606E+01 3.74495E+05 2.78482E+04 2.13451E+00 1.02314E+05 9.00135E+00
 -1       495-1.24783E+01 4.09423E+05 3.43489E+04-3.38039E-07 1.18915E+05-6.54942E-07
 -1       496 2.32287E+01 1.94984E+05 1.22636E+04 3.16086E-06 4.99844E+04-6.92070E-07
 -1       497 3.32039E+01 3.07707E+05 1.88807E+04 2.48814E+01 7.62619E+04 1.62221E+01
 -1       498 3.31115E+01 3.07838E+05 1.88726E+04 2.17425E-07 7.62713E+04-3.92682E-06
 -1       499-1.58362E+01 3.41103E+05 2.32271E+04-1.56545E+01 8.92899E+04-8.46749E+00
 -1       500 2.85088E+01 1.61620E+05 8.14299E+03 2.15333E+01 3.70124E+04 1.35148E+01
 -1       501 3.31577E+01 3.07772E+05 1.88767E+04-5.96058E+00 7.62666E+04 8.15840E+00
 -1       502-1.56848E+01 3.41056E+05 2.32313E+04 7.37622E-07 8.92918E+04-3.17249E-06
 -1       503 2.87713E+01 1.61688E+05 8.13747E+03 4.12828E-07 3.70229E+04-8.45958E-07
 -1       504 3.33346E+01 2.44214E+05 1.27218E+04 3.58313E+01 5.56563E+04 1.67832E+01
 -1       505 3.63971E+01 2.44475E+05 1.27203E+04-6.06944E-06 5.56709E+04 3.53283E-07
 -1       506-1.72815E+01 2.76108E+05 1.56256E+04-8.03932E+00 6.59396E+04-7.47053E+00
 -1       507 2.98705E+01 1.29918E+05 5.32360E+03 3.16615E+01 2.67356E+04 1.33248E+01
 -1       508 3.48659E+01 2.44345E+05 1.27210E+04-2.31820E+01 5.56636E+04 6.77605E+00
 -1       509-1.57967E+01 2.76017E+05 1.56290E+04 9.93351E-07 6.59270E+04-2.21427E-06
 -1       510 3.10614E+01 1.30069E+05 5.32526E+03-4.03441E-06 2.67633E+04 5.23162E-07
 -1       511 2.24960E+01 1.83651E+05 8.36120E+03-5.38174E+01 3.88962E+04 3.83243E+00
 -1       512 1.77500E+01 1.84086E+05 8.36126E+03 3.26999E-06 3.90139E+04 5.77024E-06
 -1       513-1.73877E+01 2.14316E+05 1.03223E+04-2.61454E+01 4.72633E+04-9.00999E+00
 -1       514 2.59606E+01 9.96688E+04 3.34808E+03-2.84862E+01 1.84282E+04 7.80335E+00
 -1       515 2.01230E+01 1.83868E+05 8.36123E+03-5.49434E+01 3.89551E+04-2.26342E+00
 -1       516-1.82285E+01 2.14137E+05 1.03211E+04-1.73924E-06 4.72583E+04 4.46409E-06
 -1       517 2.60502E+01 9.99593E+04 3.34460E+03 2.10878E-06 1.84909E+04 2.08510E-06
 -1       518-9.87293E+00 1.25064E+05 5.20341E+03 1.39076E+02 2.54169E+04 1.52953E+01
 -1       519 1.50950E+01 1.25915E+05 5.22646E+03-7.08780E-06 2.53548E+04-1.38938E-06
 -1       520-9.65815E-01 1.55176E+05 6.57087E+03 8.39368E+01 3.22143E+04 6.31101E+00
 -1       521-8.94831E+00 7.05692E+04 1.80601E+03 1.04888E+02 1.14859E+04 3.33683E+00
 -1       522 2.61106E+00 1.25490E+05 5.21494E+03-1.13212E+02 2.53859E+04-1.54562E-01
 -1       523 9.14322E+00 1.54904E+05 6.56757E+03-3.24829E-06 3.21008E+04-2.93420E-07
 -1       524-8.48990E-01 7.10931E+04 1.85405E+03-2.29834E-06 1.15819E+04-9.48304E-07
 -1       525-1.00818E+02 6.86501E+04 2.23404E+03-8.88137E+02 1.16345E+04-9.55555E+01
 -1       526-1.62984E+02 6.96225E+04 2.27555E+03 4.07098E-06 1.25694E+04-3.77740E-06
 -1       527-5.12896E+00 9.84400E+04 3.57255E+03-2.21441E+02 1.88324E+04-2.23552E+01
 -1       528-3.18573E+01 4.22653E+04 5.82321E+02-6.07448E+02 5.29097E+03-3.69491E+01
 -1       529-1.31901E+02 6.91363E+04 2.25479E+03-2.05255E+02 1.21020E+04-6.38437E+01
 -1       530-2.37248E+01 9.78471E+04 3.56767E+03-1.07976E-06 1.89935E+04-2.90966E-06
 -1       531-4.67577E+01 4.31363E+04 5.03512E+02 3.05393E-07 5.51929E+03-2.58467E-06
 -1       532-2.21147E+01 2.18173E+04-8.82104E+01 3.06162E+03 7.29643E+03 1.99735E+01
 -1       533 1.92607E+02 1.32142E+04-9.83170E+01-6.15459E-06 3.51734E+03 2.97399E-06
 -1       534 1.67591E+02 4.21011E+04 1.95574E+03 1.12854E+03 9.51122E+03 1.26775E+02
 -1       535-2.45908E+02 1.75141E+04-1.44577E+03 2.00181E+03 1.89272E+03-1.15385E+02
 -1       536 8.52463E+01 1.75158E+04-9.32637E+01 1.27601E+03 5.40688E+03 9.32321E+01
 -1       537 2.43867E+02 4.16719E+04 1.85848E+03-1.09041E-06 8.44537E+03 2.19874E-06
 -1       538-1.66625E+02 1.12457E+04-1.04614E+03-3.92715E-06 6.10562E+02-3.81895E-07
 -1       539-1.55329E+00-4.79705E+04 3.00637E+06-1.10163E+00 3.99680E+04-2.02238E+00
 -1       540 1.97651E-01 8.67360E+04 2.60197E+06 1.67369E-01 5.13281E+05-4.75053E-02
 -1       541-1.55329E+00-4.79688E+04 3.00637E+06-1.05656E+00 3.99691E+04-2.19669E+00
 -1       542 1.94854E-01 8.67359E+04 2.60197E+06 5.45070E-02 5.13281E+05-1.47844E-01
 -1       543-1.38911E+00-4.10900E+04 1.47020E+06 1.72101E-01 2.59120E+04-9.34663E-03
 -1       544-9.96952E-02 2.07618E+04 2.80650E+06-8.02382E-02 2.74283E+05-4.53544E-02
 -1       545-5.60605E-03 2.47311E+04 1.27106E+06 2.12058E-01 2.69605E+05 7.05705E-02
 -1       546 2.24042E-01 2.89022E+05 2.09952E+06 1.24738E-01 8.04597E+05-3.62570E-01
 -1       547 2.20924E-01 2.89021E+05 2.09952E+06-6.79104E-04 8.04596E+05-3.61457E-01
 -1       548-9.77986E-02 1.89227E+05 2.35007E+06-7.97986E-02 6.60247E+05 9.83097E-02
 -1       549-1.81551E-02 1.36982E+05 1.02399E+06 2.64986E-01 4.10560E+05-5.48660E-02
 -1       550 3.20419E-01 5.04530E+05 1.61185E+06-1.27911E-02 9.13783E+05-7.43804E-01
 -1       551 3.16072E-01 5.04530E+05 1.61184E+06-1.12367E-01 9.13782E+05-6.28815E-01
 -1       552-1.26144E-01 3.97723E+05 1.85499E+06-3.61117E-02 8.59577E+05 2.70122E-01
 -1       553-1.21776E-03 2.49321E+05 7.83655E+05 2.91320E-01 4.62968E+05-2.33816E-01
 -1       554 5.14638E-01 6.71502E+05 1.19121E+06-2.74888E-01 9.02372E+05-1.21769E+00
 -1       555 5.08811E-01 6.71501E+05 1.19120E+06-2.97222E-01 9.02370E+05-9.62173E-01
 -1       556-1.94552E-01 5.88154E+05 1.40122E+06 6.00216E-02 9.07981E+05 4.80648E-01
 -1       557 6.70566E-02 3.36767E+05 5.77036E+05 2.68276E-01 4.54807E+05-4.89826E-01
 -1       558 8.51404E-01 7.76598E+05 8.56004E+05-7.15311E-01 8.20543E+05-1.81796E+00
 -1       559 8.43443E-01 7.76596E+05 8.56002E+05-5.78871E-01 8.20541E+05-1.37900E+00
 -1       560-3.21137E-01 7.23677E+05 1.02349E+06 2.29312E-01 8.61293E+05 7.45396E-01
 -1       561 2.22109E-01 3.91704E+05 4.12769E+05 1.54654E-01 4.12152E+05-8.50974E-01
 -1       562 1.39674E+00 8.22675E+05 6.02419E+05-1.41394E+00 7.07639E+05-2.58173E+00
 -1       563 1.38593E+00 8.22673E+05 6.02416E+05-9.87352E-01 7.07637E+05-1.89884E+00
 -1       564-5.32734E-01 7.99027E+05 7.29193E+05 5.04656E-01 7.64009E+05 1.08217E+00
 -1       565 5.19033E-01 4.16332E+05 2.88956E+05-1.13352E-01 3.54412E+05-1.34945E+00
 -1       566 2.24520E+00 8.21889E+05 4.17611E+05-2.47845E+00 5.88457E+05-3.54705E+00
 -1       567 2.23077E+00 8.21887E+05 4.17608E+05-1.55500E+00 5.88454E+05-2.54058E+00
 -1       568-8.68951E-01 8.21642E+05 5.10013E+05 9.32464E-01 6.48067E+05 1.50992E+00
 -1       569 1.03988E+00 4.16938E+05 1.99080E+05-6.27083E-01 2.93972E+05-2.02054E+00
 -1       570 3.52558E+00 7.87780E+05 2.86432E+05-4.04497E+00 4.76910E+05-4.75002E+00
 -1       571 3.50710E+00 7.87776E+05 2.86428E+05-2.30741E+00 4.76906E+05-3.31906E+00
 -1       572-1.38535E+00 8.04267E+05 3.52002E+05 1.57279E+00 5.32771E+05 2.04733E+00
 -1       573 1.90106E+00 4.00523E+05 1.35582E+05-1.51073E+00 2.37668E+05-2.90075E+00
 -1       574 5.40267E+00 7.32319E+05 1.95074E+05-6.26605E+00 3.79345E+05-6.21836E+00
 -1       575 5.38009E+00 7.32314E+05 1.95069E+05-3.24579E+00 3.79340E+05-4.23948E+00
 -1       576-2.15612E+00 7.59591E+05 2.40709E+05 2.49942E+00 4.28246E+05 2.71118E+00
 -1       577 3.25833E+00 3.73201E+05 9.15904E+04-2.91785E+00 1.88586E+05-4.02323E+00
 -1       578 8.06883E+00 6.64765E+05 1.32295E+05-9.30374E+00 2.97568E+05-7.96452E+00
 -1       579 8.04506E+00 6.64760E+05 1.32290E+05-4.31309E+00 2.97561E+05-5.29022E+00
 -1       580-3.27290E+00 6.98191E+05 1.63620E+05 3.78681E+00 3.38576E+05 3.51137E+00
 -1       581 5.30372E+00 3.39689E+05 6.15392E+04-5.03213E+00 1.47552E+05-5.41074E+00
 -1       582 1.17140E+01 5.91690E+05 8.95488E+04-1.32129E+01 2.30919E+05-9.95798E+00
 -1       583 1.16907E+01 5.91686E+05 8.95436E+04-5.33781E+00 2.30912E+05-6.42495E+00
 -1       584-4.83857E+00 6.27968E+05 1.10843E+05 5.51543E+00 2.64348E+05 4.44906E+00
 -1       585 8.24648E+00 3.03325E+05 4.12129E+04-7.98584E+00 1.14180E+05-7.05918E+00
 -1       586 1.64509E+01 5.17413E+05 6.06075E+04-1.80670E+01 1.77603E+05-1.21368E+01
 -1       587 1.64521E+01 5.17414E+05 6.06021E+04-5.92847E+00 1.77596E+05-7.55880E+00
 -1       588-6.93902E+00 5.54366E+05 7.49900E+04 7.64612E+00 2.04342E+05 5.48983E+00
 -1       589 1.22509E+01 2.66303E+05 2.75524E+04-1.19514E+01 8.75328E+04-8.92427E+00
 -1       590 2.21797E+01 4.44545E+05 4.10620E+04-2.28757E+01 1.35449E+05-1.42261E+01
 -1       591 2.21846E+01 4.44556E+05 4.10567E+04-5.33454E+00 1.35442E+05-8.47691E+00
 -1       592-9.61284E+00 4.80855E+05 5.07365E+04 1.02752E+01 1.56580E+05 6.60368E+00
 -1       593 1.73427E+01 2.29947E+05 1.84015E+04-1.63512E+01 6.64977E+04-1.08534E+01
 -1       594 2.82631E+01 3.74464E+05 2.78530E+04-2.85297E+01 1.02318E+05-1.61457E+01
 -1       595 2.84606E+01 3.74495E+05 2.78482E+04-2.13450E+00 1.02314E+05-9.00135E+00
 -1       596-1.26807E+01 4.09442E+05 3.43437E+04 1.22721E+01 1.18910E+05 7.53582E+00
 -1       597 2.30666E+01 1.94960E+05 1.22703E+04-2.19242E+01 4.99846E+04-1.26311E+01
 -1       598 3.32039E+01 3.07707E+05 1.88807E+04-2.48814E+01 7.62619E+04-1.62221E+01
 -1       599 3.31577E+01 3.07772E+05 1.88767E+04 5.96058E+00 7.62666E+04-8.15840E+00
 -1       600-1.58362E+01 3.41103E+05 2.32271E+04 1.56545E+01 8.92899E+04 8.46749E+00
 -1       601 2.85088E+01 1.61620E+05 8.14299E+03-2.15333E+01 3.70124E+04-1.35148E+01
 -1       602 3.33346E+01 2.44214E+05 1.27218E+04-3.58313E+01 5.56563E+04-1.67832E+01
 -1       603 3.48658E+01 2.44345E+05 1.27210E+04 2.31820E+01 5.56636E+04-6.77605E+00
 -1       604-1.72815E+01 2.76108E+05 1.56256E+04 8.03932E+00 6.59396E+04 7.47053E+00
 -1       605 2.98705E+01 1.29918E+05 5.32360E+03-3.16615E+01 2.67356E+04-1.33248E+01
 -1       606 2.24960E+01 1.83651E+05 8.36120E+03 5.38174E+01 3.88962E+04-3.83243E+00
 -1       607 2.01230E+01 1.83868E+05 8.36123E+03 5.49434E+01 3.89551E+04 2.26342E+00
 -1       608-1.73877E+01 2.14316E+05 1.03223E+04 2.61454E+01 4.72633E+04 9.01000E+00
 -1       609 2.59606E+01 9.96688E+04 3.34808E+03 2.84862E+01 1.84282E+04-7.80335E+00
 -1       610-9.87293E+00 1.25064E+05 5.20341E+03-1.39076E+02 2.54169E+04-1.52953E+01
 -1       611 2.61106E+00 1.25490E+05 5.21494E+03 1.13212E+02 2.53859E+04 1.54563E-01
 -1       612-9.65815E-01 1.55176E+05 6.57087E+03-8.39368E+01 3.22143E+04-6.31101E+00
 -1       613-8.94831E+00 7.05692E+04 1.80601E+03-1.04888E+02 1.14859E+04-3.33682E+00
 -1       614-1.00818E+02 6.86501E+04 2.23404E+03 8.88137E+02 1.16345E+04 9.55555E+01
 -1       615-1.31901E+02 6.91363E+04 2.25479E+03 2.05255E+02 1.21020E+04 6.38437E+01
 -1       616-5.12896E+00 9.84400E+04 3.57255E+03 2.21441E+02 1.88324E+04 2.23552E+01
 -1       617-3.18573E+01 4.22653E+04 5.82321E+02 6.07448E+02 5.29097E+03 3.69491E+01
 -1       618-2.21147E+01 2.18173E+04-8.82104E+01-3.06162E+03 7.29643E+03-1.99735E+01
 -1       619 8.52463E+01 1.75158E+04-9.32637E+01-1.27601E+03 5.40688E+03-9.32321E+01
 -1       620 1.67591E+02 4.21011E+04 1.95574E+03-1.12854E+03 9.51122E+03-1.26775E+02
 -1       621-2.45908E+02 1.75141E+04-1.44577E+03-2.00181E+03 1.89272E+03 1.15385E+02
 -3
    1PSTEP                        27          14           1          
  100CL  114 9.12500E-01         621                     0   14           1
 -4  DISP        4    1
 -5  D1          1    2    1    0
 -5  D2          1    2    2    0
 -5  D3          1    2    3    0
 -5  ALL         1    2    0    0    1ALL
 -1         1 0.00000E+00 0.00000E+00 0.00000E+00
 -1         2 0.00000E+00 0.00000E+00 0.00000E+00
 -1         3 1.59191E-09 5.12052E-02-3.68524E-03
 -1         4-2.62727E-09 4.97016E-02-1.84625E-02
 -1         5 0.00000E+00 0.00000E+00 0.00000E+00
 -1         6 0.00000E+00 0.00000E+00 0.00000E+00
 -1         7-1.31156E-13 5.12052E-02-3.68525E-03
 -1         8-3.87448E-14 4.97016E-02-1.84625E-02
 -1         9 0.00000E+00 0.00000E+00 0.00000E+00
 -1        10-3.20053E-10 1.31135E-02-5.65728E-04
 -1        11-5.18135E-10 5.04496E-02-1.10674E-02
 -1        12 6.99972E-10 1.26902E-02-8.18757E-03
 -1        13 0.00000E+00 0.00000E+00 0.00000E+00
 -1        14 0.00000E+00 0.00000E+00 0.00000E+00
 -1        15 7.96047E-10 5.12052E-02-3.68524E-03
 -1        16-1.31339E-09 4.97016E-02-1.84625E-02
 -1        17 0.00000E+00 0.00000E+00 0.00000E+00
 -1        18-3.25499E-14 1.31135E-02-5.65727E-04
 -1        19-8.49344E-14 5.04496E-02-1.10674E-02
 -1        20 1.08049E-14 1.26902E-02-8.18757E-03
 -1        21 3.88085E-09 1.95250E-01-2.57346E-02
 -1        22-5.14492E-09 1.89962E-01-5.31460E-02
 -1        23-5.23921E-13 1.95250E-01-2.57346E-02
 -1        24-3.36530E-13 1.89962E-01-5.31460E-02
 -1        25-1.26987E-09 1.12546E-01-1.15031E-02
 -1        26-6.31896E-10 1.92606E-01-3.94354E-02
 -1        27 1.93031E-09 1.09374E-01-3.28603E-02
 -1        28 1.94024E-09 1.95250E-01-2.57346E-02
 -1        29-2.57274E-09 1.89962E-01-5.31460E-02
 -1        30-2.95643E-13 1.12546E-01-1.15031E-02
 -1        31-4.30198E-13 1.92606E-01-3.94354E-02
 -1        32-1.54870E-13 1.09374E-01-3.28603E-02
 -1        33 7.05564E-09 4.17271E-01-7.84184E-02
 -1        34-7.95147E-09 4.06834E-01-1.16250E-01
 -1        35-1.16480E-12 4.17271E-01-7.84184E-02
 -1        36-8.91033E-13 4.06834E-01-1.16250E-01
 -1        37-2.61064E-09 2.97452E-01-4.77151E-02
 -1        38-4.47688E-10 4.12053E-01-9.73295E-02
 -1        39 3.21245E-09 2.89719E-01-8.05985E-02
 -1        40 3.52722E-09 4.17271E-01-7.84184E-02
 -1        41-3.97645E-09 4.06834E-01-1.16250E-01
 -1        42-8.15436E-13 2.97452E-01-4.77151E-02
 -1        43-1.02799E-12 4.12053E-01-9.73295E-02
 -1        44-5.84020E-13 2.89719E-01-8.05985E-02
 -1        45 1.13334E-08 7.02720E-01-1.68459E-01
 -1        46-1.14636E-08 6.86485E-01-2.14652E-01
 -1        47-2.02613E-12 7.02719E-01-1.68459E-01
 -1        48-1.67371E-12 6.86485E-01-2.14652E-01
 -1        49-4.44762E-09 5.52930E-01-1.18527E-01
 -1        50-6.46466E-11 6.94603E-01-1.91551E-01
 -1        51 4.73172E-09 5.39650E-01-1.60780E-01
 -1        52 5.66552E-09 7.02719E-01-1.68459E-01
 -1        53-5.73311E-09 6.86485E-01-2.14652E-01
 -1        54-1.57059E-12 5.52930E-01-1.18527E-01
 -1        55-1.84976E-12 6.94603E-01-1.91551E-01
 -1        56-1.25658E-12 5.39650E-01-1.60780E-01
 -1        57 1.69122E-08 1.03853E+00-2.98446E-01
 -1        58-1.62663E-08 1.01635E+00-3.51210E-01
 -1        59-3.07275E-12 1.03853E+00-2.98446E-01
 -1        60-2.65231E-12 1.01635E+00-3.51210E-01
 -1        61-6.89283E-09 8.65073E-01-2.28421E-01
 -1        62 3.23598E-10 1.02744E+00-3.24825E-01
 -1        63 6.71827E-09 8.45870E-01-2.78107E-01
 -1        64 8.45411E-09 1.03853E+00-2.98446E-01
 -1        65-8.13524E-09 1.01635E+00-3.51210E-01
 -1        66-2.52877E-12 8.65073E-01-2.28421E-01
 -1        67-2.86228E-12 1.02744E+00-3.24825E-01
 -1        68-2.14108E-12 8.45870E-01-2.78107E-01
 -1        69 2.38807E-08 1.41360E+00-4.68147E-01
 -1        70-2.32890E-08 1.38567E+00-5.25995E-01
 -1        71-4.26958E-12 1.41360E+00-4.68147E-01
 -1        72-3.79032E-12 1.38567E+00-5.25995E-01
 -1        73-1.00325E-08 1.22177E+00-3.78425E-01
 -1        74 2.96894E-10 1.39964E+00-4.97068E-01
 -1        75 9.52611E-09 1.19669E+00-4.33903E-01
 -1        76 1.19374E-08 1.41360E+00-4.68147E-01
 -1        77-1.16476E-08 1.38567E+00-5.25995E-01
 -1        78-3.65456E-12 1.22177E+00-3.78425E-01
 -1        79-4.02984E-12 1.39964E+00-4.97068E-01
 -1        80-3.20334E-12 1.19669E+00-4.33903E-01
 -1        81 3.20676E-08 1.81888E+00-6.75557E-01
 -1        82-3.40364E-08 1.78558E+00-7.37294E-01
 -1        83-5.58080E-12 1.81888E+00-6.75557E-01
 -1        84-5.04809E-12 1.78558E+00-7.37294E-01
 -1        85-1.38697E-08 1.61296E+00-5.67308E-01
 -1        86-9.82806E-10 1.80223E+00-7.06424E-01
 -1        87 1.37297E-08 1.58229E+00-6.27239E-01
 -1        88 1.60297E-08 1.81888E+00-6.75557E-01
 -1        89-1.70224E-08 1.78558E+00-7.37294E-01
 -1        90-4.91590E-12 1.61296E+00-5.67308E-01
 -1        91-5.31377E-12 1.80223E+00-7.06424E-01
 -1        92-4.41027E-12 1.58229E+00-6.27239E-01
 -1        93 4.08015E-08 2.24714E+00-9.17676E-01
 -1        94-5.09125E-08 2.20896E+00-9.82361E-01
 -1        95-6.96512E-12 2.24714E+00-9.17676E-01
 -1        96-6.38853E-12 2.20896E+00-9.82362E-01
 -1        97-1.82304E-08 2.03052E+00-7.92487E-01
 -1        98-5.05304E-09 2.22805E+00-9.50017E-01
 -1        99 2.02585E-08 1.99472E+00-8.55807E-01
 -1       100 2.03952E-08 2.24714E+00-9.17676E-01
 -1       101-2.54618E-08 2.20896E+00-9.82362E-01
 -1       102-6.26544E-12 2.03052E+00-7.92487E-01
 -1       103-6.67689E-12 2.22805E+00-9.50017E-01
 -1       104-5.71373E-12 1.99472E+00-8.55807E-01
 -1       105 4.85531E-08 2.69278E+00-1.19103E+00
 -1       106-7.76696E-08 2.65025E+00-1.25794E+00
 -1       107-8.39687E-12 2.69278E+00-1.19103E+00
 -1       108-7.78319E-12 2.65025E+00-1.25794E+00
 -1       109-2.26180E-08 2.46809E+00-1.05067E+00
 -1       110-1.45548E-08 2.67152E+00-1.22449E+00
 -1       111 3.05864E-08 2.42767E+00-1.11655E+00
 -1       112 2.42695E-08 2.69278E+00-1.19103E+00
 -1       113-3.88418E-08 2.65025E+00-1.25794E+00
 -1       114-7.67637E-12 2.46809E+00-1.05067E+00
 -1       115-8.09057E-12 2.67152E+00-1.22449E+00
 -1       116-7.08555E-12 2.42767E+00-1.11655E+00
 -1       117 5.24305E-08 3.15146E+00-1.49203E+00
 -1       118-1.20009E-07 3.10511E+00-1.56060E+00
 -1       119-9.83840E-12 3.15146E+00-1.49203E+00
 -1       120-9.19461E-12 3.10511E+00-1.56060E+00
 -1       121-2.59999E-08 2.92072E+00-1.33830E+00
 -1       122-3.37841E-08 3.12829E+00-1.52632E+00
 -1       123 4.69919E-08 2.87621E+00-1.40610E+00
 -1       124 2.62065E-08 3.15146E+00-1.49203E+00
 -1       125-6.00129E-08 3.10511E+00-1.56060E+00
 -1       126-9.11299E-12 2.92072E+00-1.33830E+00
 -1       127-9.51640E-12 3.12829E+00-1.52632E+00
 -1       128-8.48502E-12 2.87621E+00-1.40610E+00
 -1       129 4.75144E-08 3.61990E+00-1.81715E+00
 -1       130-1.86316E-07 3.57024E+00-1.88696E+00
 -1       131-1.12769E-11 3.61990E+00-1.81715E+00
 -1       132-1.06100E-11 3.57024E+00-1.88696E+00
 -1       133-2.65161E-08 3.38464E+00-1.65179E+00
 -1       134-6.93951E-08 3.59507E+00-1.85205E+00
 -1       135 7.28984E-08 3.33657E+00-1.72103E+00
 -1       136 2.37474E-08 3.61990E+00-1.81715E+00
 -1       137-9.31675E-08 3.57024E+00-1.88696E+00
 -1       138-1.05576E-11 3.38464E+00-1.65179E+00
 -1       139-1.09442E-11 3.59507E+00-1.85205E+00
 -1       140-9.90372E-12 3.33657E+00-1.72103E+00
 -1       141 2.60846E-08 4.09560E+00-2.16305E+00
 -1       142-2.88506E-07 4.04310E+00-2.23378E+00
 -1       143-1.27063E-11 4.09560E+00-2.16305E+00
 -1       144-1.20177E-11 4.04310E+00-2.23378E+00
 -1       145-2.11037E-08 3.85697E+00-1.98770E+00
 -1       146-1.31199E-07 4.06935E+00-2.19842E+00
 -1       147 1.13273E-07 3.80583E+00-2.05801E+00
 -1       148 1.30309E-08 4.09560E+00-2.16305E+00
 -1       149-1.44262E-07 4.04310E+00-2.23378E+00
 -1       150-1.19933E-11 3.85697E+00-1.98770E+00
 -1       151-1.23615E-11 4.06935E+00-2.19842E+00
 -1       152-1.13181E-11 3.80583E+00-2.05801E+00
 -1       153-2.31768E-08 4.57669E+00-2.52665E+00
 -1       154-4.42645E-07 4.52179E+00-2.59806E+00
 -1       155-1.40865E-11 4.57669E+00-2.52665E+00
 -1       156-1.33826E-11 4.52179E+00-2.59806E+00
 -1       157-5.10266E-09 4.33557E+00-2.34282E+00
 -1       158-2.32913E-07 4.54924E+00-2.56235E+00
 -1       159 1.75065E-07 4.28182E+00-2.41392E+00
 -1       160-1.15950E-08 4.57669E+00-2.52665E+00
 -1       161-2.21330E-07 4.52179E+00-2.59806E+00
 -1       162-1.33969E-11 4.33557E+00-2.34282E+00
 -1       163-1.37340E-11 4.54924E+00-2.56235E+00
 -1       164-1.27017E-11 4.28181E+00-2.41392E+00
 -1       165-1.15517E-07 5.06175E+00-2.90509E+00
 -1       166-6.69462E-07 5.00485E+00-2.97700E+00
 -1       167-1.54293E-11 5.06175E+00-2.90509E+00
 -1       168-1.47159E-11 5.00485E+00-2.97700E+00
 -1       169 2.81710E-08 4.81879E+00-2.71418E+00
 -1       170-3.92426E-07 5.03330E+00-2.94105E+00
 -1       171 2.67433E-07 4.76285E+00-2.78586E+00
 -1       172-5.77713E-08 5.06175E+00-2.90509E+00
 -1       173-3.34729E-07 5.00485E+00-2.97700E+00
 -1       174-1.47667E-11 4.81879E+00-2.71418E+00
 -1       175-1.50735E-11 5.03330E+00-2.94105E+00
 -1       176-1.40558E-11 4.76285E+00-2.78586E+00
 -1       177-2.69877E-07 5.54972E+00-3.29578E+00
 -1       178-9.92109E-07 5.49119E+00-3.36806E+00
 -1       179-1.67408E-11 5.54972E+00-3.29578E+00
 -1       180-1.60129E-11 5.49119E+00-3.36806E+00
 -1       181 8.72566E-08 5.30543E+00-3.09906E+00
 -1       182-6.31168E-07 5.52046E+00-3.33192E+00
 -1       183 4.01887E-07 5.24767E+00-3.17117E+00
 -1       184-1.34903E-07 5.54972E+00-3.29578E+00
 -1       185-4.96038E-07 5.49119E+00-3.36806E+00
 -1       186-1.60886E-11 5.30543E+00-3.09906E+00
 -1       187-1.63776E-11 5.52046E+00-3.33192E+00
 -1       188-1.53641E-11 5.24767E+00-3.17117E+00
 -1       189-5.05148E-07 6.03981E+00-3.69633E+00
 -1       190-1.43641E-06 5.97999E+00-3.76888E+00
 -1       191-1.79918E-11 6.03981E+00-3.69633E+00
 -1       192-1.72562E-11 5.97999E+00-3.76888E+00
 -1       193 1.82775E-07 5.79454E+00-3.49496E+00
 -1       194-9.70009E-07 6.00990E+00-3.73260E+00
 -1       195 5.90435E-07 5.73533E+00-3.56739E+00
 -1       196-2.52632E-07 6.03981E+00-3.69633E+00
 -1       197-7.18178E-07 5.97999E+00-3.76888E+00
 -1       198-1.73760E-11 5.79454E+00-3.49496E+00
 -1       199-1.76236E-11 6.00990E+00-3.73260E+00
 -1       200-1.66433E-11 5.73533E+00-3.56739E+00
 -1       201-8.36343E-07 6.53139E+00-4.10455E+00
 -1       202-2.00725E-06 6.47059E+00-4.17728E+00
 -1       203-1.91784E-11 6.53139E+00-4.10455E+00
 -1       204-1.84203E-11 6.47059E+00-4.17728E+00
 -1       205 3.22402E-07 6.28544E+00-3.89961E+00
 -1       206-1.42475E-06 6.50099E+00-4.14092E+00
 -1       207 8.45824E-07 6.22510E+00-3.97226E+00
 -1       208-4.17827E-07 6.53139E+00-4.10455E+00
 -1       209-1.00340E-06 6.47059E+00-4.17728E+00
 -1       210-1.85953E-11 6.28544E+00-3.89962E+00
 -1       211-1.87982E-11 6.50099E+00-4.14092E+00
 -1       212-1.78451E-11 6.22510E+00-3.97226E+00
 -1       213-1.25107E-06 7.02399E+00-4.51839E+00
 -1       214-2.72555E-06 6.96251E+00-4.59124E+00
 -1       215-2.03417E-11 7.02399E+00-4.51839E+00
 -1       216-1.95697E-11 6.96251E+00-4.59124E+00
 -1       217 5.16042E-07 6.77759E+00-4.31089E+00
 -1       218-1.97640E-06 6.99325E+00-4.55481E+00
 -1       219 1.16445E-06 6.71641E+00-4.38369E+00
 -1       220-6.26176E-07 7.02399E+00-4.51839E+00
 -1       221-1.36327E-06 6.96251E+00-4.59124E+00
 -1       222-1.97628E-11 6.77759E+00-4.31089E+00
 -1       223-1.99560E-11 6.99325E+00-4.55481E+00
 -1       224-1.90026E-11 6.71641E+00-4.38369E+00
 -1       225-1.70691E-06 7.51722E+00-4.93591E+00
 -1       226-3.39208E-06 7.45534E+00-5.00882E+00
 -1       227-2.14840E-11 7.51722E+00-4.93591E+00
 -1       228-2.07270E-11 7.45533E+00-5.00883E+00
 -1       229 7.32408E-07 7.27055E+00-4.72681E+00
 -1       230-2.59697E-06 7.48628E+00-4.97237E+00
 -1       231 1.55602E-06 7.20883E+00-4.79970E+00
 -1       232-8.51143E-07 7.51722E+00-4.93591E+00
 -1       233-1.69239E-06 7.45534E+00-5.00883E+00
 -1       234-2.09124E-11 7.27055E+00-4.72681E+00
 -1       235-2.11050E-11 7.48628E+00-4.97237E+00
 -1       236-2.01549E-11 7.20883E+00-4.79970E+00
 -1       237-2.02835E-06 8.01076E+00-5.35525E+00
 -1       238-4.30607E-06 7.94875E+00-5.42819E+00
 -1       239-2.25825E-11 8.01075E+00-5.35525E+00
 -1       240-2.18073E-11 7.94874E+00-5.42819E+00
 -1       241 9.94530E-07 7.76397E+00-5.14547E+00
 -1       242-2.97645E-06 7.97975E+00-5.39172E+00
 -1       243 1.86584E-06 7.70198E+00-5.21841E+00
 -1       244-1.01821E-06 8.01075E+00-5.35525E+00
 -1       245-2.16802E-06 7.94874E+00-5.42819E+00
 -1       246-2.20426E-11 7.76397E+00-5.14547E+00
 -1       247-2.21966E-11 7.97974E+00-5.39172E+00
 -1       248-2.12771E-11 7.70198E+00-5.21841E+00
 -1       249 0.00000E+00 0.00000E+00 0.00000E+00
 -1       250 0.00000E+00 0.00000E+00 0.00000E+00
 -1       251-1.59217E-09 5.12052E-02-3.68524E-03
 -1       252 2.62719E-09 4.97016E-02-1.84625E-02
 -1       253 0.00000E+00 0.00000E+00 0.00000E+00
 -1       254 0.00000E+00 0.00000E+00 0.00000E+00
 -1       255-7.96310E-10 5.12052E-02-3.68524E-03
 -1       256 1.31331E-09 4.97016E-02-1.84625E-02
 -1       257 0.00000E+00 0.00000E+00 0.00000E+00
 -1       258 3.19988E-10 1.31135E-02-5.65728E-04
 -1       259 5.17965E-10 5.04496E-02-1.10674E-02
 -1       260-6.99951E-10 1.26902E-02-8.18757E-03
 -1       261-3.88190E-09 1.95250E-01-2.57346E-02
 -1       262 5.14424E-09 1.89962E-01-5.31460E-02
 -1       263-1.94129E-09 1.95250E-01-2.57346E-02
 -1       264 2.57207E-09 1.89962E-01-5.31460E-02
 -1       265 1.26928E-09 1.12546E-01-1.15031E-02
 -1       266 6.31036E-10 1.92606E-01-3.94354E-02
 -1       267-1.93062E-09 1.09374E-01-3.28603E-02
 -1       268-7.05797E-09 4.17271E-01-7.84184E-02
 -1       269 7.94969E-09 4.06834E-01-1.16250E-01
 -1       270-3.52955E-09 4.17271E-01-7.84184E-02
 -1       271 3.97466E-09 4.06834E-01-1.16250E-01
 -1       272 2.60901E-09 2.97452E-01-4.77151E-02
 -1       273 4.45631E-10 4.12053E-01-9.73295E-02
 -1       274-3.21362E-09 2.89719E-01-8.05985E-02
 -1       275-1.13375E-08 7.02720E-01-1.68459E-01
 -1       276 1.14602E-08 6.86485E-01-2.14652E-01
 -1       277-5.66957E-09 7.02719E-01-1.68459E-01
 -1       278 5.72976E-09 6.86485E-01-2.14652E-01
 -1       279 4.44448E-09 5.52930E-01-1.18527E-01
 -1       280 6.09464E-11 6.94603E-01-1.91551E-01
 -1       281-4.73423E-09 5.39650E-01-1.60780E-01
 -1       282-1.69183E-08 1.03853E+00-2.98446E-01
 -1       283 1.62610E-08 1.01635E+00-3.51210E-01
 -1       284-8.46026E-09 1.03853E+00-2.98446E-01
 -1       285 8.12993E-09 1.01635E+00-3.51210E-01
 -1       286 6.88777E-09 8.65073E-01-2.28421E-01
 -1       287-3.29323E-10 1.02744E+00-3.24825E-01
 -1       288-6.72255E-09 8.45870E-01-2.78107E-01
 -1       289-2.38893E-08 1.41360E+00-4.68147E-01
 -1       290 2.32815E-08 1.38567E+00-5.25995E-01
 -1       291-1.19460E-08 1.41360E+00-4.68147E-01
 -1       292 1.16400E-08 1.38567E+00-5.25995E-01
 -1       293 1.00252E-08 1.22177E+00-3.78425E-01
 -1       294-3.04955E-10 1.39964E+00-4.97068E-01
 -1       295-9.53251E-09 1.19669E+00-4.33903E-01
 -1       296-3.20787E-08 1.81888E+00-6.75557E-01
 -1       297 3.40263E-08 1.78558E+00-7.37294E-01
 -1       298-1.60408E-08 1.81888E+00-6.75557E-01
 -1       299 1.70123E-08 1.78558E+00-7.37294E-01
 -1       300 1.38599E-08 1.61296E+00-5.67308E-01
 -1       301 9.72177E-10 1.80223E+00-7.06424E-01
 -1       302-1.37385E-08 1.58229E+00-6.27239E-01
 -1       303-4.08154E-08 2.24714E+00-9.17676E-01
 -1       304 5.08997E-08 2.20896E+00-9.82361E-01
 -1       305-2.04092E-08 2.24714E+00-9.17676E-01
 -1       306 2.54490E-08 2.20896E+00-9.82362E-01
 -1       307 1.82179E-08 2.03052E+00-7.92487E-01
 -1       308 5.03968E-09 2.22805E+00-9.50017E-01
 -1       309-2.02699E-08 1.99472E+00-8.55807E-01
 -1       310-4.85699E-08 2.69278E+00-1.19103E+00
 -1       311 7.76541E-08 2.65025E+00-1.25794E+00
 -1       312-2.42863E-08 2.69278E+00-1.19103E+00
 -1       313 3.88262E-08 2.65025E+00-1.25794E+00
 -1       314 2.26027E-08 2.46809E+00-1.05067E+00
 -1       315 1.45386E-08 2.67152E+00-1.22449E+00
 -1       316-3.06006E-08 2.42767E+00-1.11655E+00
 -1       317-5.24502E-08 3.15146E+00-1.49203E+00
 -1       318 1.19991E-07 3.10511E+00-1.56060E+00
 -1       319-2.62262E-08 3.15146E+00-1.49203E+00
 -1       320 5.99946E-08 3.10511E+00-1.56060E+00
 -1       321 2.59816E-08 2.92072E+00-1.33830E+00
 -1       322 3.37651E-08 3.12829E+00-1.52632E+00
 -1       323-4.70088E-08 2.87621E+00-1.40610E+00
 -1       324-4.75369E-08 3.61990E+00-1.81715E+00
 -1       325 1.86295E-07 3.57024E+00-1.88696E+00
 -1       326-2.37700E-08 3.61990E+00-1.81715E+00
 -1       327 9.31463E-08 3.57024E+00-1.88696E+00
 -1       328 2.64950E-08 3.38464E+00-1.65179E+00
 -1       329 6.93732E-08 3.59507E+00-1.85205E+00
 -1       330-7.29182E-08 3.33657E+00-1.72103E+00
 -1       331-2.61100E-08 4.09560E+00-2.16305E+00
 -1       332 2.88482E-07 4.04310E+00-2.23378E+00
 -1       333-1.30564E-08 4.09560E+00-2.16305E+00
 -1       334 1.44238E-07 4.04310E+00-2.23378E+00
 -1       335 2.10798E-08 3.85697E+00-1.98770E+00
 -1       336 1.31174E-07 4.06935E+00-2.19842E+00
 -1       337-1.13296E-07 3.80583E+00-2.05801E+00
 -1       338 2.31486E-08 4.57669E+00-2.52665E+00
 -1       339 4.42619E-07 4.52179E+00-2.59806E+00
 -1       340 1.15668E-08 4.57669E+00-2.52665E+00
 -1       341 2.21303E-07 4.52179E+00-2.59806E+00
 -1       342 5.07586E-09 4.33557E+00-2.34282E+00
 -1       343 2.32885E-07 4.54924E+00-2.56235E+00
 -1       344-1.75091E-07 4.28182E+00-2.41392E+00
 -1       345 1.15486E-07 5.06175E+00-2.90509E+00
 -1       346 6.69433E-07 5.00485E+00-2.97700E+00
 -1       347 5.77405E-08 5.06175E+00-2.90509E+00
 -1       348 3.34700E-07 5.00485E+00-2.97700E+00
 -1       349-2.82005E-08 4.81879E+00-2.71418E+00
 -1       350 3.92396E-07 5.03330E+00-2.94105E+00
 -1       351-2.67461E-07 4.76285E+00-2.78586E+00
 -1       352 2.69843E-07 5.54972E+00-3.29578E+00
 -1       353 9.92077E-07 5.49119E+00-3.36806E+00
 -1       354 1.34869E-07 5.54972E+00-3.29578E+00
 -1       355 4.96006E-07 5.49119E+00-3.36806E+00
 -1       356-8.72888E-08 5.30543E+00-3.09906E+00
 -1       357 6.31135E-07 5.52046E+00-3.33192E+00
 -1       358-4.01918E-07 5.24767E+00-3.17117E+00
 -1       359 5.05112E-07 6.03981E+00-3.69633E+00
 -1       360 1.43638E-06 5.97999E+00-3.76888E+00
 -1       361 2.52596E-07 6.03981E+00-3.69633E+00
 -1       362 7.18144E-07 5.97999E+00-3.76888E+00
 -1       363-1.82810E-07 5.79454E+00-3.49496E+00
 -1       364 9.69973E-07 6.00990E+00-3.73260E+00
 -1       365-5.90469E-07 5.73533E+00-3.56739E+00
 -1       366 8.36305E-07 6.53139E+00-4.10455E+00
 -1       367 2.00721E-06 6.47059E+00-4.17728E+00
 -1       368 4.17789E-07 6.53139E+00-4.10455E+00
 -1       369 1.00337E-06 6.47059E+00-4.17728E+00
 -1       370-3.22439E-07 6.28544E+00-3.89961E+00
 -1       371 1.42471E-06 6.50099E+00-4.14092E+00
 -1       372-8.45860E-07 6.22510E+00-3.97226E+00
 -1       373 1.25103E-06 7.02399E+00-4.51839E+00
 -1       374 2.72551E-06 6.96251E+00-4.59124E+00
 -1       375 6.26135E-07 7.02399E+00-4.51839E+00
 -1       376 1.36323E-06 6.96251E+00-4.59124E+00
 -1       377-5.16082E-07 6.77759E+00-4.31089E+00
 -1       378 1.97636E-06 6.99325E+00-4.55481E+00
 -1       379-1.16449E-06 6.71641E+00-4.38369E+00
 -1       380 1.70687E-06 7.51722E+00-4.93591E+00
 -1       381 3.39204E-06 7.45534E+00-5.00882E+00
 -1       382 8.51100E-07 7.51722E+00-4.93591E+00
 -1       383 1.69235E-06 7.45534E+00-5.00883E+00
 -1       384-7.32450E-07 7.27055E+00-4.72681E+00
 -1       385 2.59693E-06 7.48628E+00-4.97237E+00
 -1       386-1.55606E-06 7.20883E+00-4.79970E+00
 -1       387 2.02830E-06 8.01076E+00-5.35525E+00
 -1       388 4.30603E-06 7.94875E+00-5.42819E+00
 -1       389 1.01817E-06 8.01075E+00-5.35525E+00
 -1       390 2.16798E-06 7.94874E+00-5.42819E+00
 -1       391-9.94574E-07 7.76397E+00-5.14547E+00
 -1       392 2.97640E-06 7.97975E+00-5.39172E+00
 -1       393-1.86588E-06 7.70198E+00-5.21841E+00
 -1       394 0.00000E+00 0.00000E+00 0.00000E+00
 -1       395 1.56736E-09 5.27070E-02 1.10776E-02
 -1       396 0.00000E+00 0.00000E+00 0.00000E+00
 -1       397-2.23676E-13 5.27070E-02 1.10776E-02
 -1       398 0.00000E+00 0.00000E+00 0.00000E+00
 -1       399-4.76450E-10 1.35370E-02 7.06233E-03
 -1       400 1.57875E-09 5.19600E-02 3.68998E-03
 -1       401 0.00000E+00 0.00000E+00 0.00000E+00
 -1       402 7.83186E-10 5.27070E-02 1.10776E-02
 -1       403 0.00000E+00 0.00000E+00 0.00000E+00
 -1       404-7.58412E-14 1.35370E-02 7.06233E-03
 -1       405-1.77460E-13 5.19600E-02 3.68998E-03
 -1       406 2.46276E-09 2.00535E-01 1.66356E-03
 -1       407-7.11494E-13 2.00535E-01 1.66357E-03
 -1       408-1.09407E-09 1.15721E-01 9.85923E-03
 -1       409 3.17115E-09 1.97893E-01-1.20402E-02
 -1       410 1.23058E-09 2.00535E-01 1.66357E-03
 -1       411-4.36508E-13 1.15721E-01 9.85922E-03
 -1       412-6.17722E-13 1.97893E-01-1.20402E-02
 -1       413 2.58245E-09 4.27704E-01-4.05950E-02
 -1       414-1.43915E-12 4.27704E-01-4.05950E-02
 -1       415-1.37492E-09 3.05186E-01-1.48278E-02
 -1       416 4.81828E-09 4.22487E-01-5.95112E-02
 -1       417 1.28989E-09 4.27704E-01-4.05950E-02
 -1       418-1.04658E-12 3.05186E-01-1.48278E-02
 -1       419-1.30206E-12 4.22487E-01-5.95112E-02
 -1       420 1.58919E-09 7.18952E-01-1.22271E-01
 -1       421-2.37882E-12 7.18952E-01-1.22271E-01
 -1       422-1.21801E-09 5.66210E-01-7.62734E-02
 -1       423 6.46040E-09 7.10835E-01-1.45369E-01
 -1       424 7.92580E-10 7.18952E-01-1.22271E-01
 -1       425-1.88448E-12 5.66210E-01-7.62734E-02
 -1       426-2.20233E-12 7.10835E-01-1.45369E-01
 -1       427-1.18561E-09 1.06070E+00-2.45684E-01
 -1       428-3.49390E-12 1.06070E+00-2.45684E-01
 -1       429-3.87294E-10 8.84276E-01-1.78735E-01
 -1       430 7.86207E-09 1.04961E+00-2.72068E-01
 -1       431-5.95682E-10 1.06070E+00-2.45684E-01
 -1       432-2.91700E-12 8.84276E-01-1.78735E-01
 -1       433-3.28299E-12 1.04961E+00-2.72068E-01
 -1       434-6.89432E-09 1.44153E+00-4.10298E-01
 -1       435-4.74875E-12 1.44153E+00-4.10298E-01
 -1       436 1.54948E-09 1.24686E+00-3.22948E-01
 -1       437 8.49154E-09 1.42756E+00-4.39225E-01
 -1       438-3.45107E-09 1.44153E+00-4.10298E-01
 -1       439-4.10553E-12 1.24686E+00-3.22948E-01
 -1       440-4.50914E-12 1.42756E+00-4.39225E-01
 -1       441-1.73990E-08 1.85217E+00-6.13819E-01
 -1       442-6.11275E-12 1.85217E+00-6.13819E-01
 -1       443 5.31210E-09 1.64362E+00-5.07378E-01
 -1       444 7.33206E-09 1.83552E+00-6.44690E-01
 -1       445-8.70459E-09 1.85217E+00-6.13819E-01
 -1       446-5.42087E-12 1.64362E+00-5.07378E-01
 -1       447-5.84629E-12 1.83552E+00-6.44690E-01
 -1       448-3.55948E-08 2.28532E+00-8.52989E-01
 -1       449-7.53964E-12 2.28532E+00-8.52989E-01
 -1       450 1.20426E-08 2.06632E+00-7.29168E-01
 -1       451 2.60024E-09 2.26623E+00-8.85334E-01
 -1       452-1.78038E-08 2.28532E+00-8.52989E-01
 -1       453-6.81706E-12 2.06632E+00-7.29168E-01
 -1       454-7.25239E-12 2.26623E+00-8.85334E-01
 -1       455-6.58537E-08 2.73531E+00-1.12413E+00
 -1       456-9.00623E-12 2.73531E+00-1.12413E+00
 -1       457 2.34942E-08 2.50851E+00-9.84795E-01
 -1       458-8.65410E-09 2.71404E+00-1.15758E+00
 -1       459-3.29346E-08 2.73531E+00-1.12413E+00
 -1       460-8.26964E-12 2.50851E+00-9.84795E-01
 -1       461-8.70201E-12 2.71404E+00-1.15758E+00
 -1       462-1.14589E-07 3.19781E+00-1.42346E+00
 -1       463-1.04789E-11 3.19781E+00-1.42346E+00
 -1       464 4.22864E-08 2.96522E+00-1.27050E+00
 -1       465-3.10854E-08 3.17464E+00-1.45775E+00
 -1       466-5.73034E-08 3.19781E+00-1.42346E+00
 -1       467-9.74320E-12 2.96522E+00-1.27050E+00
 -1       468-1.01585E-11 3.17464E+00-1.45775E+00
 -1       469-1.90935E-07 3.66957E+00-1.74734E+00
 -1       470-1.19427E-11 3.66957E+00-1.74734E+00
 -1       471 7.22154E-08 3.43270E+00-1.58255E+00
 -1       472-7.17141E-08 3.64473E+00-1.78225E+00
 -1       473-9.54767E-08 3.66957E+00-1.74734E+00
 -1       474-1.12115E-11 3.43270E+00-1.58255E+00
 -1       475-1.16103E-11 3.64473E+00-1.78225E+00
 -1       476-3.07371E-07 4.14810E+00-2.09232E+00
 -1       477-1.33913E-11 4.14810E+00-2.09232E+00
 -1       478 1.18624E-07 3.90811E+00-1.91739E+00
 -1       479-1.40661E-07 4.12185E+00-2.12769E+00
 -1       480-1.53692E-07 4.14810E+00-2.09232E+00
 -1       481-1.26702E-11 3.90811E+00-1.91739E+00
 -1       482-1.30482E-11 4.12185E+00-2.12769E+00
 -1       483-4.80272E-07 4.63159E+00-2.45523E+00
 -1       484-1.47919E-11 4.63159E+00-2.45523E+00
 -1       485 1.88657E-07 4.38932E+00-2.27172E+00
 -1       486-2.51703E-07 4.60414E+00-2.49094E+00
 -1       487-2.40143E-07 4.63159E+00-2.45523E+00
 -1       488-1.40952E-11 4.38932E+00-2.27172E+00
 -1       489-1.44389E-11 4.60414E+00-2.49094E+00
 -1       490-7.29151E-07 5.11864E+00-2.83317E+00
 -1       491-1.61490E-11 5.11864E+00-2.83317E+00
 -1       492 2.91578E-07 4.87474E+00-2.64249E+00
 -1       493-4.22458E-07 5.09019E+00-2.86913E+00
 -1       494-3.64557E-07 5.11864E+00-2.83317E+00
 -1       495-1.54736E-11 4.87474E+00-2.64249E+00
 -1       496-1.57899E-11 5.09020E+00-2.86913E+00
 -1       497-1.07615E-06 5.60825E+00-3.22350E+00
 -1       498-1.74723E-11 5.60825E+00-3.22350E+00
 -1       499 4.37615E-07 5.36318E+00-3.02694E+00
 -1       500-6.72646E-07 5.57898E+00-3.25964E+00
 -1       501-5.38088E-07 5.60825E+00-3.22350E+00
 -1       502-1.68128E-11 5.36318E+00-3.02694E+00
 -1       503-1.71070E-11 5.57898E+00-3.25964E+00
 -1       504-1.53550E-06 6.09963E+00-3.62379E+00
 -1       505-1.87298E-11 6.09963E+00-3.62379E+00
 -1       506 6.38964E-07 5.85376E+00-3.42254E+00
 -1       507-1.02169E-06 6.06972E+00-3.66006E+00
 -1       508-7.67556E-07 6.09963E+00-3.62379E+00
 -1       509-1.81097E-11 5.85376E+00-3.42254E+00
 -1       510-1.83604E-11 6.06972E+00-3.66006E+00
 -1       511-2.12037E-06 6.59219E+00-4.03183E+00
 -1       512-1.99318E-11 6.59219E+00-4.03183E+00
 -1       513 8.96883E-07 6.34579E+00-3.82697E+00
 -1       514-1.47368E-06 6.56179E+00-4.06819E+00
 -1       515-1.06048E-06 6.59219E+00-4.03183E+00
 -1       516-1.93424E-11 6.34579E+00-3.82697E+00
 -1       517-1.95531E-11 6.56179E+00-4.06819E+00
 -1       518-2.75582E-06 7.08548E+00-4.44555E+00
 -1       519-2.11040E-11 7.08547E+00-4.44554E+00
 -1       520 1.22680E-06 6.83876E+00-4.23809E+00
 -1       521-2.02004E-06 7.05473E+00-4.48197E+00
 -1       522-1.37635E-06 7.08547E+00-4.44554E+00
 -1       523-2.05278E-11 6.83876E+00-4.23810E+00
 -1       524-2.07220E-11 7.05473E+00-4.48197E+00
 -1       525-3.47092E-06 7.57912E+00-4.86300E+00
 -1       526-2.22369E-11 7.57911E+00-4.86300E+00
 -1       527 1.52564E-06 7.33227E+00-4.65392E+00
 -1       528-2.53097E-06 7.54817E+00-4.89946E+00
 -1       529-1.73913E-06 7.57911E+00-4.86300E+00
 -1       530-2.16706E-11 7.33227E+00-4.65392E+00
 -1       531-2.18599E-11 7.54816E+00-4.89945E+00
 -1       532-3.49506E-06 8.07279E+00-5.28232E+00
 -1       533-2.33589E-11 8.07278E+00-5.28232E+00
 -1       534 1.97576E-06 7.82596E+00-5.07253E+00
 -1       535-2.96650E-06 8.04177E+00-5.31879E+00
 -1       536-1.73513E-06 8.07279E+00-5.28232E+00
 -1       537-2.28066E-11 7.82596E+00-5.07253E+00
 -1       538-2.29728E-11 8.04177E+00-5.31879E+00
 -1       539 0.00000E+00 0.00000E+00 0.00000E+00
 -1       540-1.56781E-09 5.27070E-02 1.10776E-02
 -1       541 0.00000E+00 0.00000E+00 0.00000E+00
 -1       542-7.83633E-10 5.27070E-02 1.10776E-02
 -1       543 0.00000E+00 0.00000E+00 0.00000E+00
 -1       544 4.76299E-10 1.35370E-02 7.06233E-03
 -1       545-1.57910E-09 5.19600E-02 3.68998E-03
 -1       546-2.46418E-09 2.00535E-01 1.66356E-03
 -1       547-1.23200E-09 2.00535E-01 1.66357E-03
 -1       548 1.09320E-09 1.15721E-01 9.85923E-03
 -1       549-3.17238E-09 1.97893E-01-1.20402E-02
 -1       550-2.58533E-09 4.27704E-01-4.05950E-02
 -1       551-1.29277E-09 4.27704E-01-4.05950E-02
 -1       552 1.37283E-09 3.05186E-01-1.48278E-02
 -1       553-4.82088E-09 4.22487E-01-5.95112E-02
 -1       554-1.59395E-09 7.18952E-01-1.22271E-01
 -1       555-7.97337E-10 7.18952E-01-1.22271E-01
 -1       556 1.21424E-09 5.66210E-01-7.62734E-02
 -1       557-6.46480E-09 7.10835E-01-1.45369E-01
 -1       558 1.17862E-09 1.06070E+00-2.45684E-01
 -1       559 5.88694E-10 1.06070E+00-2.45684E-01
 -1       560 3.81461E-10 8.84276E-01-1.78735E-01
 -1       561-7.86864E-09 1.04961E+00-2.72068E-01
 -1       562 6.88482E-09 1.44153E+00-4.10298E-01
 -1       563 3.44157E-09 1.44153E+00-4.10298E-01
 -1       564-1.55770E-09 1.24686E+00-3.22948E-01
 -1       565-8.50056E-09 1.42756E+00-4.39225E-01
 -1       566 1.73867E-08 1.85217E+00-6.13819E-01
 -1       567 8.69237E-09 1.85217E+00-6.13819E-01
 -1       568-5.32295E-09 1.64362E+00-5.07378E-01
 -1       569-7.34375E-09 1.83552E+00-6.44690E-01
 -1       570 3.55797E-08 2.28532E+00-8.52989E-01
 -1       571 1.77887E-08 2.28532E+00-8.52989E-01
 -1       572-1.20562E-08 2.06632E+00-7.29168E-01
 -1       573-2.61475E-09 2.26623E+00-8.85334E-01
 -1       574 6.58357E-08 2.73531E+00-1.12413E+00
 -1       575 3.29166E-08 2.73531E+00-1.12413E+00
 -1       576-2.35108E-08 2.50851E+00-9.84795E-01
 -1       577 8.63670E-09 2.71404E+00-1.15758E+00
 -1       578 1.14568E-07 3.19781E+00-1.42346E+00
 -1       579 5.72824E-08 3.19781E+00-1.42346E+00
 -1       580-4.23059E-08 2.96522E+00-1.27050E+00
 -1       581 3.10650E-08 3.17464E+00-1.45775E+00
 -1       582 1.90911E-07 3.66957E+00-1.74734E+00
 -1       583 9.54528E-08 3.66957E+00-1.74734E+00
 -1       584-7.22378E-08 3.43270E+00-1.58255E+00
 -1       585 7.16909E-08 3.64473E+00-1.78225E+00
 -1       586 3.07344E-07 4.14810E+00-2.09232E+00
 -1       587 1.53665E-07 4.14810E+00-2.09232E+00
 -1       588-1.18649E-07 3.90811E+00-1.91739E+00
 -1       589 1.40634E-07 4.12185E+00-2.12769E+00
 -1       590 4.80242E-07 4.63159E+00-2.45523E+00
 -1       591 2.40113E-07 4.63159E+00-2.45523E+00
 -1       592-1.88685E-07 4.38932E+00-2.27172E+00
 -1       593 2.51674E-07 4.60414E+00-2.49094E+00
 -1       594 7.29118E-07 5.11864E+00-2.83317E+00
 -1       595 3.64525E-07 5.11864E+00-2.83317E+00
 -1       596-2.91609E-07 4.87474E+00-2.64249E+00
 -1       597 4.22426E-07 5.09019E+00-2.86913E+00
 -1       598 1.07612E-06 5.60825E+00-3.22350E+00
 -1       599 5.38053E-07 5.60825E+00-3.22350E+00
 -1       600-4.37648E-07 5.36318E+00-3.02694E+00
 -1       601 6.72612E-07 5.57898E+00-3.25964E+00
 -1       602 1.53546E-06 6.09963E+00-3.62379E+00
 -1       603 7.67518E-07 6.09963E+00-3.62379E+00
 -1       604-6.39000E-07 5.85376E+00-3.42254E+00
 -1       605 1.02166E-06 6.06972E+00-3.66006E+00
 -1       606 2.12033E-06 6.59219E+00-4.03183E+00
 -1       607 1.06044E-06 6.59219E+00-4.03183E+00
 -1       608-8.96922E-07 6.34579E+00-3.82697E+00
 -1       609 1.47364E-06 6.56179E+00-4.06819E+00
 -1       610 2.75578E-06 7.08548E+00-4.44555E+00
 -1       611 1.37631E-06 7.08547E+00-4.44554E+00
 -1       612-1.22684E-06 6.83876E+00-4.23809E+00
 -1       613 2.02000E-06 7.05473E+00-4.48197E+00
 -1       614 3.47088E-06 7.57912E+00-4.86300E+00
 -1       615 1.73909E-06 7.57911E+00-4.86300E+00
 -1       616-1.52568E-06 7.33227E+00-4.65392E+00
 -1       617 2.53093E-06 7.54817E+00-4.89946E+00
 -1       618 3.49501E-06 8.07279E+00-5.28232E+00
 -1       619 1.73508E-06 8.07279E+00-5.28232E+00
 -1       620-1.97580E-06 7.82596E+00-5.07253E+00
 -1       621 2.96646E-06 8.04177E+00-5.31879E+00
 -3
    1PSTEP                        28          14           1          
  100CL  114 9.12500E-01         621                     0   14           1
 -4  STRESS      6    1
 -5  SXX         1    4    1    1
 -5  SYY         1    4    2    2
 -5  SZZ         1    4    3    3
 -5  SXY         1    4    1    2
 -5  SYZ         1    4    2    3
 -5  SZX         1    4    3    1
 -1         1 2.74853E+00-2.35938E+04-3.07751E+06 6.09619E+00-9.08557E+03 1.55484E-01
 -1         2-1.50038E+00-3.95588E+04-7.47685E+04-1.26961E+00 1.62219E+04-2.19348E+00
 -1         3-2.32154E-01-4.16061E+04-6.77946E+04-1.97877E-01 2.83794E+04-2.83726E-01
 -1         4-4.14855E-02-9.88420E+04-2.64065E+06 3.01853E-01-5.53018E+05 1.21233E-01
 -1         5 2.74854E+00-2.36031E+04-3.07751E+06-2.00035E-07-9.08799E+03 5.73940E-06
 -1         6-1.50038E+00-3.95608E+04-7.47671E+04-1.58671E-07 1.62237E+04 2.38990E-07
 -1         7-2.29616E-01-4.16055E+04-6.77936E+04 2.09787E-07 2.83806E+04 4.09259E-07
 -1         8-3.71876E-02-9.88433E+04-2.64065E+06 2.16541E-06-5.53019E+05 1.11580E-05
 -1         9 6.18931E-01-3.13362E+04-1.57569E+06 2.73731E+00 4.94203E+03-1.03246E+00
 -1        10 1.02309E-01-3.63099E+04-6.90864E+04 6.85255E-02 2.16540E+04 1.11743E-01
 -1        11-1.37168E-01-7.03178E+04-1.35396E+06 1.01713E-01-2.62768E+05-1.16218E-01
 -1        12 5.94789E-02-5.46418E+04-2.86565E+06-9.40713E-02-2.80665E+05-8.58109E-02
 -1        13 2.74853E+00-2.35984E+04-3.07751E+06 5.34471E+00-9.08678E+03-5.14869E-02
 -1        14-1.50038E+00-3.95598E+04-7.47678E+04-1.62234E+00 1.62228E+04-2.02896E+00
 -1        15-2.30885E-01-4.16058E+04-6.77941E+04-1.02818E-01 2.83800E+04-8.84817E-02
 -1        16-3.93366E-02-9.88426E+04-2.64065E+06 1.85704E-01-5.53018E+05-5.18777E-02
 -1        17 6.18932E-01-3.13451E+04-1.57569E+06-1.73276E-07 4.94084E+03 2.98523E-06
 -1        18 1.03577E-01-3.63101E+04-6.90870E+04 8.88653E-08 2.16534E+04 3.30372E-07
 -1        19-1.33742E-01-7.03181E+04-1.35396E+06 1.05476E-06-2.62767E+05 5.05531E-06
 -1        20 6.16307E-02-5.46414E+04-2.86565E+06 1.04387E-06-2.80665E+05 8.28409E-06
 -1        21-2.94482E-01-1.55305E+04-5.77489E+04-3.49809E-01 1.76580E+04-3.93082E-01
 -1        22 9.54532E-02-3.36858E+05-2.09698E+06 5.35321E-01-8.46221E+05 4.47310E-02
 -1        23-2.93272E-01-1.55294E+04-5.77484E+04 2.77826E-07 1.76592E+04 2.54364E-07
 -1        24 9.35811E-02-3.36861E+05-2.09698E+06 4.13670E-06-8.46222E+05 9.00165E-06
 -1        25 1.29685E-01-2.82030E+04-6.27548E+04 1.31766E-01 2.24701E+04 1.70392E-01
 -1        26-9.98828E-02-1.76291E+05-1.07718E+06 1.55884E-01-4.14431E+05-2.34294E-01
 -1        27-1.62107E-02-2.19380E+05-2.36585E+06-2.08328E-01-7.03519E+05-3.92268E-02
 -1        28-2.93877E-01-1.55299E+04-5.77486E+04-1.69744E-01 1.76586E+04-1.59066E-01
 -1        29 9.45172E-02-3.36859E+05-2.09698E+06 3.20395E-01-8.46222E+05-8.78226E-02
 -1        30 1.31559E-01-2.82035E+04-6.27552E+04 2.23233E-07 2.24695E+04 3.32799E-07
 -1        31-1.00202E-01-1.76291E+05-1.07718E+06 1.95408E-06-4.14431E+05 4.23332E-06
 -1        32-1.49996E-02-2.19379E+05-2.36585E+06 3.04324E-06-7.03519E+05 1.02318E-05
 -1        33-3.67005E-01-4.95269E+03-4.92754E+04-5.43173E-01 1.26104E+04-4.74317E-01
 -1        34 2.35454E-01-5.62700E+05-1.57272E+06 8.09254E-01-9.46268E+05-1.26370E-02
 -1        35-3.67240E-01-4.95124E+03-4.92754E+04 1.44286E-07 1.26116E+04 2.49969E-07
 -1        36 2.31144E-01-5.62703E+05-1.57272E+06 4.58748E-06-9.46269E+05 8.36955E-06
 -1        37 1.65310E-01-1.09223E+04-5.34532E+04 2.19462E-01 1.45501E+04 2.19324E-01
 -1        38-6.62027E-02-2.83893E+05-8.10914E+05 2.09870E-01-4.66825E+05-3.37959E-01
 -1        39-7.91037E-02-4.52143E+05-1.83163E+06-3.30492E-01-8.97278E+05-6.57689E-03
 -1        40-3.67123E-01-4.95197E+03-4.92754E+04-2.47753E-01 1.26110E+04-2.07588E-01
 -1        41 2.33299E-01-5.62702E+05-1.57272E+06 4.95637E-01-9.46268E+05-1.13148E-01
 -1        42 1.65798E-01-1.09230E+04-5.34534E+04 1.67586E-07 1.45495E+04 2.93101E-07
 -1        43-6.84627E-02-2.83894E+05-8.10913E+05 2.08405E-06-4.66825E+05 3.98178E-06
 -1        44-8.21941E-02-4.52142E+05-1.83163E+06 4.53621E-06-8.97278E+05 8.73805E-06
 -1        45-4.32823E-01 3.89203E+03-4.03842E+04-7.56453E-01 6.92669E+03-5.12062E-01
 -1        46 4.32090E-01-7.32641E+05-1.13174E+06 1.16951E+00-9.13376E+05-6.04652E-02
 -1        47-4.35743E-01 3.89357E+03-4.03845E+04 4.88871E-08 6.92762E+03 8.36097E-08
 -1        48 4.24170E-01-7.32646E+05-1.13174E+06 5.28667E-06-9.13376E+05 7.37756E-06
 -1        49 2.02739E-01-1.54978E+03-4.49653E+04 3.22989E-01 9.55377E+03 2.50144E-01
 -1        50-8.27549E-04-3.64398E+05-5.86035E+05 2.98956E-01-4.53200E+05-4.28267E-01
 -1        51-1.57585E-01-6.49527E+05-1.34980E+06-4.84312E-01-9.29226E+05 1.95249E-02
 -1        52-4.34283E-01 3.89280E+03-4.03844E+04-3.18969E-01 6.92716E+03-2.23809E-01
 -1        53 4.28130E-01-7.32643E+05-1.13174E+06 7.30297E-01-9.13376E+05-1.38898E-01
 -1        54 2.01162E-01-1.55056E+03-4.49652E+04 7.50261E-09 9.55324E+03 1.24738E-07
 -1        55-6.23530E-03-3.64400E+05-5.86035E+05 2.69301E-06-4.53199E+05 3.37445E-06
 -1        56-1.63700E-01-6.49525E+05-1.34980E+06 4.96472E-06-9.29226E+05 7.87486E-06
 -1        57-4.62405E-01 8.97609E+03-3.24786E+04-9.55913E-01 3.03266E+03-4.91117E-01
 -1        58 7.43532E-01-8.28832E+05-7.89571E+05 1.67060E+00-8.10910E+05-9.84361E-02
 -1        59-4.69366E-01 8.97740E+03-3.24794E+04-8.93032E-07 3.03329E+03 2.74037E-07
 -1        60 7.31184E-01-8.28838E+05-7.89570E+05 5.70673E-06-8.10910E+05 6.23109E-06
 -1        61 2.31541E-01 5.42858E+03-3.65672E+04 4.29651E-01 5.07224E+03 2.55611E-01
 -1        62 1.40122E-01-4.09936E+05-4.11024E+05 4.67215E-01-4.03923E+05-5.01524E-01
 -1        63-2.77564E-01-7.81752E+05-9.59513E+05-6.93115E-01-8.60970E+05 4.15255E-02
 -1        64-4.65886E-01 8.97675E+03-3.24790E+04-3.57351E-01 3.03298E+03-1.98794E-01
 -1        65 7.37358E-01-8.28835E+05-7.89571E+05 1.04596E+00-8.10910E+05-1.68568E-01
 -1        66 2.26601E-01 5.42783E+03-3.65669E+04-2.20025E-07 5.07184E+03 1.90908E-07
 -1        67 1.30479E-01-4.09938E+05-4.11024E+05 2.28821E-06-4.03923E+05 2.82566E-06
 -1        68-2.87698E-01-7.81749E+05-9.59514E+05 6.00320E-06-8.60970E+05 6.58286E-06
 -1        69-4.05374E-01 1.22149E+04-2.55476E+04-1.08670E+00 2.87309E+02-3.93214E-01
 -1        70 1.24709E+00-8.60063E+05-5.38666E+05 2.38965E+00-6.81888E+05-1.18488E-01
 -1        71-4.18309E-01 1.22155E+04-2.55489E+04-4.56289E-07 2.87529E+02-1.17659E-07
 -1        72 1.22854E+00-8.60069E+05-5.38665E+05 3.89524E-06-6.81888E+05 4.02771E-06
 -1        73 2.32435E-01 9.80964E+03-2.91992E+04 5.18221E-01 1.93489E+03 2.27463E-01
 -1        74 4.20530E-01-4.23929E+05-2.82107E+05 7.80237E-01-3.40796E+05-5.49110E-01
 -1        75-4.71933E-01-8.44836E+05-6.63915E+05-9.88703E-01-7.45285E+05 5.71143E-02
 -1        76-4.11841E-01 1.22152E+04-2.55482E+04-3.26843E-01 2.87419E+02-1.23012E-01
 -1        77 1.23781E+00-8.60066E+05-5.38665E+05 1.47058E+00-6.81888E+05-2.00125E-01
 -1        78 2.22487E-01 9.80911E+03-2.91987E+04-8.35453E-07 1.93467E+03 8.30896E-08
 -1        79 4.04798E-01-4.23932E+05-2.82107E+05 1.36940E-06-3.40795E+05 1.93428E-06
 -1        80-4.87381E-01-8.44833E+05-6.63915E+05 5.06119E-06-7.45285E+05 5.35179E-06
 -1        81-1.82188E-01 1.41606E+04-1.98050E+04-1.06316E+00-1.40071E+03-1.96155E-01
 -1        82 2.05067E+00-8.42222E+05-3.61580E+05 3.43457E+00-5.52668E+05-1.07500E-01
 -1        83-2.03461E-01 1.41600E+04-1.98068E+04 7.30840E-07-1.40104E+03 4.40133E-07
 -1        84 2.02369E+00-8.42230E+05-3.61580E+05 4.49700E-06-5.52667E+05 4.47694E-06
 -1        85 1.73993E-01 1.26479E+04-2.29036E+04 5.54810E-01-2.21794E+02 1.55567E-01
 -1        86 9.34141E-01-4.14039E+05-1.90688E+05 1.33428E+00-2.77035E+05-5.58167E-01
 -1        87-7.85817E-01-8.51178E+05-4.50437E+05-1.41636E+00-6.16453E+05 6.09670E-02
 -1        88-1.92825E-01 1.41603E+04-1.98059E+04-1.79346E-01-1.40088E+03 1.44018E-02
 -1        89 2.03718E+00-8.42226E+05-3.61580E+05 2.03750E+00-5.52668E+05-2.28607E-01
 -1        90 1.56889E-01 1.26478E+04-2.29028E+04-1.17684E-07-2.21769E+02-2.22121E-08
 -1        91 9.10024E-01-4.14043E+05-1.90688E+05 2.24702E-06-2.77035E+05 1.94277E-06
 -1        92-8.08582E-01-8.51175E+05-4.50437E+05 4.29111E-06-6.16453E+05 4.41074E-06
 -1        93 3.26392E-01 1.53613E+04-1.51773E+04-7.57229E-01-2.36085E+03 1.25552E-01
 -1        94 3.30362E+00-7.91821E+05-2.39969E+05 4.95028E+00-4.36440E+05-4.84636E-02
 -1        95 2.93937E-01 1.53586E+04-1.51797E+04-8.40644E-07-2.36187E+03-4.71504E-07
 -1        96 3.26597E+00-7.91830E+05-2.39969E+05 4.24350E-06-4.36439E+05 3.15677E-06
 -1        97 7.55569E-03 1.44256E+04-1.77385E+04 4.87615E-01-1.56288E+03 2.78509E-02
 -1        98 1.81534E+00-3.88240E+05-1.27564E+05 2.26530E+00-2.19402E+05-5.12348E-01
 -1        99-1.28291E+00-8.16914E+05-3.01291E+05-2.03792E+00-4.94028E+05 4.56152E-02
 -1       100 3.10165E-01 1.53599E+04-1.51785E+04 1.45486E-01-2.36136E+03 2.25095E-01
 -1       101 3.28480E+00-7.91826E+05-2.39969E+05 2.77836E+00-4.36439E+05-2.47509E-01
 -1       102-1.93084E-02 1.44264E+04-1.77374E+04-7.90028E-07-1.56254E+03 1.37464E-07
 -1       103 1.78030E+00-3.88246E+05-1.27565E+05 1.55053E-06-2.19402E+05 1.06405E-06
 -1       104-1.31523E+00-8.16909E+05-3.01291E+05 4.93835E-06-4.94029E+05 3.55880E-06
 -1       105 1.28803E+00 1.61065E+04-1.15414E+04 7.41570E-03-2.82351E+03 5.98771E-01
 -1       106 5.20563E+00-7.22374E+05-1.58043E+05 7.11142E+00-3.38231E+05 7.93835E-02
 -1       107 1.24256E+00 1.61009E+04-1.15444E+04-2.17274E-07-2.82537E+03 1.65563E-06
 -1       108 5.15552E+00-7.22385E+05-1.58043E+05 3.74119E-06-3.38229E+05 2.14347E-06
 -1       109-3.38335E-01 1.55424E+04-1.36021E+04 2.41023E-01-2.32563E+03-1.68987E-01
 -1       110 3.24765E+00-3.53145E+05-8.47813E+04 3.74831E+00-1.70528E+05-3.92329E-01
 -1       111-2.05019E+00-7.56960E+05-1.99543E+05-2.93455E+00-3.87040E+05 1.82583E-03
 -1       112 1.26529E+00 1.61037E+04-1.15429E+04 7.14922E-01-2.82444E+03 5.20149E-01
 -1       113 5.18058E+00-7.22380E+05-1.58043E+05 3.70691E+00-3.38230E+05-2.49782E-01
 -1       114-3.77295E-01 1.55444E+04-1.36008E+04-2.45009E-07-2.32491E+03 2.55263E-08
 -1       115 3.19987E+00-3.53153E+05-8.47825E+04 1.33826E-06-1.70529E+05 2.23493E-06
 -1       116-2.09407E+00-7.56955E+05-1.99543E+05 3.21032E-06-3.87041E+05 2.59604E-06
 -1       117 2.92410E+00 1.65797E+04-8.73207E+03 1.46389E+00-2.97539E+03 1.24759E+00
 -1       118 8.00055E+00-6.43749E+05-1.03593E+05 1.01250E+01-2.58460E+05 3.01414E-01
 -1       119 2.86322E+00 1.65701E+04-8.73569E+03-1.25947E-06-2.97818E+03-8.96138E-07
 -1       120 7.93982E+00-6.43760E+05-1.03594E+05 1.79766E-06-2.58458E+05 3.13002E-06
 -1       121-9.60962E-01 1.62428E+04-1.03580E+04-2.83836E-01-2.69132E+03-4.48214E-01
 -1       122 5.46444E+00-3.13595E+05-5.61519E+04 6.00240E+00-1.30718E+05-1.75448E-01
 -1       123-3.20168E+00-6.82945E+05-1.31294E+05-4.19593E+00-2.98203E+05-8.16941E-02
 -1       124 2.89366E+00 1.65749E+04-8.73388E+03 1.58808E+00-2.97678E+03 9.06113E-01
 -1       125 7.97019E+00-6.43754E+05-1.03593E+05 4.78665E+00-2.58459E+05-2.27591E-01
 -1       126-1.01414E+00 1.62466E+04-1.03563E+04-6.91649E-07-2.69014E+03 3.34811E-07
 -1       127 5.40363E+00-3.13605E+05-5.61535E+04 8.76062E-07-1.30719E+05 7.98721E-07
 -1       128-3.25710E+00-6.82940E+05-1.31294E+05 1.92005E-06-2.98204E+05 3.04925E-06
 -1       129 5.49102E+00 1.68856E+04-6.58905E+03 3.85116E+00-2.94383E+03 2.08934E+00
 -1       130 1.19696E+01-5.62523E+05-6.77344E+04 1.41100E+01-1.95339E+05 6.47769E-01
 -1       131 5.42472E+00 1.68716E+04-6.59325E+03 4.06766E-06-2.94757E+03 1.10751E-06
 -1       132 1.19025E+01-5.62530E+05-6.77351E+04-2.05006E-06-1.95337E+05 4.63670E-07
 -1       133-1.98645E+00 1.66859E+04-7.85230E+03-1.21699E+00-2.80322E+03-8.20204E-01
 -1       134 8.73205E+00-2.72828E+05-3.71524E+04 9.20603E+00-9.91413E+04 1.62758E-01
 -1       135-4.87030E+00-6.03054E+05-8.60519E+04-5.93209E+00-2.26848E+05-2.18410E-01
 -1       136 5.45787E+00 1.68786E+04-6.59115E+03 2.78048E+00-2.94570E+03 1.38402E+00
 -1       137 1.19360E+01-5.62526E+05-6.77347E+04 5.87282E+00-1.95338E+05-1.75761E-01
 -1       138-2.05005E+00 1.66918E+04-7.85035E+03 2.09888E-06-2.80156E+03 4.57149E-07
 -1       139 8.66539E+00-2.72838E+05-3.71546E+04 9.65041E-07-9.91432E+04 1.13350E-06
 -1       140-4.93417E+00-6.03050E+05-8.60516E+04 1.42960E-06-2.26849E+05 1.19258E-06
 -1       141 9.25713E+00 1.70866E+04-4.96941E+03 7.47038E+00-2.81478E+03 3.11788E+00
 -1       142 1.73174E+01-4.82721E+05-4.42516E+04 1.92711E+01-1.46254E+05 1.15877E+00
 -1       143 9.17722E+00 1.70689E+04-4.97411E+03-4.84718E-07-2.81928E+03 8.29569E-07
 -1       144 1.72696E+01-4.82718E+05-4.42525E+04 1.29092E-06-1.46250E+05 8.78265E-07
 -1       145-3.54530E+00 1.69697E+04-5.94125E+03-2.65957E+00-2.76290E+03-1.29094E+00
 -1       146 1.32959E+01-2.32826E+05-2.46033E+04 1.36086E+01-7.45331E+04 6.55219E-01
 -1       147-7.20214E+00-5.22572E+05-5.62957E+04-8.14028E+00-1.70791E+05-4.25022E-01
 -1       148 9.21718E+00 1.70777E+04-4.97176E+03 4.20377E+00-2.81703E+03 1.92893E+00
 -1       149 1.72935E+01-4.82720E+05-4.42520E+04 6.60806E+00-1.46252E+05-8.39637E-02
 -1       150-3.61840E+00 1.69777E+04-5.93903E+03 1.07181E-06-2.76080E+03 1.15708E-06
 -1       151 1.32320E+01-2.32832E+05-2.46059E+04 1.08241E-06-7.45360E+04 1.28530E-06
 -1       152-7.25954E+00-5.22571E+05-5.62953E+04-1.06027E-06-1.70793E+05 7.48043E-07
 -1       153 1.43229E+01 1.72195E+04-3.75374E+03 1.21352E+01-2.64320E+03 4.31600E+00
 -1       154 2.42070E+01-4.06542E+05-2.89101E+04 2.46714E+01-1.08498E+05 1.86286E+00
 -1       155 1.43306E+01 1.72013E+04-3.75865E+03 2.08557E-06-2.64804E+03 3.60471E-07
 -1       156 2.41988E+01-4.06518E+05-2.89114E+04-4.09011E-07-1.08494E+05-1.18014E-06
 -1       157-5.78333E+00 1.71546E+04-4.49932E+03-4.79718E+00-2.64013E+03-1.84748E+00
 -1       158 1.92565E+01-1.94668E+05-1.63271E+04 1.86494E+01-5.55686E+04 1.31829E+00
 -1       159-1.02736E+01-4.44603E+05-3.68126E+04-1.10046E+01-1.27388E+05-7.22081E-01
 -1       160 1.43268E+01 1.72104E+04-3.75620E+03 5.53851E+00-2.64562E+03 2.52609E+00
 -1       161 2.42029E+01-4.06530E+05-2.89107E+04 6.26376E+00-1.08496E+05 2.40260E-02
 -1       162-5.81945E+00 1.71639E+04-4.49689E+03 1.35748E-06-2.63774E+03-2.76287E-08
 -1       163 1.92563E+01-1.94664E+05-1.63302E+04 1.68232E-06-5.55725E+04-6.52233E-07
 -1       164-1.03016E+01-4.44609E+05-3.68121E+04-2.12074E-06-1.27390E+05 3.18351E-06
 -1       165 2.06422E+01 1.73082E+04-2.84590E+03 1.84714E+01-2.46371E+03 5.52735E+00
 -1       166 3.19327E+01-3.34945E+05-1.88772E+04 3.17259E+01-7.96181E+04 2.86922E+00
 -1       167 2.05604E+01 1.72971E+04-2.85095E+03 1.29305E-06-2.46779E+03 4.82869E-07
 -1       168 3.20788E+01-3.34878E+05-1.88780E+04 1.19419E-06-7.96106E+04 2.15129E-06
 -1       169-8.63331E+00 1.72774E+04-3.42300E+03-7.23599E+00-2.48096E+03-2.48218E+00
 -1       170 2.63497E+01-1.58826E+05-1.08585E+04 2.53347E+01-4.10350E+04 2.24002E+00
 -1       171-1.41128E+01-3.70717E+05-2.40728E+04-1.33810E+01-9.40665E+04-1.12236E+00
 -1       172 2.06013E+01 1.73026E+04-2.84842E+03 6.09207E+00-2.46575E+03 2.98389E+00
 -1       173 3.20058E+01-3.34912E+05-1.88776E+04 3.43776E+00-7.96144E+04 2.10787E-01
 -1       174-8.67041E+00 1.72854E+04-3.42058E+03 1.74010E-06-2.47859E+03 6.25634E-07
 -1       175 2.63817E+01-1.58796E+05-1.08620E+04 3.22436E-06-4.10400E+04 1.90225E-06
 -1       176-1.40438E+01-3.70738E+05-2.40721E+04 2.47707E-06-9.40691E+04-3.82556E-06
 -1       177 2.68767E+01 1.73705E+04-2.17023E+03 2.17787E+01-2.29513E+03 6.79469E+00
 -1       178 4.03256E+01-2.68100E+05-1.22753E+04 2.92421E+01-5.75099E+04 3.90641E+00
 -1       179 2.75860E+01 1.73824E+04-2.17402E+03-1.20815E-06-2.29722E+03-1.31084E-06
 -1       180 4.07181E+01-2.67954E+05-1.22774E+04-5.85965E-06-5.75028E+04-3.41387E-06
 -1       181-1.21998E+01 1.73595E+04-2.63026E+03-1.09569E+01-2.31425E+03-3.04725E+00
 -1       182 3.34211E+01-1.25372E+05-7.22200E+03 2.57187E+01-2.98937E+04 3.22230E+00
 -1       183-1.82011E+01-3.01464E+05-1.57222E+04-1.77430E+01-6.85512E+04-1.69818E+00
 -1       184 2.72313E+01 1.73764E+04-2.17212E+03 4.36980E+00-2.29617E+03 3.52001E+00
 -1       185 4.05218E+01-2.68027E+05-1.22763E+04-4.21872E+00-5.75063E+04 1.20288E-01
 -1       186-1.18861E+01 1.73607E+04-2.62775E+03-2.78586E-06-2.31271E+03 1.12952E-07
 -1       187 3.39720E+01-1.25290E+05-7.22533E+03-6.08897E-06-2.98993E+04-1.62376E-06
 -1       188-1.79318E+01-3.01513E+05-1.57220E+04-3.32190E-07-6.85565E+04-1.75567E-07
 -1       189 3.20192E+01 1.74308E+04-1.67357E+03 3.23121E+01-2.15240E+03 6.86038E+00
 -1       190 4.28294E+01-2.05667E+05-7.88487E+03 4.60106E+01-4.04893E+04 6.22205E+00
 -1       191 3.12346E+01 1.74932E+04-1.67779E+03-7.73702E-07-2.14763E+03 4.31980E-06
 -1       192 4.34260E+01-2.05392E+05-7.88178E+03 9.32869E-07-4.04626E+04-3.57852E-07
 -1       193-1.47180E+01 1.74115E+04-2.05625E+03-1.02329E+01-2.16085E+03-3.72003E+00
 -1       194 3.81415E+01-9.41355E+04-4.77365E+03 3.93291E+01-2.12823E+04 5.03892E+00
 -1       195-2.20771E+01-2.36726E+05-1.02098E+04-1.04804E+01-4.89505E+04-2.16771E+00
 -1       196 3.16269E+01 1.74620E+04-1.67568E+03-1.89220E+00-2.15001E+03 2.49896E+00
 -1       197 4.31277E+01-2.05530E+05-7.88332E+03-2.10981E+01-4.04759E+04 7.85706E-01
 -1       198-1.47556E+01 1.73950E+04-2.05497E+03 1.24640E-07-2.16063E+03 3.00908E-07
 -1       199 3.80470E+01-9.39595E+04-4.77839E+03 1.85962E-07-2.12874E+04 1.52218E-06
 -1       200-2.15826E+01-2.36829E+05-1.02083E+04-6.06156E-06-4.89526E+04 9.56206E-07
 -1       201 2.75935E+01 1.75192E+04-1.31233E+03-3.43542E+00-2.01805E+03 8.31414E+00
 -1       202 4.53969E+01-1.47111E+05-4.86559E+03-5.03814E+01-2.69940E+04 3.99097E+00
 -1       203 3.32509E+01 1.76817E+04-1.30873E+03 3.03440E-06-2.00841E+03-7.17221E-07
 -1       204 4.90463E+01-1.46593E+05-4.87465E+03-2.94157E-07-2.70099E+04 5.76986E-06
 -1       205-1.80975E+01 1.74290E+04-1.65322E+03-2.09590E+01-2.02531E+03-3.07537E+00
 -1       206 3.39549E+01-6.48021E+04-3.09277E+03-2.71205E+01-1.44902E+04 4.50037E+00
 -1       207-2.25802E+01-1.75999E+05-6.50471E+03-3.34237E+01-3.36456E+04-3.83563E+00
 -1       208 3.04222E+01 1.76004E+04-1.31053E+03-1.78256E+01-2.01323E+03 4.47638E+00
 -1       209 4.72216E+01-1.46852E+05-4.87012E+03-5.25260E+01-2.70019E+04-2.50743E+00
 -1       210-1.56612E+01 1.73772E+04-1.65081E+03 1.30506E-06-2.03074E+03 1.73575E-06
 -1       211 3.86090E+01-6.44635E+04-3.09080E+03 1.96398E-06-1.44915E+04 7.96090E-07
 -1       212-2.04568E+01-1.76182E+05-6.50808E+03 3.55623E-06-3.36720E+04-1.14746E-07
 -1       213 1.39166E+01 1.77262E+04-1.12509E+03 8.22395E+01-1.95258E+03-2.41425E+00
 -1       214-9.54693E-01-9.15024E+04-2.82264E+03 1.88364E+02-1.64249E+04 2.04692E+01
 -1       215 3.84142E+00 1.80542E+04-1.12943E+03-5.35682E-06-1.90495E+03 2.17672E-07
 -1       216-8.72076E+00-9.06951E+04-2.79422E+03 1.09607E-06-1.62234E+04-9.47796E-06
 -1       217-7.58648E+00 1.74042E+04-1.36969E+03 2.63459E+01-1.94813E+03-5.13299E+00
 -1       218 1.59851E+01-3.69855E+04-1.91349E+03 1.36015E+02-8.90950E+03 1.25163E+01
 -1       219-1.79102E+01-1.18422E+05-3.95108E+03 8.60611E+01-2.15916E+04-2.43259E-01
 -1       220 8.87900E+00 1.78902E+04-1.12726E+03-4.70102E+01-1.92877E+03-9.62799E+00
 -1       221-4.83772E+00-9.10987E+04-2.80843E+03-1.13289E+02-1.63241E+04 7.00708E+00
 -1       222-9.79482E+00 1.72843E+04-1.37416E+03-1.73055E-06-1.95346E+03 1.75418E-06
 -1       223 7.06310E+00-3.63766E+04-1.93681E+03-1.21639E-06-8.90489E+03-3.69597E-06
 -1       224-1.99696E+01-1.18774E+05-3.94393E+03 2.36800E-06-2.15478E+04-1.97872E-06
 -1       225-4.30116E+01 1.80799E+04-9.84473E+02-3.84787E+02-1.66816E+03 1.84870E+01
 -1       226 9.67386E+00-3.88514E+04-1.03201E+03-9.83610E+02-5.62322E+03-4.70522E+01
 -1       227-5.85128E+00 1.87142E+04-9.63840E+02 2.16732E-06-1.66390E+03-1.20704E-06
 -1       228 6.82872E+01-3.72360E+04-1.08199E+03 8.62441E-06-6.13896E+03-1.30495E-06
 -1       229-1.42505E+01 1.72643E+04-1.17983E+03-1.05448E+02-1.83191E+03 7.98641E+00
 -1       230-5.17976E+01-1.02537E+04-1.11113E+03-6.89786E+02-4.01395E+03-1.50268E+01
 -1       231-8.16435E-01-6.33176E+04-2.00775E+03-2.66374E+02-1.09499E+04-1.88685E+01
 -1       232-2.44314E+01 1.83970E+04-9.74157E+02-1.10333E+02-1.66603E+03 2.72234E+01
 -1       233 3.89805E+01-3.80437E+04-1.05700E+03-1.99904E+02-5.88109E+03-3.90590E+01
 -1       234-7.10289E-01 1.70423E+04-1.17687E+03-1.74068E-06-1.87420E+03-1.88065E-06
 -1       235-3.90999E+00-9.22966E+03-1.02495E+03 1.02078E-06-3.98397E+03-1.87455E-06
 -1       236 2.46101E+01-6.37970E+04-2.02511E+03 2.24517E-06-1.12082E+04-5.29142E-06
 -1       237-2.17515E+02 1.41644E+04-1.80570E+03 1.15207E+03-2.27357E+03-1.82416E+02
 -1       238-6.17896E+02 2.81685E+04-2.97041E+02 3.19317E+03-1.16423E+03 7.98305E+01
 -1       239-2.81968E+02 1.03041E+04-1.73446E+03-6.66392E-07-2.39086E+03-7.69710E-06
 -1       240-8.57688E+02 1.67439E+04-2.72023E+02 1.07808E-05 4.85774E+02-1.24554E-06
 -1       241 8.66166E+01 1.70629E+04-9.62502E+02 4.95669E+02-2.10958E+03-2.73549E+01
 -1       242-2.85871E+02 2.09450E+04-6.89153E+02 2.21056E+03-1.00986E+03-2.10291E+01
 -1       243 6.27039E+01-8.62692E+03-5.18428E+02 1.24533E+03-3.90563E+03 6.34567E+01
 -1       244-2.49741E+02 1.22343E+04-1.77008E+03 5.55508E+02-2.33221E+03-1.53107E+02
 -1       245-7.37792E+02 2.24562E+04-2.84532E+02 1.18188E+03-3.39229E+02 1.40253E+02
 -1       246 7.29723E+01 1.66326E+04-9.63179E+02 3.12878E-06-2.07745E+03-3.83054E-06
 -1       247-4.37993E+02 1.35623E+04-9.84440E+02 6.43703E-06-1.04059E+03-6.01880E-07
 -1       248-2.78876E+01-9.79958E+03-5.21114E+02 8.35996E-06-3.09732E+03-5.24576E-07
 -1       249 2.74853E+00-2.35938E+04-3.07751E+06-6.09620E+00-9.08557E+03-1.55472E-01
 -1       250-1.50038E+00-3.95588E+04-7.47685E+04 1.26961E+00 1.62219E+04 2.19348E+00
 -1       251-2.32154E-01-4.16061E+04-6.77946E+04 1.97877E-01 2.83794E+04 2.83726E-01
 -1       252-4.14854E-02-9.88420E+04-2.64065E+06-3.01852E-01-5.53018E+05-1.21229E-01
 -1       253 2.74853E+00-2.35984E+04-3.07751E+06-5.34471E+00-9.08678E+03 5.14984E-02
 -1       254-1.50038E+00-3.95598E+04-7.47678E+04 1.62234E+00 1.62228E+04 2.02896E+00
 -1       255-2.30885E-01-4.16058E+04-6.77941E+04 1.02818E-01 2.83800E+04 8.84823E-02
 -1       256-3.93365E-02-9.88426E+04-2.64065E+06-1.85701E-01-5.53018E+05 5.18908E-02
 -1       257 6.18931E-01-3.13362E+04-1.57569E+06-2.73731E+00 4.94203E+03 1.03247E+00
 -1       258 1.02309E-01-3.63099E+04-6.90864E+04-6.85257E-02 2.16540E+04-1.11743E-01
 -1       259-1.37168E-01-7.03178E+04-1.35396E+06-1.01713E-01-2.62768E+05 1.16218E-01
 -1       260 5.94790E-02-5.46418E+04-2.86565E+06 9.40718E-02-2.80665E+05 8.58182E-02
 -1       261-2.94482E-01-1.55305E+04-5.77489E+04 3.49809E-01 1.76580E+04 3.93082E-01
 -1       262 9.54530E-02-3.36858E+05-2.09698E+06-5.35319E-01-8.46221E+05-4.47231E-02
 -1       263-2.93877E-01-1.55299E+04-5.77486E+04 1.69744E-01 1.76586E+04 1.59066E-01
 -1       264 9.45170E-02-3.36859E+05-2.09698E+06-3.20390E-01-8.46222E+05 8.78356E-02
 -1       265 1.29685E-01-2.82030E+04-6.27548E+04-1.31766E-01 2.24701E+04-1.70391E-01
 -1       266-9.98829E-02-1.76291E+05-1.07718E+06-1.55882E-01-4.14431E+05 2.34297E-01
 -1       267-1.62107E-02-2.19380E+05-2.36585E+06 2.08330E-01-7.03519E+05 3.92328E-02
 -1       268-3.67005E-01-4.95269E+03-4.92754E+04 5.43173E-01 1.26104E+04 4.74318E-01
 -1       269 2.35454E-01-5.62700E+05-1.57272E+06-8.09249E-01-9.46268E+05 1.26448E-02
 -1       270-3.67123E-01-4.95197E+03-4.92754E+04 2.47753E-01 1.26110E+04 2.07588E-01
 -1       271 2.33299E-01-5.62702E+05-1.57272E+06-4.95630E-01-9.46268E+05 1.13160E-01
 -1       272 1.65311E-01-1.09223E+04-5.34532E+04-2.19462E-01 1.45501E+04-2.19323E-01
 -1       273-6.62028E-02-2.83893E+05-8.10914E+05-2.09868E-01-4.66825E+05 3.37962E-01
 -1       274-7.91039E-02-4.52143E+05-1.83163E+06 3.30496E-01-8.97278E+05 6.58475E-03
 -1       275-4.32823E-01 3.89203E+03-4.03842E+04 7.56452E-01 6.92669E+03 5.12063E-01
 -1       276 4.32090E-01-7.32641E+05-1.13174E+06-1.16951E+00-9.13376E+05 6.04720E-02
 -1       277-4.34283E-01 3.89280E+03-4.03844E+04 3.18969E-01 6.92716E+03 2.23810E-01
 -1       278 4.28130E-01-7.32643E+05-1.13174E+06-7.30288E-01-9.13376E+05 1.38908E-01
 -1       279 2.02739E-01-1.54978E+03-4.49653E+04-3.22989E-01 9.55377E+03-2.50143E-01
 -1       280-8.27580E-04-3.64398E+05-5.86035E+05-2.98954E-01-4.53200E+05 4.28271E-01
 -1       281-1.57585E-01-6.49527E+05-1.34980E+06 4.84317E-01-9.29226E+05-1.95175E-02
 -1       282-4.62405E-01 8.97609E+03-3.24786E+04 9.55912E-01 3.03266E+03 4.91118E-01
 -1       283 7.43532E-01-8.28832E+05-7.89571E+05-1.67059E+00-8.10910E+05 9.84432E-02
 -1       284-4.65886E-01 8.97675E+03-3.24790E+04 3.57349E-01 3.03298E+03 1.98795E-01
 -1       285 7.37358E-01-8.28835E+05-7.89571E+05-1.04595E+00-8.10910E+05 1.68578E-01
 -1       286 2.31541E-01 5.42858E+03-3.65672E+04-4.29652E-01 5.07224E+03-2.55610E-01
 -1       287 1.40122E-01-4.09936E+05-4.11024E+05-4.67213E-01-4.03923E+05 5.01528E-01
 -1       288-2.77565E-01-7.81752E+05-9.59513E+05 6.93121E-01-8.60970E+05-4.15191E-02
 -1       289-4.05374E-01 1.22149E+04-2.55476E+04 1.08670E+00 2.87309E+02 3.93215E-01
 -1       290 1.24709E+00-8.60063E+05-5.38666E+05-2.38965E+00-6.81888E+05 1.18493E-01
 -1       291-4.11841E-01 1.22152E+04-2.55482E+04 3.26843E-01 2.87419E+02 1.23012E-01
 -1       292 1.23781E+00-8.60066E+05-5.38665E+05-1.47058E+00-6.81888E+05 2.00131E-01
 -1       293 2.32435E-01 9.80964E+03-2.91992E+04-5.18220E-01 1.93488E+03-2.27462E-01
 -1       294 4.20530E-01-4.23929E+05-2.82107E+05-7.80233E-01-3.40796E+05 5.49112E-01
 -1       295-4.71933E-01-8.44836E+05-6.63915E+05 9.88709E-01-7.45285E+05-5.71080E-02
 -1       296-1.82188E-01 1.41606E+04-1.98050E+04 1.06315E+00-1.40071E+03 1.96157E-01
 -1       297 2.05067E+00-8.42222E+05-3.61580E+05-3.43456E+00-5.52668E+05 1.07504E-01
 -1       298-1.92824E-01 1.41603E+04-1.98059E+04 1.79346E-01-1.40088E+03-1.44009E-02
 -1       299 2.03718E+00-8.42226E+05-3.61580E+05-2.03749E+00-5.52668E+05 2.28613E-01
 -1       300 1.73993E-01 1.26479E+04-2.29036E+04-5.54810E-01-2.21794E+02-1.55566E-01
 -1       301 9.34141E-01-4.14039E+05-1.90688E+05-1.33428E+00-2.77035E+05 5.58170E-01
 -1       302-7.85818E-01-8.51178E+05-4.50437E+05 1.41637E+00-6.16453E+05-6.09620E-02
 -1       303 3.26392E-01 1.53613E+04-1.51773E+04 7.57233E-01-2.36085E+03-1.25551E-01
 -1       304 3.30362E+00-7.91821E+05-2.39969E+05-4.95028E+00-4.36440E+05 4.84682E-02
 -1       305 3.10165E-01 1.53599E+04-1.51785E+04-1.45485E-01-2.36136E+03-2.25095E-01
 -1       306 3.28480E+00-7.91826E+05-2.39969E+05-2.77835E+00-4.36439E+05 2.47514E-01
 -1       307 7.55548E-03 1.44256E+04-1.77385E+04-4.87612E-01-1.56288E+03-2.78499E-02
 -1       308 1.81534E+00-3.88240E+05-1.27564E+05-2.26530E+00-2.19402E+05 5.12351E-01
 -1       309-1.28291E+00-8.16914E+05-3.01291E+05 2.03792E+00-4.94028E+05-4.56110E-02
 -1       310 1.28803E+00 1.61065E+04-1.15414E+04-7.41531E-03-2.82351E+03-5.98770E-01
 -1       311 5.20563E+00-7.22374E+05-1.58043E+05-7.11142E+00-3.38231E+05-7.93795E-02
 -1       312 1.26529E+00 1.61037E+04-1.15429E+04-7.14922E-01-2.82444E+03-5.20147E-01
 -1       313 5.18058E+00-7.22380E+05-1.58043E+05-3.70691E+00-3.38230E+05 2.49786E-01
 -1       314-3.38335E-01 1.55424E+04-1.36021E+04-2.41024E-01-2.32563E+03 1.68988E-01
 -1       315 3.24765E+00-3.53145E+05-8.47813E+04-3.74831E+00-1.70528E+05 3.92330E-01
 -1       316-2.05019E+00-7.56960E+05-1.99543E+05 2.93456E+00-3.87040E+05-1.82229E-03
 -1       317 2.92410E+00 1.65797E+04-8.73207E+03-1.46389E+00-2.97539E+03-1.24759E+00
 -1       318 8.00055E+00-6.43749E+05-1.03593E+05-1.01250E+01-2.58460E+05-3.01416E-01
 -1       319 2.89366E+00 1.65749E+04-8.73388E+03-1.58808E+00-2.97678E+03-9.06114E-01
 -1       320 7.97019E+00-6.43754E+05-1.03593E+05-4.78665E+00-2.58459E+05 2.27593E-01
 -1       321-9.60962E-01 1.62428E+04-1.03580E+04 2.83837E-01-2.69132E+03 4.48215E-01
 -1       322 5.46444E+00-3.13595E+05-5.61519E+04-6.00239E+00-1.30718E+05 1.75448E-01
 -1       323-3.20168E+00-6.82945E+05-1.31294E+05 4.19593E+00-2.98203E+05 8.16952E-02
 -1       324 5.49102E+00 1.68856E+04-6.58905E+03-3.85117E+00-2.94383E+03-2.08934E+00
 -1       325 1.19696E+01-5.62523E+05-6.77344E+04-1.41100E+01-1.95339E+05-6.47767E-01
 -1       326 5.45787E+00 1.68786E+04-6.59115E+03-2.78048E+00-2.94570E+03-1.38402E+00
 -1       327 1.19361E+01-5.62526E+05-6.77347E+04-5.87282E+00-1.95338E+05 1.75763E-01
 -1       328-1.98645E+00 1.66859E+04-7.85230E+03 1.21699E+00-2.80322E+03 8.20204E-01
 -1       329 8.73205E+00-2.72828E+05-3.71524E+04-9.20603E+00-9.91413E+04-1.62758E-01
 -1       330-4.87030E+00-6.03054E+05-8.60519E+04 5.93210E+00-2.26848E+05 2.18410E-01
 -1       331 9.25713E+00 1.70866E+04-4.96941E+03-7.47038E+00-2.81478E+03-3.11788E+00
 -1       332 1.73174E+01-4.82721E+05-4.42516E+04-1.92711E+01-1.46254E+05-1.15878E+00
 -1       333 9.21718E+00 1.70777E+04-4.97176E+03-4.20376E+00-2.81703E+03-1.92893E+00
 -1       334 1.72935E+01-4.82720E+05-4.42520E+04-6.60806E+00-1.46252E+05 8.39618E-02
 -1       335-3.54530E+00 1.69697E+04-5.94125E+03 2.65956E+00-2.76290E+03 1.29094E+00
 -1       336 1.32959E+01-2.32826E+05-2.46033E+04-1.36086E+01-7.45331E+04-6.55220E-01
 -1       337-7.20214E+00-5.22572E+05-5.62957E+04 8.14028E+00-1.70791E+05 4.25021E-01
 -1       338 1.43229E+01 1.72195E+04-3.75374E+03-1.21352E+01-2.64320E+03-4.31600E+00
 -1       339 2.42070E+01-4.06542E+05-2.89101E+04-2.46714E+01-1.08498E+05-1.86285E+00
 -1       340 1.43268E+01 1.72104E+04-3.75620E+03-5.53851E+00-2.64562E+03-2.52609E+00
 -1       341 2.42029E+01-4.06530E+05-2.89107E+04-6.26376E+00-1.08496E+05-2.40265E-02
 -1       342-5.78333E+00 1.71546E+04-4.49932E+03 4.79718E+00-2.64013E+03 1.84749E+00
 -1       343 1.92565E+01-1.94668E+05-1.63271E+04-1.86494E+01-5.55686E+04-1.31829E+00
 -1       344-1.02736E+01-4.44603E+05-3.68126E+04 1.10046E+01-1.27388E+05 7.22080E-01
 -1       345 2.06422E+01 1.73082E+04-2.84590E+03-1.84714E+01-2.46371E+03-5.52734E+00
 -1       346 3.19327E+01-3.34945E+05-1.88772E+04-3.17259E+01-7.96181E+04-2.86922E+00
 -1       347 2.06013E+01 1.73026E+04-2.84842E+03-6.09207E+00-2.46575E+03-2.98389E+00
 -1       348 3.20058E+01-3.34912E+05-1.88776E+04-3.43776E+00-7.96144E+04-2.10782E-01
 -1       349-8.63331E+00 1.72774E+04-3.42300E+03 7.23598E+00-2.48096E+03 2.48218E+00
 -1       350 2.63497E+01-1.58826E+05-1.08585E+04-2.53347E+01-4.10350E+04-2.24002E+00
 -1       351-1.41128E+01-3.70717E+05-2.40728E+04 1.33810E+01-9.40665E+04 1.12236E+00
 -1       352 2.68767E+01 1.73705E+04-2.17023E+03-2.17787E+01-2.29513E+03-6.79469E+00
 -1       353 4.03256E+01-2.68100E+05-1.22753E+04-2.92421E+01-5.75099E+04-3.90640E+00
 -1       354 2.72313E+01 1.73764E+04-2.17212E+03-4.36980E+00-2.29617E+03-3.52001E+00
 -1       355 4.05218E+01-2.68027E+05-1.22763E+04 4.21872E+00-5.75063E+04-1.20289E-01
 -1       356-1.21998E+01 1.73595E+04-2.63026E+03 1.09569E+01-2.31425E+03 3.04725E+00
 -1       357 3.34211E+01-1.25372E+05-7.22200E+03-2.57187E+01-2.98937E+04-3.22229E+00
 -1       358-1.82011E+01-3.01464E+05-1.57222E+04 1.77430E+01-6.85512E+04 1.69818E+00
 -1       359 3.20192E+01 1.74308E+04-1.67357E+03-3.23121E+01-2.15240E+03-6.86039E+00
 -1       360 4.28294E+01-2.05667E+05-7.88487E+03-4.60106E+01-4.04893E+04-6.22205E+00
 -1       361 3.16269E+01 1.74620E+04-1.67568E+03 1.89219E+00-2.15001E+03-2.49896E+00
 -1       362 4.31277E+01-2.05530E+05-7.88332E+03 2.10981E+01-4.04759E+04-7.85707E-01
 -1       363-1.47180E+01 1.74115E+04-2.05625E+03 1.02329E+01-2.16085E+03 3.72003E+00
 -1       364 3.81415E+01-9.41355E+04-4.77365E+03-3.93291E+01-2.12823E+04-5.03892E+00
 -1       365-2.20771E+01-2.36726E+05-1.02098E+04 1.04804E+01-4.89505E+04 2.16771E+00
 -1       366 2.75935E+01 1.75192E+04-1.31233E+03 3.43542E+00-2.01805E+03-8.31415E+00
 -1       367 4.53969E+01-1.47111E+05-4.86559E+03 5.03814E+01-2.69940E+04-3.99097E+00
 -1       368 3.04222E+01 1.76004E+04-1.31053E+03 1.78256E+01-2.01323E+03-4.47639E+00
 -1       369 4.72216E+01-1.46852E+05-4.87012E+03 5.25260E+01-2.70019E+04 2.50744E+00
 -1       370-1.80975E+01 1.74290E+04-1.65322E+03 2.09590E+01-2.02531E+03 3.07537E+00
 -1       371 3.39549E+01-6.48021E+04-3.09277E+03 2.71205E+01-1.44902E+04-4.50038E+00
 -1       372-2.25802E+01-1.75999E+05-6.50471E+03 3.34237E+01-3.36456E+04 3.83563E+00
 -1       373 1.39166E+01 1.77262E+04-1.12509E+03-8.22395E+01-1.95258E+03 2.41425E+00
 -1       374-9.54692E-01-9.15024E+04-2.82264E+03-1.88364E+02-1.64249E+04-2.04692E+01
 -1       375 8.87900E+00 1.78902E+04-1.12726E+03 4.70102E+01-1.92877E+03 9.62799E+00
 -1       376-4.83772E+00-9.10987E+04-2.80843E+03 1.13289E+02-1.63241E+04-7.00709E+00
 -1       377-7.58648E+00 1.74042E+04-1.36969E+03-2.63459E+01-1.94813E+03 5.13298E+00
 -1       378 1.59851E+01-3.69855E+04-1.91349E+03-1.36015E+02-8.90950E+03-1.25163E+01
 -1       379-1.79102E+01-1.18422E+05-3.95108E+03-8.60611E+01-2.15916E+04 2.43259E-01
 -1       380-4.30116E+01 1.80799E+04-9.84473E+02 3.84787E+02-1.66816E+03-1.84870E+01
 -1       381 9.67386E+00-3.88514E+04-1.03201E+03 9.83610E+02-5.62322E+03 4.70522E+01
 -1       382-2.44314E+01 1.83970E+04-9.74157E+02 1.10333E+02-1.66603E+03-2.72234E+01
 -1       383 3.89805E+01-3.80437E+04-1.05700E+03 1.99904E+02-5.88109E+03 3.90590E+01
 -1       384-1.42505E+01 1.72643E+04-1.17983E+03 1.05448E+02-1.83191E+03-7.98640E+00
 -1       385-5.17976E+01-1.02537E+04-1.11113E+03 6.89786E+02-4.01395E+03 1.50268E+01
 -1       386-8.16435E-01-6.33176E+04-2.00775E+03 2.66374E+02-1.09499E+04 1.88685E+01
 -1       387-2.17515E+02 1.41644E+04-1.80570E+03-1.15207E+03-2.27357E+03 1.82416E+02
 -1       388-6.17896E+02 2.81685E+04-2.97041E+02-3.19317E+03-1.16423E+03-7.98305E+01
 -1       389-2.49741E+02 1.22343E+04-1.77008E+03-5.55508E+02-2.33221E+03 1.53107E+02
 -1       390-7.37792E+02 2.24562E+04-2.84532E+02-1.18188E+03-3.39229E+02-1.40253E+02
 -1       391 8.66166E+01 1.70629E+04-9.62502E+02-4.95669E+02-2.10958E+03 2.73549E+01
 -1       392-2.85871E+02 2.09450E+04-6.89153E+02-2.21056E+03-1.00986E+03 2.10291E+01
 -1       393 6.27039E+01-8.62692E+03-5.18428E+02-1.24533E+03-3.90563E+03-6.34567E+01
 -1       394-1.63258E+00-5.66952E+04 3.22728E+06 1.37239E+00 4.71534E+04 2.19062E+00
 -1       395 2.18875E-01 1.05965E+05 2.75817E+06-1.73920E-01 5.83493E+05 6.87900E-02
 -1       396-1.63258E+00-5.66910E+04 3.22728E+06-4.88958E-08 4.71556E+04-6.15098E-06
 -1       397 2.12865E-01 1.05965E+05 2.75816E+06-2.10886E-06 5.83492E+05-1.14183E-05
 -1       398-1.56133E+00-4.83671E+04 1.57581E+06-2.72633E-01 3.03137E+04 1.20345E-02
 -1       399-1.08883E-01 2.62938E+04 2.99586E+06 8.50311E-02 3.12790E+05 4.21101E-02
 -1       400-6.29079E-03 3.22734E+04 1.34493E+06-2.35624E-01 3.06384E+05-7.24963E-02
 -1       401-1.63258E+00-5.66931E+04 3.22728E+06 1.35902E+00 4.71545E+04 2.37295E+00
 -1       402 2.15870E-01 1.05965E+05 2.75816E+06-4.95636E-02 5.83492E+05 1.67548E-01
 -1       403-1.56133E+00-4.83627E+04 1.57581E+06-1.09860E-07 3.03167E+04-2.95202E-06
 -1       404-1.11886E-01 2.62938E+04 2.99586E+06-1.01644E-06 3.12791E+05-8.64896E-06
 -1       405-8.03568E-03 3.22736E+04 1.34493E+06-8.16698E-07 3.06384E+05-4.77619E-06
 -1       406 2.53609E-01 3.45161E+05 2.17774E+06-1.13082E-01 8.95145E+05 4.17824E-01
 -1       407 2.46657E-01 3.45160E+05 2.17774E+06-3.92927E-06 8.95143E+05-9.35968E-06
 -1       408-1.09841E-01 2.27238E+05 2.46692E+06 8.01801E-02 7.40836E+05-1.16860E-01
 -1       409-2.00684E-02 1.64912E+05 1.05981E+06-2.94573E-01 4.56551E+05 7.24894E-02
 -1       410 2.50133E-01 3.45161E+05 2.17774E+06 2.22000E-02 8.95144E+05 4.01379E-01
 -1       411-1.16322E-01 2.27238E+05 2.46692E+06-3.06545E-06 7.40837E+05-1.04921E-05
 -1       412-2.29511E-02 1.64912E+05 1.05981E+06-1.57253E-06 4.56551E+05-4.15797E-06
 -1       413 3.65282E-01 5.88609E+05 1.62754E+06 6.25804E-02 9.91830E+05 8.37168E-01
 -1       414 3.55594E-01 5.88607E+05 1.62753E+06-5.45609E-06 9.91828E+05-8.67920E-06
 -1       415-1.43680E-01 4.68008E+05 1.90166E+06 2.25168E-02 9.43823E+05-3.06995E-01
 -1       416-4.34688E-04 2.91895E+05 7.89046E+05-3.17126E-01 5.02216E+05 2.75907E-01
 -1       417 3.60438E-01 5.88608E+05 1.62754E+06 1.61649E-01 9.91829E+05 6.92577E-01
 -1       418-1.51999E-01 4.68009E+05 1.90167E+06-4.82908E-06 9.43824E+05-9.10532E-06
 -1       419-5.40823E-03 2.91895E+05 7.89044E+05-2.37407E-06 5.02216E+05-3.88663E-06
 -1       420 5.86030E-01 7.65858E+05 1.16713E+06 3.85708E-01 9.54088E+05 1.35143E+00
 -1       421 5.73022E-01 7.65855E+05 1.16713E+06-6.38019E-06 9.54085E+05-7.40732E-06
 -1       422-2.21979E-01 6.77324E+05 1.39693E+06-9.79473E-02 9.72748E+05-5.37125E-01
 -1       423 7.70640E-02 3.84898E+05 5.63349E+05-2.77797E-01 4.80483E+05 5.61685E-01
 -1       424 5.79526E-01 7.65856E+05 1.16713E+06 3.87494E-01 9.54086E+05 1.05192E+00
 -1       425-2.33326E-01 6.77325E+05 1.39694E+06-5.74059E-06 9.72749E+05-7.96888E-06
 -1       426 6.90881E-02 3.84898E+05 5.63346E+05-3.19089E-06 4.80481E+05-3.30572E-06
 -1       427 9.66698E-01 8.66576E+05 8.12397E+05 9.16389E-01 8.44612E+05 1.99415E+00
 -1       428 9.48900E-01 8.66572E+05 8.12391E+05-4.48011E-06 8.44607E+05-6.21317E-06
 -1       429-3.65366E-01 8.15684E+05 9.89634E+05-3.04231E-01 8.99119E+05-8.22527E-01
 -1       430 2.52588E-01 4.37784E+05 3.89958E+05-1.29635E-01 4.23806E+05 9.58262E-01
 -1       431 9.57799E-01 8.66574E+05 8.12394E+05 7.26165E-01 8.44609E+05 1.49654E+00
 -1       432-3.80769E-01 8.15686E+05 9.89637E+05-5.34350E-06 8.99121E+05-6.72276E-06
 -1       433 2.40197E-01 4.37783E+05 3.89955E+05-2.56793E-06 4.23804E+05-2.54266E-06
 -1       434 1.58233E+00 8.99271E+05 5.53278E+05 1.74463E+00 7.09230E+05 2.80224E+00
 -1       435 1.55809E+00 8.99266E+05 5.53272E+05-7.63841E-06 7.09224E+05-4.67148E-06
 -1       436-6.04332E-01 8.82133E+05 6.82833E+05-6.33262E-01 7.76834E+05-1.18098E+00
 -1       437 5.88803E-01 4.55748E+05 2.63865E+05 2.00203E-01 3.54754E+05 1.49777E+00
 -1       438 1.57021E+00 8.99268E+05 5.53275E+05 1.21153E+00 7.09227E+05 2.04596E+00
 -1       439-6.25350E-01 8.82136E+05 6.82836E+05-5.62649E-06 7.76837E+05-5.69620E-06
 -1       440 5.70207E-01 4.55746E+05 2.63861E+05-3.69727E-06 3.54751E+05-2.37382E-06
 -1       441 2.54058E+00 8.81433E+05 3.71028E+05 2.99230E+00 5.74581E+05 3.81300E+00
 -1       442 2.50810E+00 8.81426E+05 3.71021E+05-4.53659E-06 5.74573E+05-2.80967E-06
 -1       443-9.83910E-01 8.89559E+05 4.62159E+05-1.13747E+00 6.41958E+05-1.63123E+00
 -1       444 1.17930E+00 4.47804E+05 1.75607E+05 8.16001E-01 2.86591E+05 2.21476E+00
 -1       445 2.52434E+00 8.81429E+05 3.71024E+05 1.88033E+00 5.74577E+05 2.71886E+00
 -1       446-1.01227E+00 8.89562E+05 4.62163E+05-7.83962E-06 6.41962E+05-3.97384E-06
 -1       447 1.15241E+00 4.47800E+05 1.75602E+05-1.53598E-06 2.86587E+05-6.69000E-07
 -1       448 3.98863E+00 8.30266E+05 2.46164E+05 4.81415E+00 4.54031E+05 5.06069E+00
 -1       449 3.94682E+00 8.30257E+05 2.46156E+05-6.08742E-06 4.54020E+05-3.57284E-06
 -1       450-1.56746E+00 8.55172E+05 3.08573E+05-1.88497E+00 5.14440E+05-2.19136E+00
 -1       451 2.15718E+00 4.22824E+05 1.15484E+05 1.85968E+00 2.25837E+05 3.14401E+00
 -1       452 3.96773E+00 8.30261E+05 2.46160E+05 2.76197E+00 4.54026E+05 3.52940E+00
 -1       453-1.60461E+00 8.55176E+05 3.08577E+05-3.82102E-06 5.14445E+05-2.90044E-06
 -1       454 2.12003E+00 4.22817E+05 1.15479E+05-3.31314E-06 2.25831E+05-1.74359E-06
 -1       455 6.11569E+00 7.59792E+05 1.62197E+05 7.38437E+00 3.52453E+05 6.56963E+00
 -1       456 6.06428E+00 7.59780E+05 1.62189E+05-8.23320E-06 3.52441E+05-3.15515E-06
 -1       457-2.43988E+00 7.94498E+05 2.04124E+05-2.95979E+00 4.03404E+05-2.87695E+00
 -1       458 3.70104E+00 3.87960E+05 7.53169E+04 3.50700E+00 1.74816E+05 4.31561E+00
 -1       459 6.08998E+00 7.59786E+05 1.62193E+05 3.85860E+00 3.52447E+05 4.48145E+00
 -1       460-2.48650E+00 7.94503E+05 2.04128E+05-6.95457E-06 4.03410E+05-2.93644E-06
 -1       461 3.65260E+00 3.87951E+05 7.53109E+04-3.80154E-06 1.74809E+05-1.08514E-06
 -1       462 9.14402E+00 6.80125E+05 1.06458E+05 1.08895E+01 2.70093E+05 8.34731E+00
 -1       463 9.08923E+00 6.80114E+05 1.06448E+05 2.09177E-06 2.70079E+05 7.42595E-07
 -1       464-3.70669E+00 7.19563E+05 1.34247E+05-4.44721E+00 3.11428E+05-3.69576E+00
 -1       465 6.03195E+00 3.48363E+05 4.88520E+04 5.96877E+00 1.33559E+05 5.74740E+00
 -1       466 9.11662E+00 6.80120E+05 1.06453E+05 5.10682E+00 2.70086E+05 5.56135E+00
 -1       467-3.75979E+00 7.19569E+05 1.34251E+05-1.83927E-06 3.11434E+05-1.71487E-06
 -1       468 5.97412E+00 3.48352E+05 4.88453E+04-1.90817E-07 1.33551E+05 2.41449E-07
 -1       469 1.32966E+01 5.97965E+05 6.97771E+04 1.53958E+01 2.04985E+05 1.03555E+01
 -1       470 1.32425E+01 5.97957E+05 6.97674E+04-5.90410E-06 2.04969E+05-1.65299E-07
 -1       471-5.48716E+00 6.38760E+05 8.80239E+04-6.44049E+00 2.37668E+05-4.64608E+00
 -1       472 9.39206E+00 3.07435E+05 3.15847E+04 9.39802E+00 1.01020E+05 7.42823E+00
 -1       473 1.32696E+01 5.97961E+05 6.97723E+04 6.31361E+00 2.04977E+05 6.71979E+00
 -1       474-5.54161E+00 6.38765E+05 8.80287E+04-4.63583E-06 2.37676E+05 7.30438E-07
 -1       475 9.33186E+00 3.07423E+05 3.15775E+04-8.74459E-07 1.01012E+05 1.23195E-07
 -1       476 1.87115E+01 5.17376E+05 4.57668E+04 2.09964E+01 1.54371E+05 1.25244E+01
 -1       477 1.87099E+01 5.17377E+05 4.57569E+04 7.82743E-07 1.54356E+05-3.05413E-07
 -1       478-7.88374E+00 5.57470E+05 5.76716E+04-8.89726E+00 1.79775E+05-5.68892E+00
 -1       479 1.39757E+01 2.67239E+05 2.03915E+04 1.39956E+01 7.57771E+04 9.30422E+00
 -1       480 1.87107E+01 5.17376E+05 4.57619E+04 7.03766E+00 1.54364E+05 7.86881E+00
 -1       481-7.91159E+00 5.57473E+05 5.76766E+04-6.82558E-07 1.79783E+05-4.01029E-07
 -1       482 1.39349E+01 2.67230E+05 2.03840E+04-5.30295E-07 7.57694E+04-1.69306E-07
 -1       483 2.52990E+01 4.40551E+05 3.00875E+04 2.65696E+01 1.15437E+05 1.45654E+01
 -1       484 2.53090E+01 4.40574E+05 3.00776E+04-7.55793E-06 1.15424E+05 1.24599E-06
 -1       485-1.09456E+01 4.78832E+05 3.78198E+04-1.19341E+01 1.34967E+05-6.79072E+00
 -1       486 1.98194E+01 2.28892E+05 1.31621E+04 1.91063E+01 5.63950E+04 1.12118E+01
 -1       487 2.53040E+01 4.40562E+05 3.00825E+04 6.42629E+00 1.15431E+05 8.78966E+00
 -1       488-1.09413E+01 4.78827E+05 3.78248E+04-3.27118E-06 1.34974E+05-2.00712E-06
 -1       489 1.98283E+01 2.28893E+05 1.31547E+04-3.58022E-06 5.63898E+04 1.04563E-06
 -1       490 3.23428E+01 3.68420E+05 1.98433E+04 3.31719E+01 8.56463E+04 1.63977E+01
 -1       491 3.27664E+01 3.68489E+05 1.98346E+04 7.73175E-06 8.56377E+04-1.22019E-06
 -1       492-1.44867E+01 4.04421E+05 2.48449E+04-1.42645E+01 1.00570E+05-7.68760E+00
 -1       493 2.64303E+01 1.92871E+05 8.49564E+03 2.55856E+01 4.15854E+04 1.29208E+01
 -1       494 3.25546E+01 3.68454E+05 1.98390E+04 2.87555E+00 8.56420E+04 9.30254E+00
 -1       495-1.42700E+01 4.04400E+05 2.48498E+04-2.44024E-06 1.00575E+05 2.32932E-06
 -1       496 2.66013E+01 1.92898E+05 8.48939E+03 2.53165E-06 4.15857E+04-9.53832E-07
 -1       497 3.82602E+01 3.01102E+05 1.31206E+04 2.91926E+01 6.28291E+04 1.63236E+01
 -1       498 3.82033E+01 3.01251E+05 1.31130E+04-1.00406E-05 6.28381E+04 2.63114E-06
 -1       499-1.81525E+01 3.34784E+05 1.63365E+04-1.82205E+01 7.42331E+04-8.56753E+00
 -1       500 3.27485E+01 1.59243E+05 5.47443E+03 2.52773E+01 3.02582E+04 1.36874E+01
 -1       501 3.82317E+01 3.01176E+05 1.31168E+04-6.24660E+00 6.28336E+04 8.43861E+00
 -1       502-1.79690E+01 3.34732E+05 1.63403E+04-4.92057E-07 7.42356E+04 5.40854E-07
 -1       503 3.30746E+01 1.59321E+05 5.46912E+03-3.06929E-06 3.02697E+04-7.84490E-08
 -1       504 3.86794E+01 2.38171E+05 8.66780E+03 4.21724E+01 4.52669E+04 1.67154E+01
 -1       505 4.19053E+01 2.38469E+05 8.66718E+03-4.92904E-06 4.52789E+04-6.77391E-06
 -1       506-2.00150E+01 2.69805E+05 1.07122E+04-9.63589E+00 5.40174E+04-7.47775E+00
 -1       507 3.46321E+01 1.27818E+05 3.49155E+03 3.70745E+01 2.15187E+04 1.32902E+01
 -1       508 4.02924E+01 2.38320E+05 8.66749E+03-2.56568E+01 4.52729E+04 6.99859E+00
 -1       509-1.84307E+01 2.69701E+05 1.07156E+04-4.49442E-06 5.40046E+04-3.58117E-06
 -1       510 3.58532E+01 1.27991E+05 3.49330E+03-2.95775E-06 2.15480E+04-7.68253E-07
 -1       511 2.76949E+01 1.78977E+05 5.62349E+03-6.00703E+01 3.13077E+04 3.61121E+00
 -1       512 2.31443E+01 1.79480E+05 5.62103E+03-6.46969E-06 3.14307E+04-2.79646E-06
 -1       513-2.02128E+01 2.09010E+05 6.91730E+03-3.06220E+01 3.82573E+04-8.93329E+00
 -1       514 3.01845E+01 9.82543E+04 2.15939E+03-3.15408E+01 1.46290E+04 7.61486E+00
 -1       515 2.54196E+01 1.79229E+05 5.62226E+03-6.18585E+01 3.13692E+04-1.93625E+00
 -1       516-2.08744E+01 2.08806E+05 6.91559E+03-8.00775E-06 3.82551E+04-1.35116E-06
 -1       517 3.07372E+01 9.85890E+04 2.15526E+03-2.31151E-06 1.46935E+04-2.66092E-08
 -1       518-1.01894E+01 1.22320E+05 3.49374E+03 1.62596E+02 2.04958E+04 1.44985E+01
 -1       519 1.48615E+01 1.23279E+05 3.52143E+03 9.07161E-07 2.04093E+04-3.20487E-06
 -1       520-2.73993E+00 1.51581E+05 4.33864E+03 9.50520E+01 2.59415E+04 6.41642E+00
 -1       521-7.64054E+00 7.01204E+04 1.12395E+03 1.21704E+02 8.99238E+03 2.55331E+00
 -1       522 2.33606E+00 1.22800E+05 3.50758E+03-1.27397E+02 2.04526E+04-4.29637E-01
 -1       523 7.50880E+00 1.51263E+05 4.33759E+03-2.25912E-06 2.58199E+04-7.02321E-06
 -1       524-1.51294E-01 7.07228E+04 1.17099E+03-3.13881E-06 9.09292E+03-2.42777E-06
 -1       525-1.03281E+02 6.80795E+04 1.42723E+03-1.01498E+03 8.96454E+03-9.36570E+01
 -1       526-1.61764E+02 6.92630E+04 1.44636E+03-9.01829E-06 9.98530E+03 3.49413E-06
 -1       527-5.45873E+00 9.70201E+04 2.30430E+03-2.55271E+02 1.50320E+04-2.15959E+01
 -1       528-3.80177E+01 4.29476E+04 3.24268E+02-6.94296E+02 4.01646E+03-3.68408E+01
 -1       529-1.32523E+02 6.86713E+04 1.43680E+03-2.34349E+02 9.47492E+03-6.13768E+01
 -1       530-2.21744E+01 9.63608E+04 2.29617E+03-2.77525E-06 1.52260E+04 2.85242E-06
 -1       531-4.86798E+01 4.39573E+04 2.43294E+02 9.49602E-07 4.24324E+03 1.76210E-06
 -1       532-8.38651E+01 2.54500E+04-2.47372E+02 3.46705E+03 7.69605E+03 3.62857E+00
 -1       533 1.14445E+02 1.53773E+04-2.08397E+02-6.04225E-06 3.63212E+03 7.09203E-06
 -1       534 1.79461E+02 4.32347E+04 1.50405E+03 1.28967E+03 8.44112E+03 1.23796E+02
 -1       535-2.82525E+02 2.00287E+04-1.38876E+03 2.27163E+03 2.00220E+03-1.19658E+02
 -1       536 1.52898E+01 2.04137E+04-2.27885E+02 1.43724E+03 5.66409E+03 7.45477E+01
 -1       537 2.49375E+02 4.26589E+04 1.41955E+03-9.16747E-06 7.25523E+03 4.90193E-06
 -1       538-2.15596E+02 1.28025E+04-9.90228E+02-4.73416E-06 7.08679E+02-4.17198E-06
 -1       539-1.63258E+00-5.66952E+04 3.22728E+06-1.37239E+00 4.71534E+04-2.19063E+00
 -1       540 2.18875E-01 1.05965E+05 2.75817E+06 1.73918E-01 5.83493E+05-6.87955E-02
 -1       541-1.63258E+00-5.66931E+04 3.22728E+06-1.35902E+00 4.71545E+04-2.37296E+00
 -1       542 2.15870E-01 1.05965E+05 2.75816E+06 4.95609E-02 5.83492E+05-1.67562E-01
 -1       543-1.56133E+00-4.83671E+04 1.57581E+06 2.72632E-01 3.03137E+04-1.20404E-02
 -1       544-1.08883E-01 2.62938E+04 2.99586E+06-8.50317E-02 3.12790E+05-4.21188E-02
 -1       545-6.29079E-03 3.22734E+04 1.34493E+06 2.35624E-01 3.06384E+05 7.24951E-02
 -1       546 2.53609E-01 3.45161E+05 2.17774E+06 1.13079E-01 8.95145E+05-4.17833E-01
 -1       547 2.50133E-01 3.45161E+05 2.17774E+06-2.22055E-02 8.95144E+05-4.01393E-01
 -1       548-1.09841E-01 2.27238E+05 2.46692E+06-8.01826E-02 7.40836E+05 1.16852E-01
 -1       549-2.00684E-02 1.64912E+05 1.05981E+06 2.94571E-01 4.56551E+05-7.24927E-02
 -1       550 3.65281E-01 5.88609E+05 1.62754E+06-6.25849E-02 9.91830E+05-8.37177E-01
 -1       551 3.60438E-01 5.88608E+05 1.62754E+06-1.61657E-01 9.91829E+05-6.92590E-01
 -1       552-1.43680E-01 4.68008E+05 1.90166E+06-2.25206E-02 9.43823E+05 3.06987E-01
 -1       553-4.34678E-04 2.91895E+05 7.89046E+05 3.17124E-01 5.02216E+05-2.75910E-01
 -1       554 5.86030E-01 7.65858E+05 1.16713E+06-3.85715E-01 9.54088E+05-1.35143E+00
 -1       555 5.79526E-01 7.65856E+05 1.16713E+06-3.87503E-01 9.54086E+05-1.05193E+00
 -1       556-2.21978E-01 6.77324E+05 1.39693E+06 9.79417E-02 9.72748E+05 5.37117E-01
 -1       557 7.70640E-02 3.84898E+05 5.63349E+05 2.77796E-01 4.80483E+05-5.61688E-01
 -1       558 9.66698E-01 8.66576E+05 8.12397E+05-9.16397E-01 8.44612E+05-1.99415E+00
 -1       559 9.57799E-01 8.66574E+05 8.12394E+05-7.26174E-01 8.44609E+05-1.49655E+00
 -1       560-3.65366E-01 8.15684E+05 9.89634E+05 3.04224E-01 8.99119E+05 8.22520E-01
 -1       561 2.52588E-01 4.37784E+05 3.89958E+05 1.29631E-01 4.23806E+05-9.58264E-01
 -1       562 1.58233E+00 8.99271E+05 5.53278E+05-1.74463E+00 7.09230E+05-2.80225E+00
 -1       563 1.57021E+00 8.99268E+05 5.53275E+05-1.21154E+00 7.09227E+05-2.04597E+00
 -1       564-6.04332E-01 8.82133E+05 6.82833E+05 6.33257E-01 7.76834E+05 1.18097E+00
 -1       565 5.88803E-01 4.55748E+05 2.63865E+05-2.00204E-01 3.54754E+05-1.49778E+00
 -1       566 2.54058E+00 8.81433E+05 3.71028E+05-2.99232E+00 5.74581E+05-3.81301E+00
 -1       567 2.52434E+00 8.81429E+05 3.71024E+05-1.88034E+00 5.74577E+05-2.71886E+00
 -1       568-9.83910E-01 8.89559E+05 4.62159E+05 1.13747E+00 6.41958E+05 1.63122E+00
 -1       569 1.17930E+00 4.47804E+05 1.75607E+05-8.16006E-01 2.86591E+05-2.21477E+00
 -1       570 3.98863E+00 8.30266E+05 2.46164E+05-4.81416E+00 4.54031E+05-5.06069E+00
 -1       571 3.96773E+00 8.30261E+05 2.46160E+05-2.76198E+00 4.54026E+05-3.52940E+00
 -1       572-1.56746E+00 8.55172E+05 3.08573E+05 1.88496E+00 5.14440E+05 2.19136E+00
 -1       573 2.15718E+00 4.22824E+05 1.15484E+05-1.85969E+00 2.25837E+05-3.14401E+00
 -1       574 6.11569E+00 7.59792E+05 1.62197E+05-7.38437E+00 3.52453E+05-6.56964E+00
 -1       575 6.08998E+00 7.59786E+05 1.62193E+05-3.85860E+00 3.52447E+05-4.48145E+00
 -1       576-2.43988E+00 7.94498E+05 2.04124E+05 2.95979E+00 4.03404E+05 2.87694E+00
 -1       577 3.70104E+00 3.87960E+05 7.53169E+04-3.50700E+00 1.74816E+05-4.31561E+00
 -1       578 9.14402E+00 6.80125E+05 1.06458E+05-1.08895E+01 2.70093E+05-8.34731E+00
 -1       579 9.11662E+00 6.80120E+05 1.06453E+05-5.10683E+00 2.70086E+05-5.56135E+00
 -1       580-3.70669E+00 7.19563E+05 1.34247E+05 4.44720E+00 3.11428E+05 3.69576E+00
 -1       581 6.03195E+00 3.48363E+05 4.88520E+04-5.96877E+00 1.33559E+05-5.74740E+00
 -1       582 1.32966E+01 5.97965E+05 6.97771E+04-1.53958E+01 2.04985E+05-1.03555E+01
 -1       583 1.32696E+01 5.97961E+05 6.97723E+04-6.31362E+00 2.04977E+05-6.71979E+00
 -1       584-5.48716E+00 6.38760E+05 8.80239E+04 6.44048E+00 2.37668E+05 4.64608E+00
 -1       585 9.39206E+00 3.07435E+05 3.15847E+04-9.39803E+00 1.01020E+05-7.42823E+00
 -1       586 1.87115E+01 5.17376E+05 4.57668E+04-2.09964E+01 1.54371E+05-1.25244E+01
 -1       587 1.87107E+01 5.17376E+05 4.57619E+04-7.03766E+00 1.54364E+05-7.86881E+00
 -1       588-7.88374E+00 5.57470E+05 5.76716E+04 8.89725E+00 1.79775E+05 5.68892E+00
 -1       589 1.39757E+01 2.67239E+05 2.03915E+04-1.39956E+01 7.57771E+04-9.30422E+00
 -1       590 2.52990E+01 4.40551E+05 3.00875E+04-2.65696E+01 1.15437E+05-1.45654E+01
 -1       591 2.53040E+01 4.40562E+05 3.00825E+04-6.42629E+00 1.15431E+05-8.78966E+00
 -1       592-1.09456E+01 4.78832E+05 3.78198E+04 1.19341E+01 1.34967E+05 6.79072E+00
 -1       593 1.98194E+01 2.28892E+05 1.31621E+04-1.91063E+01 5.63950E+04-1.12118E+01
 -1       594 3.23428E+01 3.68420E+05 1.98433E+04-3.31719E+01 8.56463E+04-1.63977E+01
 -1       595 3.25546E+01 3.68454E+05 1.98390E+04-2.87555E+00 8.56420E+04-9.30254E+00
 -1       596-1.44867E+01 4.04421E+05 2.48449E+04 1.42645E+01 1.00570E+05 7.68759E+00
 -1       597 2.64303E+01 1.92871E+05 8.49564E+03-2.55856E+01 4.15854E+04-1.29208E+01
 -1       598 3.82602E+01 3.01102E+05 1.31206E+04-2.91926E+01 6.28291E+04-1.63236E+01
 -1       599 3.82317E+01 3.01176E+05 1.31168E+04 6.24660E+00 6.28336E+04-8.43861E+00
 -1       600-1.81525E+01 3.34784E+05 1.63365E+04 1.82205E+01 7.42331E+04 8.56753E+00
 -1       601 3.27485E+01 1.59243E+05 5.47443E+03-2.52773E+01 3.02582E+04-1.36874E+01
 -1       602 3.86794E+01 2.38171E+05 8.66780E+03-4.21724E+01 4.52669E+04-1.67154E+01
 -1       603 4.02924E+01 2.38320E+05 8.66749E+03 2.56568E+01 4.52729E+04-6.99860E+00
 -1       604-2.00150E+01 2.69805E+05 1.07122E+04 9.63590E+00 5.40174E+04 7.47774E+00
 -1       605 3.46321E+01 1.27818E+05 3.49155E+03-3.70745E+01 2.15187E+04-1.32902E+01
 -1       606 2.76949E+01 1.78977E+05 5.62349E+03 6.00703E+01 3.13077E+04-3.61120E+00
 -1       607 2.54196E+01 1.79229E+05 5.62226E+03 6.18585E+01 3.13692E+04 1.93625E+00
 -1       608-2.02128E+01 2.09010E+05 6.91730E+03 3.06221E+01 3.82573E+04 8.93330E+00
 -1       609 3.01845E+01 9.82543E+04 2.15939E+03 3.15408E+01 1.46290E+04-7.61486E+00
 -1       610-1.01894E+01 1.22320E+05 3.49374E+03-1.62596E+02 2.04958E+04-1.44985E+01
 -1       611 2.33606E+00 1.22800E+05 3.50758E+03 1.27397E+02 2.04526E+04 4.29631E-01
 -1       612-2.73993E+00 1.51581E+05 4.33864E+03-9.50520E+01 2.59415E+04-6.41642E+00
 -1       613-7.64054E+00 7.01204E+04 1.12395E+03-1.21704E+02 8.99238E+03-2.55331E+00
 -1       614-1.03281E+02 6.80795E+04 1.42723E+03 1.01498E+03 8.96454E+03 9.36570E+01
 -1       615-1.32523E+02 6.86713E+04 1.43680E+03 2.34349E+02 9.47492E+03 6.13768E+01
 -1       616-5.45873E+00 9.70201E+04 2.30430E+03 2.55271E+02 1.50320E+04 2.15959E+01
 -1       617-3.80177E+01 4.29476E+04 3.24268E+02 6.94296E+02 4.01646E+03 3.68408E+01
 -1       618-8.38651E+01 2.54500E+04-2.47372E+02-3.46705E+03 7.69605E+03-3.62857E+00
 -1       619 1.52898E+01 2.04137E+04-2.27885E+02-1.43724E+03 5.66409E+03-7.45477E+01
 -1       620 1.79461E+02 4.32347E+04 1.50405E+03-1.28967E+03 8.44112E+03-1.23796E+02
 -1       621-2.82525E+02 2.00287E+04-1.38876E+03-2.27163E+03 2.00220E+03 1.19658E+02
 -3
    1PSTEP                        29          15           1          
  100CL  115 1.000000000         621                     0   15           1
 -4  DISP        4    1
 -5  D1          1    2    1    0
 -5  D2          1    2    2    0
 -5  D3          1    2    3    0
 -5  ALL         1    2    0    0    1ALL
 -1         1 0.00000E+00 0.00000E+00 0.00000E+00
 -1         2 0.00000E+00 0.00000E+00 0.00000E+00
 -1         3 1.80844E-09 5.35889E-02-4.03554E-03
 -1         4-3.09454E-09 5.19441E-02-1.94819E-02
 -1         5 0.00000E+00 0.00000E+00 0.00000E+00
 -1         6 0.00000E+00 0.00000E+00 0.00000E+00
 -1         7 4.63608E-14 5.35889E-02-4.03554E-03
 -1         8 1.75854E-14 5.19441E-02-1.94819E-02
 -1         9 0.00000E+00 0.00000E+00 0.00000E+00
 -1        10-3.69623E-10 1.37406E-02-6.20476E-04
 -1        11-6.43791E-10 5.27624E-02-1.17516E-02
 -1        12 8.33213E-10 1.32765E-02-8.60017E-03
 -1        13 0.00000E+00 0.00000E+00 0.00000E+00
 -1        14 0.00000E+00 0.00000E+00 0.00000E+00
 -1        15 9.04394E-10 5.35889E-02-4.03554E-03
 -1        16-1.54691E-09 5.19441E-02-1.94819E-02
 -1        17 0.00000E+00 0.00000E+00 0.00000E+00
 -1        18 1.16745E-14 1.37406E-02-6.20474E-04
 -1        19 3.19687E-14 5.27624E-02-1.17516E-02
 -1        20-1.65345E-15 1.32765E-02-8.60017E-03
 -1        21 4.36420E-09 2.03814E-01-2.80591E-02
 -1        22-6.00015E-09 1.98066E-01-5.65901E-02
 -1        23 1.79719E-13 2.03814E-01-2.80591E-02
 -1        24 1.21513E-13 1.98066E-01-5.65901E-02
 -1        25-1.43608E-09 1.17640E-01-1.25700E-02
 -1        26-8.17896E-10 2.00939E-01-4.23193E-02
 -1        27 2.26607E-09 1.14181E-01-3.48475E-02
 -1        28 2.18227E-09 2.03814E-01-2.80591E-02
 -1        29-3.00013E-09 1.98066E-01-5.65901E-02
 -1        30 1.02682E-13 1.17640E-01-1.25700E-02
 -1        31 1.50643E-13 2.00939E-01-4.23193E-02
 -1        32 5.95289E-14 1.14181E-01-3.48475E-02
 -1        33 7.88305E-09 4.34346E-01-8.51132E-02
 -1        34-9.19065E-09 4.23075E-01-1.24307E-01
 -1        35 3.88227E-13 4.34346E-01-8.51132E-02
 -1        36 3.03766E-13 4.23075E-01-1.24307E-01
 -1        37-2.92544E-09 3.10066E-01-5.19072E-02
 -1        38-6.53626E-10 4.28711E-01-1.04705E-01
 -1        39 3.73386E-09 3.01690E-01-8.60547E-02
 -1        40 3.94170E-09 4.34346E-01-8.51132E-02
 -1        41-4.59546E-09 4.23075E-01-1.24307E-01
 -1        42 2.75237E-13 3.10066E-01-5.19072E-02
 -1        43 3.45926E-13 4.28711E-01-1.04705E-01
 -1        44 2.04269E-13 3.01690E-01-8.60547E-02
 -1        45 1.26058E-08 7.29366E-01-1.82013E-01
 -1        46-1.31453E-08 7.11946E-01-2.29646E-01
 -1        47 6.56178E-13 7.29366E-01-1.82013E-01
 -1        48 5.47180E-13 7.11946E-01-2.29646E-01
 -1        49-4.95545E-09 5.74725E-01-1.28353E-01
 -1        50-2.69335E-10 7.20657E-01-2.05825E-01
 -1        51 5.45300E-09 5.60431E-01-1.72025E-01
 -1        52 6.30304E-09 7.29366E-01-1.82013E-01
 -1        53-6.57290E-09 7.11946E-01-2.29646E-01
 -1        54 5.15091E-13 5.74725E-01-1.28353E-01
 -1        55 6.01729E-13 7.20657E-01-2.05825E-01
 -1        56 4.19097E-13 5.60431E-01-1.72025E-01
 -1        57 1.87494E-08 1.07487E+00-3.21043E-01
 -1        58-1.85240E-08 1.05121E+00-3.75212E-01
 -1        59 9.69033E-13 1.07487E+00-3.21043E-01
 -1        60 8.37361E-13 1.05121E+00-3.75212E-01
 -1        61-7.64943E-09 8.96596E-01-2.46251E-01
 -1        62 1.13329E-10 1.06304E+00-3.48124E-01
 -1        63 7.68478E-09 8.76055E-01-2.97372E-01
 -1        64 9.37471E-09 1.07487E+00-3.21043E-01
 -1        65-9.26243E-09 1.05121E+00-3.75212E-01
 -1        66 8.06875E-13 8.96596E-01-2.46251E-01
 -1        67 9.03353E-13 1.06304E+00-3.48124E-01
 -1        68 6.87419E-13 8.76055E-01-2.97372E-01
 -1        69 2.64095E-08 1.45914E+00-5.01493E-01
 -1        70-2.63675E-08 1.42952E+00-5.60643E-01
 -1        71 1.31235E-12 1.45914E+00-5.01493E-01
 -1        72 1.16123E-12 1.42952E+00-5.60643E-01
 -1        73-1.11014E-08 1.26280E+00-4.06215E-01
 -1        74 2.20095E-11 1.44433E+00-5.31065E-01
 -1        75 1.08267E-08 1.23612E+00-4.63054E-01
 -1        76 1.32045E-08 1.45914E+00-5.01493E-01
 -1        77-1.31844E-08 1.42952E+00-5.60643E-01
 -1        78 1.13732E-12 1.26280E+00-4.06215E-01
 -1        79 1.23691E-12 1.44433E+00-5.31065E-01
 -1        80 9.97549E-13 1.23612E+00-4.63054E-01
 -1        81 3.53952E-08 1.87278E+00-7.20850E-01
 -1        82-3.83546E-08 1.83765E+00-7.83752E-01
 -1        83 1.67663E-12 1.87278E+00-7.20850E-01
 -1        84 1.50881E-12 1.83765E+00-7.83752E-01
 -1        85-1.53137E-08 1.66280E+00-6.06508E-01
 -1        86-1.47811E-09 1.85522E+00-7.52299E-01
 -1        87 1.55207E-08 1.63036E+00-6.67676E-01
 -1        88 1.76970E-08 1.87278E+00-7.20850E-01
 -1        89-1.91784E-08 1.83765E+00-7.83752E-01
 -1        90 1.48925E-12 1.66280E+00-6.06508E-01
 -1        91 1.59345E-12 1.85522E+00-7.52299E-01
 -1        92 1.32967E-12 1.63036E+00-6.67676E-01
 -1        93 4.49668E-08 2.30844E+00-9.75653E-01
 -1        94-5.71608E-08 2.26836E+00-1.04136E+00
 -1        95 2.05879E-12 2.30844E+00-9.75653E-01
 -1        96 1.87474E-12 2.26836E+00-1.04136E+00
 -1        97-2.00939E-08 2.08825E+00-8.44055E-01
 -1        98-6.09460E-09 2.28840E+00-1.00850E+00
 -1        99 2.28026E-08 2.05057E+00-9.08467E-01
 -1       100 2.24822E-08 2.30844E+00-9.75653E-01
 -1       101-2.85820E-08 2.26836E+00-1.04136E+00
 -1       102 1.86463E-12 2.08825E+00-8.44055E-01
 -1       103 1.96703E-12 2.28840E+00-1.00850E+00
 -1       104 1.68990E-12 2.05057E+00-9.08467E-01
 -1       105 5.34420E-08 2.76049E+00-1.26205E+00
 -1       106-8.69530E-08 2.71602E+00-1.32983E+00
 -1       107 2.45052E-12 2.76049E+00-1.26205E+00
 -1       108 2.25547E-12 2.71602E+00-1.32983E+00
 -1       109-2.48954E-08 2.53271E+00-1.11515E+00
 -1       110-1.67520E-08 2.73826E+00-1.29594E+00
 -1       111 3.43113E-08 2.49037E+00-1.18197E+00
 -1       112 2.67191E-08 2.76049E+00-1.26205E+00
 -1       113-4.34788E-08 2.71602E+00-1.32983E+00
 -1       114 2.25307E-12 2.53271E+00-1.11515E+00
 -1       115 2.35273E-12 2.73826E+00-1.29594E+00
 -1       116 2.06563E-12 2.49037E+00-1.18197E+00
 -1       117 5.76430E-08 3.22465E+00-1.57616E+00
 -1       118-1.34049E-07 3.17637E+00-1.64547E+00
 -1       119 2.84385E-12 3.22465E+00-1.57616E+00
 -1       120 2.63949E-12 3.17637E+00-1.64547E+00
 -1       121-2.85829E-08 2.99128E+00-1.41588E+00
 -1       122-3.81978E-08 3.20051E+00-1.61082E+00
 -1       123 5.25747E-08 2.94483E+00-1.48449E+00
 -1       124 2.88187E-08 3.22465E+00-1.57616E+00
 -1       125-6.70272E-08 3.17637E+00-1.64547E+00
 -1       126 2.64775E-12 2.99128E+00-1.41588E+00
 -1       127 2.74173E-12 3.20051E+00-1.61082E+00
 -1       128 2.44985E-12 2.94483E+00-1.48449E+00
 -1       129 5.21655E-08 3.69774E+00-1.91425E+00
 -1       130-2.07722E-07 3.64618E+00-1.98469E+00
 -1       131 3.22210E-12 3.69774E+00-1.91425E+00
 -1       132 3.00589E-12 3.64618E+00-1.98469E+00
 -1       133-2.91131E-08 3.46025E+00-1.74243E+00
 -1       134-7.77725E-08 3.67196E+00-1.94947E+00
 -1       135 8.13832E-08 3.41026E+00-1.81235E+00
 -1       136 2.60798E-08 3.69774E+00-1.91425E+00
 -1       137-1.03864E-07 3.64618E+00-1.98469E+00
 -1       138 3.03416E-12 3.46025E+00-1.74243E+00
 -1       139 3.11360E-12 3.67196E+00-1.94947E+00
 -1       140 2.82334E-12 3.41026E+00-1.81235E+00
 -1       141 2.85295E-08 4.17738E+00-2.27285E+00
 -1       142-3.21121E-07 4.12303E+00-2.34412E+00
 -1       143 3.58654E-12 4.17738E+00-2.27285E+00
 -1       144 3.36685E-12 4.12303E+00-2.34412E+00
 -1       145-2.31215E-08 3.93687E+00-2.09119E+00
 -1       146-1.46284E-07 4.15020E+00-2.30849E+00
 -1       147 1.26226E-07 3.88385E+00-2.16208E+00
 -1       148 1.42610E-08 4.17738E+00-2.27285E+00
 -1       149-1.60562E-07 4.12303E+00-2.34412E+00
 -1       150 3.40518E-12 3.93686E+00-2.09119E+00
 -1       151 3.47716E-12 4.15020E+00-2.30849E+00
 -1       152 3.18812E-12 3.88385E+00-2.16208E+00
 -1       153-2.56973E-08 4.66181E+00-2.64880E+00
 -1       154-4.91943E-07 4.60511E+00-2.72066E+00
 -1       155 3.96945E-12 4.66181E+00-2.64880E+00
 -1       156 3.74319E-12 4.60511E+00-2.72066E+00
 -1       157-5.48926E-09 4.41909E+00-2.45884E+00
 -1       158-2.58820E-07 4.63346E+00-2.68473E+00
 -1       159 1.94764E-07 4.36351E+00-2.53044E+00
 -1       160-1.28461E-08 4.66181E+00-2.64880E+00
 -1       161-2.45970E-07 4.60511E+00-2.72066E+00
 -1       162 3.77691E-12 4.41909E+00-2.45884E+00
 -1       163 3.85543E-12 4.63346E+00-2.68473E+00
 -1       164 3.55304E-12 4.36351E+00-2.53043E+00
 -1       165-1.27265E-07 5.14972E+00-3.03921E+00
 -1       166-7.42913E-07 5.09108E+00-3.11151E+00
 -1       167 4.33854E-12 5.14972E+00-3.03921E+00
 -1       168 4.10209E-12 5.09108E+00-3.11151E+00
 -1       169 3.11256E-08 4.90540E+00-2.84236E+00
 -1       170-4.35032E-07 5.12040E+00-3.07536E+00
 -1       171 2.97079E-07 4.84768E+00-2.91447E+00
 -1       172-6.36358E-08 5.14972E+00-3.03921E+00
 -1       173-3.71443E-07 5.09108E+00-3.11151E+00
 -1       174 4.15583E-12 4.90540E+00-2.84236E+00
 -1       175 4.22006E-12 5.12040E+00-3.07536E+00
 -1       176 3.92199E-12 4.84768E+00-2.91447E+00
 -1       177-2.96982E-07 5.64016E+00-3.44149E+00
 -1       178-1.09943E-06 5.57995E+00-3.51411E+00
 -1       179 4.69353E-12 5.64016E+00-3.44149E+00
 -1       180 4.44933E-12 5.57995E+00-3.51411E+00
 -1       181 9.61044E-08 5.39467E+00-3.23902E+00
 -1       182-6.98359E-07 5.61005E+00-3.47780E+00
 -1       183 4.45749E-07 5.33521E+00-3.31149E+00
 -1       184-1.48440E-07 5.64016E+00-3.44149E+00
 -1       185-5.49685E-07 5.57995E+00-3.51411E+00
 -1       186 4.51964E-12 5.39467E+00-3.23902E+00
 -1       187 4.57035E-12 5.61005E+00-3.47780E+00
 -1       188 4.28014E-12 5.33521E+00-3.31149E+00
 -1       189-5.55612E-07 6.13240E+00-3.85329E+00
 -1       190-1.58909E-06 6.07094E+00-3.92614E+00
 -1       191 5.04439E-12 6.13240E+00-3.85329E+00
 -1       192 4.80243E-12 6.07094E+00-3.92614E+00
 -1       193 2.01118E-07 5.88609E+00-3.64634E+00
 -1       194-1.07165E-06 6.10167E+00-3.88971E+00
 -1       195 6.53993E-07 5.82522E+00-3.71908E+00
 -1       196-2.77857E-07 6.13240E+00-3.85329E+00
 -1       197-7.94487E-07 6.07094E+00-3.92614E+00
 -1       198 4.87070E-12 5.88609E+00-3.64634E+00
 -1       199 4.92394E-12 6.10167E+00-3.88971E+00
 -1       200 4.63525E-12 5.82522E+00-3.71908E+00
 -1       201-9.19655E-07 6.62591E+00-4.27246E+00
 -1       202-2.21779E-06 6.56352E+00-4.34546E+00
 -1       203 5.38925E-12 6.62591E+00-4.27246E+00
 -1       204 5.14966E-12 6.56351E+00-4.34546E+00
 -1       205 3.54600E-07 6.37903E+00-4.06208E+00
 -1       206-1.57143E-06 6.59471E+00-4.30896E+00
 -1       207 9.35021E-07 6.31706E+00-4.13501E+00
 -1       208-4.59436E-07 6.62591E+00-4.27246E+00
 -1       209-1.10868E-06 6.56352E+00-4.34546E+00
 -1       210 5.21070E-12 6.37903E+00-4.06208E+00
 -1       211 5.26938E-12 6.59471E+00-4.30896E+00
 -1       212 4.97509E-12 6.31706E+00-4.13501E+00
 -1       213-1.37551E-06 7.12028E+00-4.69702E+00
 -1       214-3.00167E-06 7.05723E+00-4.77011E+00
 -1       215 5.71434E-12 7.12027E+00-4.69702E+00
 -1       216 5.46762E-12 7.05722E+00-4.77011E+00
 -1       217 5.67444E-07 6.87301E+00-4.48419E+00
 -1       218-2.17756E-06 7.08875E+00-4.73357E+00
 -1       219 1.28621E-06 6.81025E+00-4.55724E+00
 -1       220-6.88446E-07 7.12028E+00-4.69702E+00
 -1       221-1.50121E-06 7.05722E+00-4.77011E+00
 -1       222 5.55544E-12 6.87301E+00-4.48419E+00
 -1       223 5.59083E-12 7.08875E+00-4.73357E+00
 -1       224 5.31438E-12 6.81025E+00-4.55724E+00
 -1       225-1.87657E-06 7.61516E+00-5.12509E+00
 -1       226-3.73809E-06 7.55173E+00-5.19825E+00
 -1       227 6.03728E-12 7.61516E+00-5.12509E+00
 -1       228 5.78944E-12 7.55172E+00-5.19825E+00
 -1       229 8.05268E-07 7.36767E+00-4.91073E+00
 -1       230-2.85184E-06 7.58345E+00-5.16167E+00
 -1       231 1.71004E-06 7.30439E+00-4.98386E+00
 -1       232-9.35726E-07 7.61516E+00-5.12509E+00
 -1       233-1.86555E-06 7.55173E+00-5.19825E+00
 -1       234 5.88113E-12 7.36767E+00-4.91073E+00
 -1       235 5.91409E-12 7.58344E+00-5.16167E+00
 -1       236 5.63254E-12 7.30440E+00-4.98386E+00
 -1       237-2.22992E-06 8.11030E+00-5.55491E+00
 -1       238-4.67800E-06 8.04675E+00-5.62808E+00
 -1       239 6.38584E-12 8.11030E+00-5.55491E+00
 -1       240 6.15613E-12 8.04674E+00-5.62808E+00
 -1       241 1.09341E-06 7.86272E+00-5.33990E+00
 -1       242-3.27313E-06 8.07853E+00-5.59150E+00
 -1       243 2.06097E-06 7.79918E+00-5.41307E+00
 -1       244-1.11938E-06 8.11030E+00-5.55491E+00
 -1       245-2.35345E-06 8.04675E+00-5.62808E+00
 -1       246 6.21516E-12 7.86272E+00-5.33990E+00
 -1       247 6.26890E-12 8.07852E+00-5.59150E+00
 -1       248 5.97357E-12 7.79919E+00-5.41307E+00
 -1       249 0.00000E+00 0.00000E+00 0.00000E+00
 -1       250 0.00000E+00 0.00000E+00 0.00000E+00
 -1       251-1.80835E-09 5.35889E-02-4.03554E-03
 -1       252 3.09458E-09 5.19441E-02-1.94819E-02
 -1       253 0.00000E+00 0.00000E+00 0.00000E+00
 -1       254 0.00000E+00 0.00000E+00 0.00000E+00
 -1       255-9.04302E-10 5.35889E-02-4.03554E-03
 -1       256 1.54694E-09 5.19441E-02-1.94819E-02
 -1       257 0.00000E+00 0.00000E+00 0.00000E+00
 -1       258 3.69647E-10 1.37406E-02-6.20476E-04
 -1       259 6.43855E-10 5.27624E-02-1.17516E-02
 -1       260-8.33216E-10 1.32765E-02-8.60017E-03
 -1       261-4.36384E-09 2.03814E-01-2.80591E-02
 -1       262 6.00039E-09 1.98066E-01-5.65901E-02
 -1       263-2.18191E-09 2.03814E-01-2.80591E-02
 -1       264 3.00037E-09 1.98066E-01-5.65901E-02
 -1       265 1.43629E-09 1.17640E-01-1.25700E-02
 -1       266 8.18197E-10 2.00939E-01-4.23193E-02
 -1       267-2.26595E-09 1.14181E-01-3.48475E-02
 -1       268-7.88227E-09 4.34346E-01-8.51132E-02
 -1       269 9.19125E-09 4.23075E-01-1.24307E-01
 -1       270-3.94092E-09 4.34346E-01-8.51132E-02
 -1       271 4.59606E-09 4.23075E-01-1.24307E-01
 -1       272 2.92599E-09 3.10066E-01-5.19072E-02
 -1       273 6.54318E-10 4.28711E-01-1.04705E-01
 -1       274-3.73345E-09 3.01690E-01-8.60547E-02
 -1       275-1.26045E-08 7.29366E-01-1.82013E-01
 -1       276 1.31464E-08 7.11946E-01-2.29646E-01
 -1       277-6.30173E-09 7.29366E-01-1.82013E-01
 -1       278 6.57399E-09 7.11946E-01-2.29646E-01
 -1       279 4.95648E-09 5.74725E-01-1.28353E-01
 -1       280 2.70538E-10 7.20657E-01-2.05825E-01
 -1       281-5.45217E-09 5.60431E-01-1.72025E-01
 -1       282-1.87475E-08 1.07487E+00-3.21043E-01
 -1       283 1.85257E-08 1.05121E+00-3.75212E-01
 -1       284-9.37277E-09 1.07487E+00-3.21043E-01
 -1       285 9.26410E-09 1.05121E+00-3.75212E-01
 -1       286 7.65105E-09 8.96596E-01-2.46251E-01
 -1       287-1.11522E-10 1.06304E+00-3.48124E-01
 -1       288-7.68340E-09 8.76055E-01-2.97372E-01
 -1       289-2.64069E-08 1.45914E+00-5.01493E-01
 -1       290 2.63698E-08 1.42952E+00-5.60643E-01
 -1       291-1.32019E-08 1.45914E+00-5.01493E-01
 -1       292 1.31868E-08 1.42952E+00-5.60643E-01
 -1       293 1.11037E-08 1.26280E+00-4.06215E-01
 -1       294-1.95357E-11 1.44433E+00-5.31065E-01
 -1       295-1.08247E-08 1.23612E+00-4.63054E-01
 -1       296-3.53919E-08 1.87278E+00-7.20850E-01
 -1       297 3.83576E-08 1.83765E+00-7.83752E-01
 -1       298-1.76936E-08 1.87278E+00-7.20850E-01
 -1       299 1.91814E-08 1.83765E+00-7.83752E-01
 -1       300 1.53167E-08 1.66280E+00-6.06508E-01
 -1       301 1.48130E-09 1.85522E+00-7.52299E-01
 -1       302-1.55180E-08 1.63036E+00-6.67676E-01
 -1       303-4.49627E-08 2.30844E+00-9.75653E-01
 -1       304 5.71646E-08 2.26836E+00-1.04136E+00
 -1       305-2.24781E-08 2.30844E+00-9.75653E-01
 -1       306 2.85858E-08 2.26836E+00-1.04136E+00
 -1       307 2.00977E-08 2.08825E+00-8.44055E-01
 -1       308 6.09854E-09 2.28840E+00-1.00850E+00
 -1       309-2.27992E-08 2.05057E+00-9.08467E-01
 -1       310-5.34371E-08 2.76049E+00-1.26205E+00
 -1       311 8.69575E-08 2.71602E+00-1.32983E+00
 -1       312-2.67142E-08 2.76049E+00-1.26205E+00
 -1       313 4.34833E-08 2.71602E+00-1.32983E+00
 -1       314 2.48999E-08 2.53271E+00-1.11515E+00
 -1       315 1.67567E-08 2.73826E+00-1.29594E+00
 -1       316-3.43071E-08 2.49037E+00-1.18197E+00
 -1       317-5.76373E-08 3.22465E+00-1.57616E+00
 -1       318 1.34054E-07 3.17637E+00-1.64547E+00
 -1       319-2.88130E-08 3.22465E+00-1.57616E+00
 -1       320 6.70325E-08 3.17637E+00-1.64547E+00
 -1       321 2.85882E-08 2.99128E+00-1.41588E+00
 -1       322 3.82033E-08 3.20051E+00-1.61082E+00
 -1       323-5.25698E-08 2.94483E+00-1.48449E+00
 -1       324-5.21591E-08 3.69774E+00-1.91425E+00
 -1       325 2.07728E-07 3.64618E+00-1.98469E+00
 -1       326-2.60734E-08 3.69774E+00-1.91425E+00
 -1       327 1.03870E-07 3.64618E+00-1.98469E+00
 -1       328 2.91192E-08 3.46025E+00-1.74243E+00
 -1       329 7.77787E-08 3.67196E+00-1.94947E+00
 -1       330-8.13776E-08 3.41026E+00-1.81235E+00
 -1       331-2.85223E-08 4.17738E+00-2.27285E+00
 -1       332 3.21128E-07 4.12303E+00-2.34412E+00
 -1       333-1.42539E-08 4.17738E+00-2.27285E+00
 -1       334 1.60569E-07 4.12303E+00-2.34412E+00
 -1       335 2.31283E-08 3.93687E+00-2.09119E+00
 -1       336 1.46291E-07 4.15020E+00-2.30849E+00
 -1       337-1.26220E-07 3.88385E+00-2.16208E+00
 -1       338 2.57052E-08 4.66181E+00-2.64880E+00
 -1       339 4.91950E-07 4.60511E+00-2.72066E+00
 -1       340 1.28541E-08 4.66181E+00-2.64880E+00
 -1       341 2.45978E-07 4.60511E+00-2.72066E+00
 -1       342 5.49681E-09 4.41909E+00-2.45884E+00
 -1       343 2.58828E-07 4.63346E+00-2.68473E+00
 -1       344-1.94757E-07 4.36351E+00-2.53044E+00
 -1       345 1.27273E-07 5.14972E+00-3.03921E+00
 -1       346 7.42922E-07 5.09108E+00-3.11151E+00
 -1       347 6.36444E-08 5.14972E+00-3.03921E+00
 -1       348 3.71452E-07 5.09108E+00-3.11151E+00
 -1       349-3.11173E-08 4.90540E+00-2.84236E+00
 -1       350 4.35040E-07 5.12040E+00-3.07536E+00
 -1       351-2.97071E-07 4.84768E+00-2.91447E+00
 -1       352 2.96992E-07 5.64016E+00-3.44149E+00
 -1       353 1.09943E-06 5.57995E+00-3.51411E+00
 -1       354 1.48450E-07 5.64016E+00-3.44149E+00
 -1       355 5.49694E-07 5.57995E+00-3.51411E+00
 -1       356-9.60954E-08 5.39467E+00-3.23902E+00
 -1       357 6.98368E-07 5.61005E+00-3.47780E+00
 -1       358-4.45741E-07 5.33521E+00-3.31149E+00
 -1       359 5.55622E-07 6.13240E+00-3.85329E+00
 -1       360 1.58910E-06 6.07094E+00-3.92614E+00
 -1       361 2.77867E-07 6.13240E+00-3.85329E+00
 -1       362 7.94496E-07 6.07094E+00-3.92614E+00
 -1       363-2.01108E-07 5.88609E+00-3.64634E+00
 -1       364 1.07166E-06 6.10167E+00-3.88971E+00
 -1       365-6.53984E-07 5.82522E+00-3.71908E+00
 -1       366 9.19666E-07 6.62591E+00-4.27246E+00
 -1       367 2.21780E-06 6.56352E+00-4.34546E+00
 -1       368 4.59447E-07 6.62591E+00-4.27246E+00
 -1       369 1.10869E-06 6.56352E+00-4.34546E+00
 -1       370-3.54590E-07 6.37903E+00-4.06208E+00
 -1       371 1.57144E-06 6.59471E+00-4.30896E+00
 -1       372-9.35011E-07 6.31706E+00-4.13501E+00
 -1       373 1.37552E-06 7.12028E+00-4.69702E+00
 -1       374 3.00168E-06 7.05723E+00-4.77011E+00
 -1       375 6.88457E-07 7.12028E+00-4.69702E+00
 -1       376 1.50123E-06 7.05722E+00-4.77011E+00
 -1       377-5.67433E-07 6.87301E+00-4.48419E+00
 -1       378 2.17757E-06 7.08875E+00-4.73357E+00
 -1       379-1.28620E-06 6.81025E+00-4.55724E+00
 -1       380 1.87658E-06 7.61516E+00-5.12509E+00
 -1       381 3.73810E-06 7.55173E+00-5.19825E+00
 -1       382 9.35738E-07 7.61516E+00-5.12509E+00
 -1       383 1.86556E-06 7.55173E+00-5.19825E+00
 -1       384-8.05256E-07 7.36767E+00-4.91073E+00
 -1       385 2.85185E-06 7.58345E+00-5.16167E+00
 -1       386-1.71003E-06 7.30439E+00-4.98386E+00
 -1       387 2.22993E-06 8.11030E+00-5.55491E+00
 -1       388 4.67801E-06 8.04675E+00-5.62808E+00
 -1       389 1.11940E-06 8.11030E+00-5.55491E+00
 -1       390 2.35347E-06 8.04675E+00-5.62808E+00
 -1       391-1.09339E-06 7.86272E+00-5.33990E+00
 -1       392 3.27315E-06 8.07853E+00-5.59150E+00
 -1       393-2.06096E-06 7.79918E+00-5.41307E+00
 -1       394 0.00000E+00 0.00000E+00 0.00000E+00
 -1       395 1.62484E-09 5.52314E-02 1.13948E-02
 -1       396 0.00000E+00 0.00000E+00 0.00000E+00
 -1       397 7.48593E-14 5.52314E-02 1.13948E-02
 -1       398 0.00000E+00 0.00000E+00 0.00000E+00
 -1       399-4.96389E-10 1.42048E-02 7.36607E-03
 -1       400 1.71566E-09 5.44143E-02 3.67285E-03
 -1       401 0.00000E+00 0.00000E+00 0.00000E+00
 -1       402 8.12052E-10 5.52314E-02 1.13948E-02
 -1       403 0.00000E+00 0.00000E+00 0.00000E+00
 -1       404 2.50739E-14 1.42048E-02 7.36607E-03
 -1       405 6.06275E-14 5.44143E-02 3.67285E-03
 -1       406 2.52512E-09 2.09558E-01 4.57445E-04
 -1       407 2.37314E-13 2.09558E-01 4.57458E-04
 -1       408-1.13069E-09 1.21100E-01 9.71318E-03
 -1       409 3.44394E-09 2.06687E-01-1.38059E-02
 -1       410 1.26220E-09 2.09558E-01 4.57451E-04
 -1       411 1.46155E-13 1.21100E-01 9.71318E-03
 -1       412 2.08587E-13 2.06687E-01-1.38059E-02
 -1       413 2.57733E-09 4.45612E-01-4.59281E-02
 -1       414 4.71998E-13 4.45612E-01-4.59281E-02
 -1       415-1.39802E-09 3.18445E-01-1.77555E-02
 -1       416 5.22938E-09 4.39979E-01-6.55256E-02
 -1       417 1.28823E-09 4.45612E-01-4.59281E-02
 -1       418 3.46573E-13 3.18445E-01-1.77555E-02
 -1       419 4.30048E-13 4.39979E-01-6.55255E-02
 -1       420 1.40829E-09 7.46784E-01-1.34384E-01
 -1       421 7.62986E-13 7.46784E-01-1.34384E-01
 -1       422-1.18452E-09 5.89020E-01-8.46799E-02
 -1       423 7.00612E-09 7.38074E-01-1.58202E-01
 -1       424 7.03633E-10 7.46784E-01-1.34384E-01
 -1       425 6.11694E-13 5.89020E-01-8.46799E-02
 -1       426 7.09821E-13 7.38074E-01-1.58202E-01
 -1       427-1.71253E-09 1.09852E+00-2.66875E-01
 -1       428 1.09823E-12 1.09852E+00-2.66875E-01
 -1       429-2.31247E-10 9.17137E-01-1.95130E-01
 -1       430 8.51721E-09 1.08669E+00-2.93962E-01
 -1       431-8.56937E-10 1.09852E+00-2.66875E-01
 -1       432 9.26972E-13 9.17137E-01-1.95130E-01
 -1       433 1.03361E-12 1.08669E+00-2.93962E-01
 -1       434-8.03968E-09 1.48876E+00-4.42342E-01
 -1       435 1.46085E-12 1.48876E+00-4.42342E-01
 -1       436 1.93289E-09 1.28947E+00-3.49377E-01
 -1       437 9.18324E-09 1.47395E+00-4.71920E-01
 -1       438-4.02077E-09 1.48876E+00-4.42342E-01
 -1       439 1.27837E-12 1.28947E+00-3.49377E-01
 -1       440 1.38673E-12 1.47395E+00-4.71920E-01
 -1       441-1.95985E-08 1.90791E+00-6.57946E-01
 -1       442 1.84174E-12 1.90791E+00-6.57946E-01
 -1       443 6.09081E-09 1.69523E+00-5.45341E-01
 -1       444 7.89609E-09 1.89035E+00-6.89400E-01
 -1       445-9.80058E-09 1.90791E+00-6.57946E-01
 -1       446 1.65023E-12 1.69523E+00-5.45341E-01
 -1       447 1.75979E-12 1.89035E+00-6.89400E-01
 -1       448-3.95394E-08 2.34853E+00-9.09948E-01
 -1       449 2.23709E-12 2.34853E+00-9.09948E-01
 -1       450 1.34845E-08 2.12593E+00-7.79644E-01
 -1       451 2.71057E-09 2.32849E+00-9.42802E-01
 -1       452-1.97715E-08 2.34853E+00-9.09948E-01
 -1       453 2.04229E-12 2.12593E+00-7.79644E-01
 -1       454 2.14820E-12 2.32849E+00-9.42802E-01
 -1       455-7.26237E-08 2.80496E+00-1.19427E+00
 -1       456 2.64097E-12 2.80496E+00-1.19427E+00
 -1       457 2.60222E-08 2.57506E+00-1.04832E+00
 -1       458-9.59459E-09 2.78272E+00-1.22816E+00
 -1       459-3.63141E-08 2.80496E+00-1.19427E+00
 -1       460 2.44321E-12 2.57506E+00-1.04832E+00
 -1       461 2.54519E-12 2.78272E+00-1.22816E+00
 -1       462-1.25846E-07 3.27294E+00-1.50685E+00
 -1       463 3.04421E-12 3.27294E+00-1.50685E+00
 -1       464 4.65578E-08 3.03772E+00-1.34727E+00
 -1       465-3.41073E-08 3.24879E+00-1.54150E+00
 -1       466-6.29251E-08 3.27294E+00-1.50685E+00
 -1       467 2.84827E-12 3.03772E+00-1.34727E+00
 -1       468 2.94378E-12 3.24879E+00-1.54150E+00
 -1       469-2.09181E-07 3.74931E+00-1.84381E+00
 -1       470 3.43318E-12 3.74931E+00-1.84381E+00
 -1       471 7.92338E-08 3.51023E+00-1.67251E+00
 -1       472-7.85115E-08 3.72352E+00-1.87903E+00
 -1       473-1.04592E-07 3.74931E+00-1.84381E+00
 -1       474 3.24719E-12 3.51023E+00-1.67251E+00
 -1       475 3.32789E-12 3.72352E+00-1.87903E+00
 -1       476-3.36289E-07 4.23173E+00-2.20159E+00
 -1       477 3.80471E-12 4.23173E+00-2.20159E+00
 -1       478 1.29889E-07 3.98988E+00-2.02030E+00
 -1       479-1.53897E-07 4.20456E+00-2.23722E+00
 -1       480-1.68143E-07 4.23173E+00-2.20159E+00
 -1       481 3.62402E-12 3.98988E+00-2.02030E+00
 -1       482 3.69525E-12 4.20456E+00-2.23722E+00
 -1       483-5.25124E-07 4.71851E+00-2.57693E+00
 -1       484 4.19115E-12 4.71851E+00-2.57693E+00
 -1       485 2.06353E-07 4.47466E+00-2.38725E+00
 -1       486-2.75389E-07 4.69016E+00-2.61286E+00
 -1       487-2.62559E-07 4.71851E+00-2.57693E+00
 -1       488 4.00009E-12 4.47466E+00-2.38725E+00
 -1       489 4.08011E-12 4.69016E+00-2.61286E+00
 -1       490-7.97186E-07 5.20836E+00-2.96690E+00
 -1       491 4.57066E-12 5.20836E+00-2.96690E+00
 -1       492 3.18785E-07 4.96311E+00-2.77026E+00
 -1       493-4.62349E-07 5.17904E+00-3.00306E+00
 -1       494-3.98563E-07 5.20836E+00-2.96690E+00
 -1       495 4.39068E-12 4.96311E+00-2.77026E+00
 -1       496 4.45438E-12 5.17904E+00-3.00306E+00
 -1       497-1.17687E-06 5.70037E+00-3.36887E+00
 -1       498 4.93571E-12 5.70037E+00-3.36887E+00
 -1       499 4.78502E-07 5.45414E+00-3.16654E+00
 -1       500-7.36560E-07 5.67026E+00-3.40518E+00
 -1       501-5.88436E-07 5.70037E+00-3.36887E+00
 -1       502 4.76128E-12 5.45414E+00-3.16654E+00
 -1       503 4.81431E-12 5.67026E+00-3.40518E+00
 -1       504-1.68061E-06 6.19386E+00-3.78045E+00
 -1       505 5.28391E-12 6.19386E+00-3.78045E+00
 -1       506 6.98895E-07 5.94697E+00-3.57360E+00
 -1       507-1.11947E-06 6.16313E+00-3.81687E+00
 -1       508-8.40093E-07 6.19386E+00-3.78045E+00
 -1       509 5.10833E-12 5.94697E+00-3.57360E+00
 -1       510 5.16412E-12 6.16313E+00-3.81687E+00
 -1       511-2.32237E-06 6.68831E+00-4.19947E+00
 -1       512 5.62118E-12 6.68831E+00-4.19946E+00
 -1       513 9.82148E-07 6.44099E+00-3.98915E+00
 -1       514-1.61641E-06 6.65711E+00-4.23596E+00
 -1       515-1.16146E-06 6.68831E+00-4.19947E+00
 -1       516 5.45015E-12 6.44099E+00-3.98915E+00
 -1       517 5.50590E-12 6.65711E+00-4.23596E+00
 -1       518-3.02666E-06 7.18333E+00-4.62392E+00
 -1       519 5.96363E-12 7.18333E+00-4.62392E+00
 -1       520 1.34391E-06 6.93577E+00-4.41113E+00
 -1       521-2.21727E-06 7.15180E+00-4.66047E+00
 -1       522-1.51175E-06 7.18333E+00-4.62392E+00
 -1       523 5.79861E-12 6.93577E+00-4.41113E+00
 -1       524 5.83804E-12 7.15180E+00-4.66047E+00
 -1       525-3.80912E-06 7.67861E+00-5.05194E+00
 -1       526 6.28799E-12 7.67861E+00-5.05194E+00
 -1       527 1.67904E-06 7.43095E+00-4.83759E+00
 -1       528-2.78682E-06 7.64689E+00-5.08852E+00
 -1       529-1.90804E-06 7.67861E+00-5.05194E+00
 -1       530 6.12886E-12 7.43095E+00-4.83759E+00
 -1       531 6.16350E-12 7.64688E+00-5.08852E+00
 -1       532-3.90058E-06 8.17389E+00-5.48175E+00
 -1       533 6.62388E-12 8.17388E+00-5.48174E+00
 -1       534 2.16356E-06 7.92625E+00-5.26672E+00
 -1       535-3.26150E-06 8.14209E+00-5.51833E+00
 -1       536-1.93864E-06 8.17388E+00-5.48174E+00
 -1       537 6.45502E-12 7.92626E+00-5.26672E+00
 -1       538 6.50258E-12 8.14209E+00-5.51833E+00
 -1       539 0.00000E+00 0.00000E+00 0.00000E+00
 -1       540-1.62469E-09 5.52314E-02 1.13948E-02
 -1       541 0.00000E+00 0.00000E+00 0.00000E+00
 -1       542-8.11902E-10 5.52314E-02 1.13948E-02
 -1       543 0.00000E+00 0.00000E+00 0.00000E+00
 -1       544 4.96440E-10 1.42048E-02 7.36607E-03
 -1       545-1.71554E-09 5.44143E-02 3.67285E-03
 -1       546-2.52465E-09 2.09558E-01 4.57445E-04
 -1       547-1.26173E-09 2.09558E-01 4.57451E-04
 -1       548 1.13099E-09 1.21100E-01 9.71318E-03
 -1       549-3.44352E-09 2.06687E-01-1.38059E-02
 -1       550-2.57638E-09 4.45612E-01-4.59281E-02
 -1       551-1.28729E-09 4.45612E-01-4.59281E-02
 -1       552 1.39871E-09 3.18445E-01-1.77555E-02
 -1       553-5.22852E-09 4.39979E-01-6.55256E-02
 -1       554-1.40676E-09 7.46784E-01-1.34384E-01
 -1       555-7.02107E-10 7.46784E-01-1.34384E-01
 -1       556 1.18575E-09 5.89020E-01-8.46799E-02
 -1       557-7.00470E-09 7.38074E-01-1.58202E-01
 -1       558 1.71473E-09 1.09852E+00-2.66875E-01
 -1       559 8.59133E-10 1.09852E+00-2.66875E-01
 -1       560 2.33100E-10 9.17137E-01-1.95130E-01
 -1       561-8.51515E-09 1.08669E+00-2.93962E-01
 -1       562 8.04260E-09 1.48876E+00-4.42342E-01
 -1       563 4.02369E-09 1.48876E+00-4.42342E-01
 -1       564-1.93033E-09 1.28947E+00-3.49377E-01
 -1       565-9.18047E-09 1.47395E+00-4.71920E-01
 -1       566 1.96022E-08 1.90791E+00-6.57946E-01
 -1       567 9.80426E-09 1.90791E+00-6.57946E-01
 -1       568-6.08751E-09 1.69523E+00-5.45341E-01
 -1       569-7.89257E-09 1.89035E+00-6.89400E-01
 -1       570 3.95439E-08 2.34853E+00-9.09948E-01
 -1       571 1.97759E-08 2.34853E+00-9.09948E-01
 -1       572-1.34805E-08 2.12593E+00-7.79644E-01
 -1       573-2.70627E-09 2.32849E+00-9.42802E-01
 -1       574 7.26290E-08 2.80496E+00-1.19427E+00
 -1       575 3.63193E-08 2.80496E+00-1.19427E+00
 -1       576-2.60173E-08 2.57506E+00-1.04832E+00
 -1       577 9.59968E-09 2.78272E+00-1.22816E+00
 -1       578 1.25852E-07 3.27294E+00-1.50685E+00
 -1       579 6.29312E-08 3.27294E+00-1.50685E+00
 -1       580-4.65521E-08 3.03772E+00-1.34727E+00
 -1       581 3.41132E-08 3.24879E+00-1.54150E+00
 -1       582 2.09188E-07 3.74931E+00-1.84381E+00
 -1       583 1.04599E-07 3.74931E+00-1.84381E+00
 -1       584-7.92273E-08 3.51023E+00-1.67251E+00
 -1       585 7.85181E-08 3.72352E+00-1.87903E+00
 -1       586 3.36297E-07 4.23173E+00-2.20159E+00
 -1       587 1.68151E-07 4.23173E+00-2.20159E+00
 -1       588-1.29882E-07 3.98988E+00-2.02030E+00
 -1       589 1.53905E-07 4.20456E+00-2.23722E+00
 -1       590 5.25132E-07 4.71851E+00-2.57693E+00
 -1       591 2.62567E-07 4.71851E+00-2.57693E+00
 -1       592-2.06345E-07 4.47466E+00-2.38725E+00
 -1       593 2.75397E-07 4.69016E+00-2.61286E+00
 -1       594 7.97195E-07 5.20836E+00-2.96690E+00
 -1       595 3.98572E-07 5.20836E+00-2.96690E+00
 -1       596-3.18776E-07 4.96311E+00-2.77026E+00
 -1       597 4.62358E-07 5.17904E+00-3.00306E+00
 -1       598 1.17688E-06 5.70037E+00-3.36887E+00
 -1       599 5.88446E-07 5.70037E+00-3.36887E+00
 -1       600-4.78493E-07 5.45414E+00-3.16654E+00
 -1       601 7.36570E-07 5.67026E+00-3.40518E+00
 -1       602 1.68062E-06 6.19386E+00-3.78045E+00
 -1       603 8.40104E-07 6.19386E+00-3.78045E+00
 -1       604-6.98885E-07 5.94697E+00-3.57360E+00
 -1       605 1.11948E-06 6.16313E+00-3.81687E+00
 -1       606 2.32238E-06 6.68831E+00-4.19947E+00
 -1       607 1.16147E-06 6.68831E+00-4.19947E+00
 -1       608-9.82137E-07 6.44099E+00-3.98915E+00
 -1       609 1.61643E-06 6.65711E+00-4.23596E+00
 -1       610 3.02668E-06 7.18333E+00-4.62392E+00
 -1       611 1.51177E-06 7.18333E+00-4.62392E+00
 -1       612-1.34390E-06 6.93577E+00-4.41113E+00
 -1       613 2.21728E-06 7.15180E+00-4.66047E+00
 -1       614 3.80913E-06 7.67861E+00-5.05194E+00
 -1       615 1.90806E-06 7.67861E+00-5.05194E+00
 -1       616-1.67902E-06 7.43095E+00-4.83759E+00
 -1       617 2.78683E-06 7.64689E+00-5.08852E+00
 -1       618 3.90059E-06 8.17389E+00-5.48175E+00
 -1       619 1.93866E-06 8.17388E+00-5.48174E+00
 -1       620-2.16355E-06 7.92625E+00-5.26672E+00
 -1       621 3.26151E-06 8.14209E+00-5.51833E+00
 -3
    1PSTEP                        30          15           1          
  100CL  115 1.000000000         621                     0   15           1
 -4  STRESS      6    1
 -5  SXX         1    4    1    1
 -5  SYY         1    4    2    2
 -5  SZZ         1    4    3    3
 -5  SXY         1    4    1    2
 -5  SYZ         1    4    2    3
 -5  SZX         1    4    3    1
 -1         1 3.25346E+00-2.57981E+04-3.22392E+06 7.06771E+00-1.07361E+04-7.04984E-02
 -1         2-1.71310E+00-4.40027E+04-8.21517E+04-1.50014E+00 1.77865E+04-2.31823E+00
 -1         3-2.48703E-01-4.46442E+04-7.41978E+04-2.28257E-01 3.08339E+04-3.14798E-01
 -1         4-6.94801E-02-1.12723E+05-2.74101E+06 3.32212E-01-6.02052E+05 1.31923E-01
 -1         5 3.25347E+00-2.58089E+04-3.22392E+06 1.96084E-07-1.07385E+04-1.76652E-06
 -1         6-1.71310E+00-4.40049E+04-8.21503E+04 1.39992E-07 1.77886E+04-1.18565E-07
 -1         7-2.46304E-01-4.46434E+04-7.41968E+04-9.35771E-08 3.08353E+04-1.49290E-07
 -1         8-6.36181E-02-1.12725E+05-2.74101E+06-6.76647E-07-6.02053E+05-3.43033E-06
 -1         9 7.63652E-01-3.45903E+04-1.65254E+06 3.17633E+00 5.05039E+03-1.21277E+00
 -1        10 1.08029E-01-3.94137E+04-7.57195E+04 7.91487E-02 2.35315E+04 1.27513E-01
 -1        11-1.59491E-01-7.87972E+04-1.40731E+06 1.02500E-01-2.86113E+05-1.32500E-01
 -1        12 8.19076E-02-6.17075E+04-2.99001E+06-9.95025E-02-3.06302E+05-9.98174E-02
 -1        13 3.25346E+00-2.58035E+04-3.22392E+06 6.18750E+00-1.07373E+04-3.12990E-01
 -1        14-1.71310E+00-4.40038E+04-8.21510E+04-1.89648E+00 1.77876E+04-2.12933E+00
 -1        15-2.47503E-01-4.46438E+04-7.41973E+04-1.16684E-01 3.08346E+04-9.61462E-02
 -1        16-6.65491E-02-1.12724E+05-2.74101E+06 2.00314E-01-6.02053E+05-6.73402E-02
 -1        17 7.63653E-01-3.46006E+04-1.65254E+06 1.89980E-07 5.04937E+03-9.48278E-07
 -1        18 1.09228E-01-3.94139E+04-7.57202E+04 3.77440E-08 2.35309E+04-9.88461E-08
 -1        19-1.55353E-01-7.87976E+04-1.40731E+06-3.38108E-07-2.86113E+05-1.57294E-06
 -1        20 8.48424E-02-6.17070E+04-2.99001E+06-3.20861E-07-3.06301E+05-2.56264E-06
 -1        21-3.20019E-01-1.55498E+04-6.26031E+04-3.99843E-01 1.86489E+04-4.24017E-01
 -1        22 9.38472E-02-3.78169E+05-2.14244E+06 5.99740E-01-9.06740E+05 2.71188E-02
 -1        23-3.18743E-01-1.55484E+04-6.26027E+04-2.11175E-07 1.86503E+04-5.23873E-08
 -1        24 9.19646E-02-3.78172E+05-2.14243E+06-1.19690E-06-9.06741E+05-2.80669E-06
 -1        25 1.40274E-01-2.98010E+04-6.83610E+04 1.51431E-01 2.41069E+04 1.85885E-01
 -1        26-1.13487E-01-1.96978E+05-1.10231E+06 1.65955E-01-4.44207E+05-2.67432E-01
 -1        27-9.94651E-03-2.47505E+05-2.43807E+06-2.32674E-01-7.58777E+05-3.70022E-02
 -1        28-3.19381E-01-1.55491E+04-6.26029E+04-1.91595E-01 1.86496E+04-1.68284E-01
 -1        29 9.29059E-02-3.78170E+05-2.14243E+06 3.52409E-01-9.06741E+05-1.19450E-01
 -1        30 1.42112E-01-2.98015E+04-6.83613E+04-1.56154E-07 2.41062E+04-7.86044E-08
 -1        31-1.13778E-01-1.96978E+05-1.10231E+06-6.61468E-07-4.44207E+05-1.31092E-06
 -1        32-7.95940E-03-2.47504E+05-2.43807E+06-8.95010E-07-7.58777E+05-3.15384E-06
 -1        33-4.00472E-01-3.94968E+03-5.28129E+04-6.15143E-01 1.28606E+04-5.03426E-01
 -1        34 2.54933E-01-6.21744E+05-1.57518E+06 9.07732E-01-9.95794E+05-5.46234E-02
 -1        35-4.00798E-01-3.94796E+03-5.28130E+04-2.68144E-07 1.28618E+04-7.49446E-08
 -1        36 2.50277E-01-6.21748E+05-1.57517E+06-1.39549E-06-9.95794E+05-2.63007E-06
 -1        37 1.80141E-01-1.06198E+04-5.76172E+04 2.49711E-01 1.51185E+04 2.34551E-01
 -1        38-7.32548E-02-3.12925E+05-8.13903E+05 2.26670E-01-4.91457E+05-3.86299E-01
 -1        39-8.34297E-02-5.02791E+05-1.85500E+06-3.70726E-01-9.52224E+05 8.60035E-03
 -1        40-4.00635E-01-3.94882E+03-5.28130E+04-2.78040E-01 1.28612E+04-2.17834E-01
 -1        41 2.52605E-01-6.21746E+05-1.57518E+06 5.49582E-01-9.95794E+05-1.58614E-01
 -1        42 1.80615E-01-1.06206E+04-5.76173E+04-1.20719E-07 1.51178E+04-6.54937E-08
 -1        43-7.57323E-02-3.12926E+05-8.13903E+05-6.86853E-07-4.91457E+05-1.23100E-06
 -1        44-8.66982E-02-5.02789E+05-1.85500E+06-1.57143E-06-9.52224E+05-2.67483E-06
 -1        45-4.72612E-01 5.48993E+03-4.26627E+04-8.49657E-01 6.57207E+03-5.35911E-01
 -1        46 4.76831E-01-7.96365E+05-1.10866E+06 1.31098E+00-9.42755E+05-1.27394E-01
 -1        47-4.75877E-01 5.49172E+03-4.26632E+04-1.78326E-07 6.57300E+03 6.40569E-08
 -1        48 4.68065E-01-7.96370E+05-1.10866E+06-2.05453E-06-9.42755E+05-2.19922E-06
 -1        49 2.21346E-01-4.35583E+02-4.78841E+04 3.64270E-01 9.51738E+03 2.63633E-01
 -1        50 1.57904E-03-3.95463E+05-5.75638E+05 3.26594E-01-4.68062E+05-4.91650E-01
 -1        51-1.72633E-01-7.11141E+05-1.33920E+06-5.42997E-01-9.68387E+05 4.66953E-02
 -1        52-4.74244E-01 5.49083E+03-4.26630E+04-3.55856E-01 6.57254E+03-2.33216E-01
 -1        53 4.72448E-01-7.96367E+05-1.10866E+06 8.13767E-01-9.42755E+05-2.00310E-01
 -1        54 2.19551E-01-4.36491E+02-4.78840E+04-4.56321E-08 9.51684E+03 7.08780E-08
 -1        55-4.42311E-03-3.95464E+05-5.75638E+05-1.15134E-06-4.68061E+05-1.02520E-06
 -1        56-1.79343E-01-7.11139E+05-1.33920E+06-1.71023E-06-9.68387E+05-2.51626E-06
 -1        57-5.04493E-01 1.07321E+04-3.37788E+04-1.06545E+00 2.41227E+03-5.06363E-01
 -1        58 8.25569E-01-8.86632E+05-7.55521E+05 1.87173E+00-8.20633E+05-1.94513E-01
 -1        59-5.12216E-01 1.07337E+04-3.37797E+04-7.27961E-07 2.41286E+03-2.04362E-07
 -1        60 8.11902E-01-8.86638E+05-7.55520E+05-2.91881E-06-8.20632E+05-1.39287E-06
 -1        61 2.52761E-01 6.96565E+03-3.83896E+04 4.80700E-01 4.63996E+03 2.65577E-01
 -1        62 1.60017E-01-4.37957E+05-3.94654E+05 5.15983E-01-4.09093E+05-5.81955E-01
 -1        63-3.07363E-01-8.42539E+05-9.30928E+05-7.76540E-01-8.80245E+05 8.19293E-02
 -1        64-5.08355E-01 1.07329E+04-3.37793E+04-3.95809E-01 2.41256E+03-2.05486E-01
 -1        65 8.18735E-01-8.86635E+05-7.55520E+05 1.16911E+00-8.20633E+05-2.50912E-01
 -1        66 2.47268E-01 6.96479E+03-3.83893E+04-2.71415E-07 4.63958E+03-1.67902E-07
 -1        67 1.49335E-01-4.37959E+05-3.94654E+05-1.78730E-06-4.09093E+05-6.92195E-07
 -1        68-3.18579E-01-8.42536E+05-9.30929E+05-2.18209E-06-8.80246E+05-1.95138E-06
 -1        69-4.41048E-01 1.39742E+04-2.61334E+04-1.20168E+00-4.05749E+02-3.97544E-01
 -1        70 1.38737E+00-9.06178E+05-5.03160E+05 2.67673E+00-6.76632E+05-2.50934E-01
 -1        71-4.55346E-01 1.39749E+04-2.61349E+04-3.23966E-07-4.05610E+02 3.20483E-07
 -1        72 1.36687E+00-9.06186E+05-5.03160E+05-2.93241E-06-6.76631E+05-2.16686E-06
 -1        73 2.53381E-01 1.14867E+04-3.01927E+04 5.75306E-01 1.34279E+03 2.32440E-01
 -1        74 4.72749E-01-4.46107E+05-2.64650E+05 8.68275E-01-3.38515E+05-6.51058E-01
 -1        75-5.24572E-01-8.96725E+05-6.29251E+05-1.10735E+00-7.47344E+05 1.13571E-01
 -1        76-4.48197E-01 1.39746E+04-2.61342E+04-3.57855E-01-4.05679E+02-1.25865E-01
 -1        77 1.37712E+00-9.06182E+05-5.03160E+05 1.64672E+00-6.76631E+05-3.10318E-01
 -1        78 2.42371E-01 1.14861E+04-3.01921E+04-9.60339E-07 1.34261E+03 5.96570E-08
 -1        79 4.55363E-01-4.46110E+05-2.64651E+05-2.23028E-06-3.38514E+05-7.63313E-07
 -1        80-5.41653E-01-8.96722E+05-6.29251E+05-3.22104E-06-7.47344E+05-1.48538E-06
 -1        81-1.95081E-01 1.58613E+04-1.99219E+04-1.16403E+00-2.04363E+03-1.88909E-01
 -1        82 2.28156E+00-8.74902E+05-3.29621E+05 3.84647E+00-5.37946E+05-2.86807E-01
 -1        83-2.18543E-01 1.58606E+04-1.99239E+04-2.18750E-07-2.04406E+03-4.40743E-07
 -1        84 2.25180E+00-8.74911E+05-3.29621E+05 1.22171E-07-5.37944E+05-1.14190E-06
 -1        85 1.88779E-01 1.43432E+04-2.33109E+04 6.10673E-01-8.34320E+02 1.54763E-01
 -1        86 1.04306E+00-4.29529E+05-1.74768E+05 1.49034E+00-2.69997E+05-6.89048E-01
 -1        87-8.74310E-01-8.90490E+05-4.16852E+05-1.58615E+00-6.06385E+05 1.37849E-01
 -1        88-2.06812E-01 1.58610E+04-1.99229E+04-1.88974E-01-2.04385E+03 1.53554E-02
 -1        89 2.26668E+00-8.74907E+05-3.29621E+05 2.28370E+00-5.37945E+05-3.75281E-01
 -1        90 1.69899E-01 1.43432E+04-2.33101E+04 1.96044E-07-8.34246E+02-1.17224E-07
 -1        91 1.01646E+00-4.29534E+05-1.74769E+05-1.84436E-07-2.69996E+05-1.12202E-06
 -1        92-8.99434E-01-8.90486E+05-4.16852E+05-2.09833E-06-6.06386E+05-1.56268E-06
 -1        93 3.64244E-01 1.69959E+04-1.50129E+04-8.11872E-01-2.90142E+03 1.42746E-01
 -1        94 3.67266E+00-8.11873E+05-2.13493E+05 5.54200E+00-4.16934E+05-2.88963E-01
 -1        95 3.28501E-01 1.69928E+04-1.50155E+04-1.83180E-07-2.90255E+03 1.58956E-07
 -1        96 3.63124E+00-8.11884E+05-2.13492E+05-4.75771E-06-4.16932E+05-1.45512E-07
 -1        97 5.58375E-03 1.60870E+04-1.77666E+04 5.29842E-01-2.11477E+03 2.14413E-02
 -1        98 2.01871E+00-3.97450E+05-1.14244E+05 2.53247E+00-2.09921E+05-6.83151E-01
 -1        99-1.42686E+00-8.43212E+05-2.72203E+05-2.28181E+00-4.76898E+05 1.49058E-01
 -1       100 3.46372E-01 1.69943E+04-1.50142E+04 1.77120E-01-2.90198E+03 2.28388E-01
 -1       101 3.65195E+00-8.11878E+05-2.13492E+05 3.11523E+00-4.16933E+05-4.41059E-01
 -1       102-2.40187E-02 1.60878E+04-1.77654E+04-7.08881E-07-2.11438E+03-1.13648E-07
 -1       103 1.98014E+00-3.97457E+05-1.14245E+05-1.12336E-06-2.09920E+05-2.53605E-07
 -1       104-1.46244E+00-8.43207E+05-2.72203E+05-9.91282E-07-4.76899E+05-8.83739E-07
 -1       105 1.42098E+00 1.76847E+04-1.12290E+04 4.83045E-02-3.24801E+03 6.21254E-01
 -1       106 5.77999E+00-7.31866E+05-1.37236E+05 7.95644E+00-3.17312E+05-2.40935E-01
 -1       107 1.37096E+00 1.76783E+04-1.12321E+04-7.29412E-07-3.24997E+03-3.16728E-07
 -1       108 5.72499E+00-7.31878E+05-1.37236E+05-1.29112E-06-3.17309E+05-1.31376E-06
 -1       109-3.74633E-01 1.71565E+04-1.34062E+04 2.49822E-01-2.78310E+03-1.79515E-01
 -1       110 3.60124E+00-3.57103E+05-7.42206E+04 4.18747E+00-1.60282E+05-6.18197E-01
 -1       111-2.27791E+00-7.71690E+05-1.75998E+05-3.28433E+00-3.66843E+05 1.40043E-01
 -1       112 1.39597E+00 1.76815E+04-1.12306E+04 8.14210E-01-3.24899E+03 5.22633E-01
 -1       113 5.75249E+00-7.31872E+05-1.37236E+05 4.15636E+00-3.17310E+05-5.02278E-01
 -1       114-4.17516E-01 1.71588E+04-1.34048E+04-1.94345E-09-2.78232E+03-7.38201E-07
 -1       115 3.54873E+00-3.57112E+05-7.42219E+04-1.91471E-06-1.60282E+05-3.33538E-07
 -1       116-2.32612E+00-7.71684E+05-1.75998E+05-3.24831E-06-3.66844E+05-8.67872E-07
 -1       117 3.21826E+00 1.81151E+04-8.35835E+03 1.67216E+00-3.29110E+03 1.26684E+00
 -1       118 8.87051E+00-6.45140E+05-8.78158E+04 1.13174E+01-2.38267E+05-1.21685E-01
 -1       119 3.15131E+00 1.81043E+04-8.36212E+03 2.18367E-07-3.29396E+03-1.80636E-06
 -1       120 8.80422E+00-6.45152E+05-8.78162E+04-1.42382E-06-2.38264E+05-8.71476E-07
 -1       121-1.05869E+00 1.78122E+04-1.00466E+04-3.37871E-01-3.04754E+03-4.59662E-01
 -1       122 6.04643E+00-3.13524E+05-4.80752E+04 6.69601E+00-1.20780E+05-4.75877E-01
 -1       123-3.55249E+00-6.88366E+05-1.13065E+05-4.69260E+00-2.77673E+05 1.01686E-01
 -1       124 3.18478E+00 1.81097E+04-8.36024E+03 1.78699E+00-3.29253E+03 9.02774E-01
 -1       125 8.83736E+00-6.45146E+05-8.78160E+04 5.36603E+00-2.38266E+05-5.52196E-01
 -1       126-1.11717E+00 1.78164E+04-1.00449E+04 4.60506E-07-3.04632E+03-5.27169E-07
 -1       127 5.97981E+00-3.13535E+05-4.80770E+04-2.46008E-07-1.20781E+05-1.27194E-06
 -1       128-3.61314E+00-6.88360E+05-1.13065E+05-1.85777E-06-2.77674E+05-9.79988E-07
 -1       129 6.03780E+00 1.83901E+04-6.20657E+03 4.32187E+00-3.16644E+03 2.09236E+00
 -1       130 1.32500E+01-5.58178E+05-5.60679E+04 1.57535E+01-1.77062E+05 9.62960E-02
 -1       131 5.96493E+00 1.83744E+04-6.21091E+03-1.89382E-06-3.17018E+03 9.89785E-07
 -1       132 1.31771E+01-5.58186E+05-5.60687E+04-5.52003E-06-1.77058E+05 5.51910E-07
 -1       133-2.18513E+00 1.82186E+04-7.49638E+03-1.37577E+00-3.06588E+03-8.27252E-01
 -1       134 9.64562E+00-2.69904E+05-3.11269E+04 1.02530E+01-9.01137E+04-2.35286E-01
 -1       135-5.39593E+00-6.01571E+05-7.23688E+04-6.62724E+00-2.07637E+05 2.25868E-02
 -1       136 6.00137E+00 1.83822E+04-6.20874E+03 3.11238E+00-3.16831E+03 1.36802E+00
 -1       137 1.32135E+01-5.58182E+05-5.60683E+04 6.58243E+00-1.77060E+05-5.85049E-01
 -1       138-2.25505E+00 1.82252E+04-7.49435E+03-1.33830E-06-3.06421E+03-6.45666E-08
 -1       139 9.57272E+00-2.69916E+05-3.11292E+04-2.88535E-06-9.01150E+04 7.42711E-07
 -1       140-5.46553E+00-6.01565E+05-7.23685E+04-3.00119E-06-2.07639E+05-9.34575E-07
 -1       141 1.01746E+01 1.85691E+04-4.60687E+03 8.32695E+00-2.96188E+03 3.08703E+00
 -1       142 1.91382E+01-4.74692E+05-3.57812E+04 2.14840E+01-1.30429E+05 4.52547E-01
 -1       143 1.00868E+01 1.85494E+04-4.61171E+03 4.43540E-07-2.96631E+03-2.91449E-06
 -1       144 1.90886E+01-4.74689E+05-3.57823E+04-1.06880E-06-1.30424E+05 1.16601E-07
 -1       145-3.89736E+00 1.84742E+04-5.58350E+03-2.97495E+00-2.94567E+03-1.28592E+00
 -1       146 1.46649E+01-2.28070E+05-2.01859E+04 1.51294E+01-6.66942E+04 1.35383E-01
 -1       147-7.96624E+00-5.16386E+05-4.62493E+04-9.08307E+00-1.53760E+05-1.13606E-01
 -1       148 1.01307E+01 1.85593E+04-4.60929E+03 4.69241E+00-2.96409E+03 1.89222E+00
 -1       149 1.91134E+01-4.74690E+05-3.57817E+04 7.40813E+00-1.30427E+05-5.87161E-01
 -1       150-3.97773E+00 1.84832E+04-5.58122E+03-7.94988E-07-2.94358E+03-6.67699E-07
 -1       151 1.45962E+01-2.28078E+05-2.01888E+04-7.73326E-07-6.66966E+04-1.01952E-06
 -1       152-8.02747E+00-5.16384E+05-4.62488E+04-3.29433E-06-1.53762E+05 2.05987E-07
 -1       153 1.57396E+01 1.86865E+04-3.42432E+03 1.34840E+01-2.73112E+03 4.23013E+00
 -1       154 2.66983E+01-3.96501E+05-2.28461E+04 2.74655E+01-9.52592E+04 9.87711E-01
 -1       155 1.57481E+01 1.86661E+04-3.42934E+03 1.24498E-06-2.73581E+03 2.83792E-06
 -1       156 2.66898E+01-3.96474E+05-2.28476E+04-1.72863E-06-9.52532E+04-5.98444E-06
 -1       157-6.35580E+00 1.86384E+04-4.16317E+03-5.33807E+00-2.75800E+03-1.82063E+00
 -1       158 2.12108E+01-1.88915E+05-1.31297E+04 2.07033E+01-4.89929E+04 6.57833E-01
 -1       159-1.13447E+01-4.35572E+05-2.95571E+04-1.22590E+01-1.12869E+05-3.27177E-01
 -1       160 1.57438E+01 1.86763E+04-3.42683E+03 6.17731E+00-2.73346E+03 2.46016E+00
 -1       161 2.66940E+01-3.96488E+05-2.28468E+04 7.03144E+00-9.52562E+04-5.71766E-01
 -1       162-6.39548E+00 1.86488E+04-4.16067E+03 1.02807E-06-2.75567E+03-4.42325E-07
 -1       163 2.12108E+01-1.88910E+05-1.31329E+04-8.55899E-07-4.89965E+04-9.14397E-07
 -1       164-1.13737E+01-4.35578E+05-2.95565E+04-3.73322E-06-1.12872E+05-9.01324E-07
 -1       165 2.26825E+01 1.87639E+04-2.55301E+03 2.04715E+01-2.50636E+03 5.36650E+00
 -1       166 3.51459E+01-3.24202E+05-1.45890E+04 3.52316E+01-6.88708E+04 1.81476E+00
 -1       167 2.25922E+01 1.87514E+04-2.55819E+03 4.47103E-06-2.51025E+03-2.41836E-06
 -1       168 3.53263E+01-3.24129E+05-1.45901E+04-1.02861E-05-6.88620E+04-8.98762E-07
 -1       169-9.48672E+00 1.87465E+04-3.11916E+03-8.03487E+00-2.54793E+03-2.42217E+00
 -1       170 2.89745E+01-1.52727E+05-8.56736E+03 2.80665E+01-3.56822E+04 1.43381E+00
 -1       171-1.55486E+01-3.60328E+05-1.89032E+04-1.48860E+01-8.20803E+04-6.44083E-01
 -1       172 2.26374E+01 1.87576E+04-2.55560E+03 6.79935E+00-2.50830E+03 2.88558E+00
 -1       173 3.52361E+01-3.24165E+05-1.45896E+04 3.90194E+00-6.88664E+04-4.62989E-01
 -1       174-9.52760E+00 1.87555E+04-3.11670E+03 1.20352E-06-2.54564E+03-4.73285E-07
 -1       175 2.90195E+01-1.52694E+05-8.57107E+03-4.12664E-07-3.56871E+04-1.19522E-06
 -1       176-1.54627E+01-3.60351E+05-1.89023E+04-1.00930E-06-8.20835E+04-4.36309E-06
 -1       177 2.95336E+01 1.88184E+04-1.91162E+03 2.41481E+01-2.30387E+03 6.54121E+00
 -1       178 4.42068E+01-2.57649E+05-9.28419E+03 3.24351E+01-4.90515E+04 2.76255E+00
 -1       179 3.03136E+01 1.88312E+04-1.91543E+03-2.26919E-06-2.30581E+03-2.26703E-06
 -1       180 4.46035E+01-2.57489E+05-9.28674E+03 1.15676E-05-4.90443E+04-1.07875E-07
 -1       181-1.34056E+01 1.88183E+04-2.36166E+03-1.21320E+01-2.34240E+03-2.94657E+00
 -1       182 3.66971E+01-1.19423E+05-5.59662E+03 2.84780E+01-2.56683E+04 2.30907E+00
 -1       183-2.00128E+01-2.90865E+05-1.20879E+04-1.96764E+01-5.89494E+04-1.12711E+00
 -1       184 2.99236E+01 1.88248E+04-1.91352E+03 4.93432E+00-2.30484E+03 3.38267E+00
 -1       185 4.44052E+01-2.57569E+05-9.28547E+03-4.60816E+00-4.90479E+04-5.66413E-01
 -1       186-1.30608E+01 1.88197E+04-2.35907E+03-1.33023E-07-2.34095E+03-1.02048E-06
 -1       187 3.72855E+01-1.19334E+05-5.60019E+03 4.38770E-06-2.56745E+04-9.01253E-07
 -1       188-1.97243E+01-2.90919E+05-1.20876E+04-4.55822E-07-5.89553E+04-7.77040E-07
 -1       189 3.51868E+01 1.88743E+04-1.44370E+03 3.56868E+01-2.13623E+03 6.54500E+00
 -1       190 4.67857E+01-1.96246E+05-5.84193E+03 5.06442E+01-3.40907E+04 4.95423E+00
 -1       191 3.43229E+01 1.89428E+04-1.44823E+03 2.13226E-06-2.13158E+03 6.09048E-07
 -1       192 4.76352E+01-1.95943E+05-5.83879E+03 3.26747E-06-3.40634E+04-2.50281E-06
 -1       193-1.61732E+01 1.88627E+04-1.82080E+03-1.13698E+01-2.16011E+03-3.56745E+00
 -1       194 4.16747E+01-8.87030E+04-3.63705E+03 4.33087E+01-1.80711E+04 4.09289E+00
 -1       195-2.41361E+01-2.26775E+05-7.69985E+03-1.16156E+01-4.15181E+04-1.60743E+00
 -1       196 3.47549E+01 1.89085E+04-1.44597E+03-1.97635E+00-2.13390E+03 2.37761E+00
 -1       197 4.72104E+01-1.96094E+05-5.84036E+03-2.32864E+01-3.40770E+04 1.36933E-01
 -1       198-1.62151E+01 1.88447E+04-1.81957E+03 5.67799E-07-2.15993E+03 4.65141E-07
 -1       199 4.16669E+01-8.85100E+04-3.64177E+03 5.07712E-07-1.80782E+04-1.90598E-06
 -1       200-2.35130E+01-2.26889E+05-7.69803E+03 2.71785E-06-4.15197E+04-2.22262E-06
 -1       201 3.03275E+01 1.89653E+04-1.10579E+03-3.40737E+00-1.98508E+03 7.89770E+00
 -1       202 4.86510E+01-1.39254E+05-3.52473E+03-5.57429E+01-2.24186E+04 3.37127E+00
 -1       203 3.65492E+01 1.91437E+04-1.10154E+03 4.23161E-06-1.97584E+03-2.74990E-07
 -1       204 5.20567E+01-1.38683E+05-3.53564E+03-9.67166E-06-2.24431E+04 7.60936E-06
 -1       205-1.98894E+01 1.88739E+04-1.44694E+03-2.30883E+01-2.00389E+03-2.91964E+00
 -1       206 3.70591E+01-6.01500E+04-2.31872E+03-2.97896E+01-1.21850E+04 3.83115E+00
 -1       207-2.46481E+01-1.67320E+05-4.82395E+03-3.67197E+01-2.81522E+04-3.14593E+00
 -1       208 3.34384E+01 1.90545E+04-1.10367E+03-1.93403E+01-1.98046E+03 4.26362E+00
 -1       209 5.03539E+01-1.38968E+05-3.53018E+03-5.83354E+01-2.24309E+04-2.75618E+00
 -1       210-1.72107E+01 1.88169E+04-1.44421E+03 2.56696E-06-2.00914E+03-1.43950E-06
 -1       211 4.18734E+01-5.97777E+04-2.31748E+03-2.50083E-06-1.21903E+04 4.02737E-06
 -1       212-2.25202E+01-1.67522E+05-4.82747E+03-5.87480E-07-2.81796E+04 1.33164E-06
 -1       213 1.53009E+01 1.91836E+04-9.36087E+02 9.00077E+01-1.90763E+03-2.41530E+00
 -1       214-1.79497E+00-8.55881E+04-2.02729E+03 2.05465E+02-1.35450E+04 1.92164E+01
 -1       215 4.21963E+00 1.95459E+04-9.42687E+02-2.06931E-06-1.86203E+03-1.30350E-06
 -1       216-7.92245E+00-8.46904E+04-1.99538E+03 1.06780E-05-1.33308E+04-1.65293E-06
 -1       217-8.33903E+00 1.88398E+04-1.18293E+03 2.86412E+01-1.91142E+03-4.87040E+00
 -1       218 1.58292E+01-3.32956E+04-1.42376E+03 1.48398E+02-7.41757E+03 1.21881E+01
 -1       219-1.85956E+01-1.11447E+05-2.89445E+03 9.50938E+01-1.78615E+04-3.59455E-01
 -1       220 9.76025E+00 1.93648E+04-9.39387E+02-5.19425E+01-1.88483E+03-9.25930E+00
 -1       221-4.85871E+00-8.51393E+04-2.01133E+03-1.25004E+02-1.34379E+04 6.83096E+00
 -1       222-1.07683E+01 1.87083E+04-1.18819E+03-7.80991E-08-1.91648E+03 5.79820E-07
 -1       223 7.22338E+00-3.26259E+04-1.44509E+03 1.79873E-06-7.42119E+03-6.77714E-07
 -1       224-1.99571E+01-1.11833E+05-2.88598E+03 1.79216E-06-1.78081E+04 2.85759E-06
 -1       225-4.72687E+01 1.95847E+04-8.21987E+02-4.20858E+02-1.62633E+03 1.76343E+01
 -1       226 2.39945E+00-3.51230E+04-6.83163E+02-1.08336E+03-4.08482E+03-4.26416E+01
 -1       227-6.40688E+00 2.02781E+04-7.95494E+02-4.48660E-06-1.62277E+03 8.91605E-07
 -1       228 5.82463E+01-3.33659E+04-7.45386E+02 4.18786E-06-4.68753E+03-1.82432E-06
 -1       229-1.56714E+01 1.86889E+04-1.01148E+03-1.15197E+02-1.78775E+03 7.68261E+00
 -1       230-5.59369E+01-7.64245E+03-8.51281E+02-7.57435E+02-3.26515E+03-1.30712E+01
 -1       231-1.20201E+00-5.83173E+04-1.44601E+03-2.92104E+02-8.75873E+03-1.75172E+01
 -1       232-2.68378E+01 1.99314E+04-8.08740E+02-1.19711E+02-1.62455E+03 2.60259E+01
 -1       233 3.03229E+01-3.42445E+04-7.14275E+02-2.23737E+02-4.38617E+03-3.66451E+01
 -1       234-7.83383E-01 1.84428E+04-1.00613E+03-2.32430E-06-1.82827E+03-1.86164E-06
 -1       235-7.58172E+00-6.51408E+03-7.72266E+02 1.18141E-06-3.24598E+03-1.64201E-06
 -1       236 2.36585E+01-5.88564E+04-1.46541E+03 9.97423E-06-9.03872E+03-2.29511E-06
 -1       237-2.39110E+02 1.52834E+04-1.69663E+03 1.25452E+03-2.20100E+03-1.74486E+02
 -1       238-6.40355E+02 3.08254E+04-4.33630E+02 3.52000E+03-1.75768E+03 8.75214E+01
 -1       239-3.09968E+02 1.10573E+04-1.63562E+03 1.20095E-06-2.31056E+03 2.70483E-06
 -1       240-8.71912E+02 1.83335E+04-3.79419E+02-1.60292E-06 2.15179E+02-6.29982E-06
 -1       241 9.52111E+01 1.84435E+04-7.64661E+02 5.41992E+02-2.04855E+03-2.61324E+01
 -1       242-3.14063E+02 2.28405E+04-7.17372E+02 2.42345E+03-1.18290E+03-1.19764E+01
 -1       243 7.75007E+01-5.76292E+03-3.48006E+02 1.37212E+03-3.45891E+03 5.75096E+01
 -1       244-2.74539E+02 1.31704E+04-1.66613E+03 6.02039E+02-2.25578E+03-1.46445E+02
 -1       245-7.56134E+02 2.45794E+04-4.06524E+02 1.31783E+03-7.71252E+02 1.44247E+02
 -1       246 8.02146E+01 1.79762E+04-7.71094E+02 6.32001E-07-2.01725E+03 1.64290E-06
 -1       247-4.65270E+02 1.47312E+04-9.89214E+02-1.37890E-06-1.14218E+03-3.37747E-07
 -1       248-1.03543E+01-7.01972E+03-3.46309E+02-2.10948E-06-2.54304E+03-1.08795E-06
 -1       249 3.25346E+00-2.57981E+04-3.22392E+06-7.06771E+00-1.07361E+04 7.04949E-02
 -1       250-1.71310E+00-4.40027E+04-8.21517E+04 1.50014E+00 1.77865E+04 2.31822E+00
 -1       251-2.48703E-01-4.46442E+04-7.41978E+04 2.28257E-01 3.08339E+04 3.14798E-01
 -1       252-6.94801E-02-1.12723E+05-2.74101E+06-3.32212E-01-6.02052E+05-1.31924E-01
 -1       253 3.25346E+00-2.58035E+04-3.22392E+06-6.18750E+00-1.07373E+04 3.12986E-01
 -1       254-1.71310E+00-4.40038E+04-8.21510E+04 1.89648E+00 1.77876E+04 2.12933E+00
 -1       255-2.47503E-01-4.46438E+04-7.41973E+04 1.16684E-01 3.08346E+04 9.61460E-02
 -1       256-6.65491E-02-1.12724E+05-2.74101E+06-2.00315E-01-6.02053E+05 6.73361E-02
 -1       257 7.63652E-01-3.45903E+04-1.65254E+06-3.17633E+00 5.05039E+03 1.21276E+00
 -1       258 1.08029E-01-3.94137E+04-7.57195E+04-7.91487E-02 2.35315E+04-1.27514E-01
 -1       259-1.59491E-01-7.87972E+04-1.40731E+06-1.02500E-01-2.86113E+05 1.32500E-01
 -1       260 8.19075E-02-6.17075E+04-2.99001E+06 9.95024E-02-3.06302E+05 9.98151E-02
 -1       261-3.20019E-01-1.55498E+04-6.26031E+04 3.99843E-01 1.86489E+04 4.24017E-01
 -1       262 9.38472E-02-3.78169E+05-2.14244E+06-5.99741E-01-9.06740E+05-2.71213E-02
 -1       263-3.19381E-01-1.55491E+04-6.26029E+04 1.91594E-01 1.86496E+04 1.68283E-01
 -1       264 9.29059E-02-3.78170E+05-2.14243E+06-3.52411E-01-9.06741E+05 1.19446E-01
 -1       265 1.40274E-01-2.98010E+04-6.83610E+04-1.51431E-01 2.41069E+04-1.85885E-01
 -1       266-1.13487E-01-1.96978E+05-1.10231E+06-1.65955E-01-4.44207E+05 2.67431E-01
 -1       267-9.94646E-03-2.47505E+05-2.43807E+06 2.32673E-01-7.58777E+05 3.70003E-02
 -1       268-4.00471E-01-3.94968E+03-5.28129E+04 6.15142E-01 1.28606E+04 5.03426E-01
 -1       269 2.54933E-01-6.21744E+05-1.57518E+06-9.07732E-01-9.95794E+05 5.46207E-02
 -1       270-4.00635E-01-3.94882E+03-5.28130E+04 2.78039E-01 1.28612E+04 2.17834E-01
 -1       271 2.52605E-01-6.21746E+05-1.57518E+06-5.49584E-01-9.95794E+05 1.58610E-01
 -1       272 1.80141E-01-1.06198E+04-5.76172E+04-2.49711E-01 1.51185E+04-2.34551E-01
 -1       273-7.32548E-02-3.12925E+05-8.13903E+05-2.26670E-01-4.91457E+05 3.86298E-01
 -1       274-8.34298E-02-5.02791E+05-1.85500E+06 3.70726E-01-9.52224E+05-8.60289E-03
 -1       275-4.72612E-01 5.48993E+03-4.26627E+04 8.49657E-01 6.57207E+03 5.35911E-01
 -1       276 4.76831E-01-7.96365E+05-1.10866E+06-1.31098E+00-9.42755E+05 1.27393E-01
 -1       277-4.74244E-01 5.49083E+03-4.26630E+04 3.55856E-01 6.57254E+03 2.33216E-01
 -1       278 4.72448E-01-7.96367E+05-1.10866E+06-8.13771E-01-9.42755E+05 2.00307E-01
 -1       279 2.21346E-01-4.35583E+02-4.78841E+04-3.64270E-01 9.51738E+03-2.63633E-01
 -1       280 1.57906E-03-3.95463E+05-5.75638E+05-3.26595E-01-4.68062E+05 4.91650E-01
 -1       281-1.72633E-01-7.11141E+05-1.33920E+06 5.42995E-01-9.68387E+05-4.66973E-02
 -1       282-5.04494E-01 1.07321E+04-3.37788E+04 1.06545E+00 2.41227E+03 5.06363E-01
 -1       283 8.25569E-01-8.86632E+05-7.55521E+05-1.87173E+00-8.20633E+05 1.94511E-01
 -1       284-5.08355E-01 1.07329E+04-3.37793E+04 3.95809E-01 2.41256E+03 2.05486E-01
 -1       285 8.18736E-01-8.86635E+05-7.55520E+05-1.16912E+00-8.20633E+05 2.50910E-01
 -1       286 2.52762E-01 6.96565E+03-3.83896E+04-4.80699E-01 4.63996E+03-2.65577E-01
 -1       287 1.60017E-01-4.37957E+05-3.94654E+05-5.15983E-01-4.09093E+05 5.81954E-01
 -1       288-3.07363E-01-8.42539E+05-9.30928E+05 7.76538E-01-8.80245E+05-8.19317E-02
 -1       289-4.41048E-01 1.39742E+04-2.61334E+04 1.20168E+00-4.05749E+02 3.97542E-01
 -1       290 1.38737E+00-9.06178E+05-5.03160E+05-2.67673E+00-6.76632E+05 2.50934E-01
 -1       291-4.48197E-01 1.39746E+04-2.61342E+04 3.57855E-01-4.05679E+02 1.25865E-01
 -1       292 1.37712E+00-9.06182E+05-5.03160E+05-1.64672E+00-6.76631E+05 3.10315E-01
 -1       293 2.53381E-01 1.14867E+04-3.01927E+04-5.75305E-01 1.34279E+03-2.32441E-01
 -1       294 4.72749E-01-4.46107E+05-2.64650E+05-8.68275E-01-3.38515E+05 6.51057E-01
 -1       295-5.24572E-01-8.96725E+05-6.29251E+05 1.10735E+00-7.47344E+05-1.13572E-01
 -1       296-1.95081E-01 1.58613E+04-1.99219E+04 1.16403E+00-2.04363E+03 1.88910E-01
 -1       297 2.28155E+00-8.74902E+05-3.29621E+05-3.84647E+00-5.37946E+05 2.86808E-01
 -1       298-2.06812E-01 1.58610E+04-1.99229E+04 1.88974E-01-2.04385E+03-1.53556E-02
 -1       299 2.26668E+00-8.74907E+05-3.29621E+05-2.28370E+00-5.37945E+05 3.75280E-01
 -1       300 1.88779E-01 1.43432E+04-2.33109E+04-6.10672E-01-8.34320E+02-1.54763E-01
 -1       301 1.04306E+00-4.29529E+05-1.74768E+05-1.49035E+00-2.69997E+05 6.89048E-01
 -1       302-8.74311E-01-8.90490E+05-4.16852E+05 1.58615E+00-6.06385E+05-1.37849E-01
 -1       303 3.64244E-01 1.69959E+04-1.50129E+04 8.11875E-01-2.90142E+03-1.42745E-01
 -1       304 3.67266E+00-8.11873E+05-2.13493E+05-5.54200E+00-4.16934E+05 2.88960E-01
 -1       305 3.46372E-01 1.69943E+04-1.50142E+04-1.77118E-01-2.90198E+03-2.28388E-01
 -1       306 3.65195E+00-8.11878E+05-2.13492E+05-3.11524E+00-4.16933E+05 4.41058E-01
 -1       307 5.58356E-03 1.60870E+04-1.77666E+04-5.29839E-01-2.11477E+03-2.14407E-02
 -1       308 2.01871E+00-3.97450E+05-1.14244E+05-2.53247E+00-2.09921E+05 6.83150E-01
 -1       309-1.42686E+00-8.43212E+05-2.72203E+05 2.28181E+00-4.76898E+05-1.49059E-01
 -1       310 1.42098E+00 1.76847E+04-1.12290E+04-4.83116E-02-3.24801E+03-6.21253E-01
 -1       311 5.77999E+00-7.31866E+05-1.37236E+05-7.95644E+00-3.17312E+05 2.40936E-01
 -1       312 1.39597E+00 1.76815E+04-1.12306E+04-8.14214E-01-3.24899E+03-5.22633E-01
 -1       313 5.75249E+00-7.31872E+05-1.37236E+05-4.15637E+00-3.17310E+05 5.02278E-01
 -1       314-3.74633E-01 1.71565E+04-1.34062E+04-2.49825E-01-2.78310E+03 1.79517E-01
 -1       315 3.60124E+00-3.57103E+05-7.42206E+04-4.18748E+00-1.60282E+05 6.18198E-01
 -1       316-2.27791E+00-7.71690E+05-1.75998E+05 3.28433E+00-3.66843E+05-1.40044E-01
 -1       317 3.21826E+00 1.81151E+04-8.35835E+03-1.67216E+00-3.29110E+03-1.26684E+00
 -1       318 8.87051E+00-6.45140E+05-8.78158E+04-1.13174E+01-2.38267E+05 1.21686E-01
 -1       319 3.18478E+00 1.81097E+04-8.36024E+03-1.78699E+00-3.29253E+03-9.02777E-01
 -1       320 8.83736E+00-6.45146E+05-8.78160E+04-5.36603E+00-2.38266E+05 5.52196E-01
 -1       321-1.05869E+00 1.78122E+04-1.00466E+04 3.37869E-01-3.04754E+03 4.59661E-01
 -1       322 6.04643E+00-3.13524E+05-4.80752E+04-6.69601E+00-1.20780E+05 4.75879E-01
 -1       323-3.55249E+00-6.88366E+05-1.13065E+05 4.69260E+00-2.77673E+05-1.01683E-01
 -1       324 6.03780E+00 1.83901E+04-6.20657E+03-4.32187E+00-3.16644E+03-2.09236E+00
 -1       325 1.32500E+01-5.58178E+05-5.60679E+04-1.57535E+01-1.77062E+05-9.62989E-02
 -1       326 6.00137E+00 1.83822E+04-6.20874E+03-3.11238E+00-3.16831E+03-1.36802E+00
 -1       327 1.32135E+01-5.58182E+05-5.60683E+04-6.58243E+00-1.77060E+05 5.85048E-01
 -1       328-2.18513E+00 1.82186E+04-7.49638E+03 1.37577E+00-3.06588E+03 8.27253E-01
 -1       329 9.64562E+00-2.69904E+05-3.11269E+04-1.02530E+01-9.01137E+04 2.35284E-01
 -1       330-5.39593E+00-6.01571E+05-7.23688E+04 6.62724E+00-2.07637E+05-2.25891E-02
 -1       331 1.01746E+01 1.85691E+04-4.60687E+03-8.32695E+00-2.96188E+03-3.08703E+00
 -1       332 1.91382E+01-4.74692E+05-3.57812E+04-2.14840E+01-1.30429E+05-4.52548E-01
 -1       333 1.01307E+01 1.85593E+04-4.60929E+03-4.69241E+00-2.96409E+03-1.89222E+00
 -1       334 1.91134E+01-4.74690E+05-3.57817E+04-7.40813E+00-1.30427E+05 5.87161E-01
 -1       335-3.89736E+00 1.84742E+04-5.58350E+03 2.97495E+00-2.94567E+03 1.28592E+00
 -1       336 1.46649E+01-2.28070E+05-2.01859E+04-1.51294E+01-6.66942E+04-1.35380E-01
 -1       337-7.96624E+00-5.16386E+05-4.62493E+04 9.08306E+00-1.53760E+05 1.13606E-01
 -1       338 1.57396E+01 1.86865E+04-3.42432E+03-1.34840E+01-2.73112E+03-4.23014E+00
 -1       339 2.66983E+01-3.96501E+05-2.28461E+04-2.74655E+01-9.52592E+04-9.87706E-01
 -1       340 1.57438E+01 1.86763E+04-3.42683E+03-6.17731E+00-2.73346E+03-2.46016E+00
 -1       341 2.66940E+01-3.96488E+05-2.28468E+04-7.03144E+00-9.52562E+04 5.71762E-01
 -1       342-6.35580E+00 1.86384E+04-4.16317E+03 5.33807E+00-2.75800E+03 1.82063E+00
 -1       343 2.12108E+01-1.88915E+05-1.31297E+04-2.07033E+01-4.89929E+04-6.57831E-01
 -1       344-1.13447E+01-4.35572E+05-2.95571E+04 1.22590E+01-1.12869E+05 3.27183E-01
 -1       345 2.26825E+01 1.87639E+04-2.55301E+03-2.04715E+01-2.50636E+03-5.36650E+00
 -1       346 3.51459E+01-3.24202E+05-1.45890E+04-3.52316E+01-6.88708E+04-1.81476E+00
 -1       347 2.26374E+01 1.87576E+04-2.55560E+03-6.79934E+00-2.50830E+03-2.88558E+00
 -1       348 3.52361E+01-3.24165E+05-1.45896E+04-3.90195E+00-6.88664E+04 4.62988E-01
 -1       349-9.48672E+00 1.87465E+04-3.11916E+03 8.03487E+00-2.54793E+03 2.42217E+00
 -1       350 2.89745E+01-1.52727E+05-8.56736E+03-2.80665E+01-3.56822E+04-1.43381E+00
 -1       351-1.55486E+01-3.60328E+05-1.89032E+04 1.48860E+01-8.20803E+04 6.44082E-01
 -1       352 2.95336E+01 1.88184E+04-1.91162E+03-2.41481E+01-2.30387E+03-6.54121E+00
 -1       353 4.42068E+01-2.57649E+05-9.28419E+03-3.24351E+01-4.90515E+04-2.76255E+00
 -1       354 2.99236E+01 1.88248E+04-1.91352E+03-4.93432E+00-2.30484E+03-3.38267E+00
 -1       355 4.44052E+01-2.57569E+05-9.28547E+03 4.60817E+00-4.90479E+04 5.66412E-01
 -1       356-1.34056E+01 1.88183E+04-2.36166E+03 1.21320E+01-2.34240E+03 2.94658E+00
 -1       357 3.66971E+01-1.19423E+05-5.59662E+03-2.84780E+01-2.56683E+04-2.30907E+00
 -1       358-2.00128E+01-2.90865E+05-1.20879E+04 1.96764E+01-5.89494E+04 1.12711E+00
 -1       359 3.51868E+01 1.88743E+04-1.44370E+03-3.56868E+01-2.13623E+03-6.54501E+00
 -1       360 4.67857E+01-1.96246E+05-5.84193E+03-5.06442E+01-3.40907E+04-4.95423E+00
 -1       361 3.47549E+01 1.89085E+04-1.44597E+03 1.97635E+00-2.13390E+03-2.37761E+00
 -1       362 4.72104E+01-1.96094E+05-5.84036E+03 2.32864E+01-3.40770E+04-1.36936E-01
 -1       363-1.61732E+01 1.88627E+04-1.82080E+03 1.13698E+01-2.16011E+03 3.56745E+00
 -1       364 4.16747E+01-8.87030E+04-3.63705E+03-4.33087E+01-1.80711E+04-4.09289E+00
 -1       365-2.41361E+01-2.26775E+05-7.69985E+03 1.16156E+01-4.15181E+04 1.60742E+00
 -1       366 3.03275E+01 1.89653E+04-1.10579E+03 3.40737E+00-1.98508E+03-7.89770E+00
 -1       367 4.86510E+01-1.39254E+05-3.52473E+03 5.57429E+01-2.24186E+04-3.37128E+00
 -1       368 3.34384E+01 1.90545E+04-1.10367E+03 1.93403E+01-1.98046E+03-4.26362E+00
 -1       369 5.03539E+01-1.38968E+05-3.53018E+03 5.83353E+01-2.24309E+04 2.75619E+00
 -1       370-1.98894E+01 1.88739E+04-1.44694E+03 2.30882E+01-2.00389E+03 2.91964E+00
 -1       371 3.70591E+01-6.01500E+04-2.31872E+03 2.97896E+01-1.21850E+04-3.83115E+00
 -1       372-2.46481E+01-1.67320E+05-4.82395E+03 3.67197E+01-2.81522E+04 3.14592E+00
 -1       373 1.53009E+01 1.91836E+04-9.36087E+02-9.00077E+01-1.90763E+03 2.41529E+00
 -1       374-1.79497E+00-8.55881E+04-2.02729E+03-2.05465E+02-1.35450E+04-1.92164E+01
 -1       375 9.76025E+00 1.93648E+04-9.39387E+02 5.19425E+01-1.88483E+03 9.25930E+00
 -1       376-4.85871E+00-8.51393E+04-2.01133E+03 1.25004E+02-1.34379E+04-6.83096E+00
 -1       377-8.33903E+00 1.88398E+04-1.18293E+03-2.86412E+01-1.91142E+03 4.87040E+00
 -1       378 1.58292E+01-3.32956E+04-1.42376E+03-1.48398E+02-7.41757E+03-1.21881E+01
 -1       379-1.85956E+01-1.11447E+05-2.89445E+03-9.50938E+01-1.78615E+04 3.59451E-01
 -1       380-4.72687E+01 1.95847E+04-8.21987E+02 4.20858E+02-1.62633E+03-1.76343E+01
 -1       381 2.39945E+00-3.51230E+04-6.83163E+02 1.08336E+03-4.08482E+03 4.26416E+01
 -1       382-2.68378E+01 1.99314E+04-8.08740E+02 1.19711E+02-1.62455E+03-2.60259E+01
 -1       383 3.03229E+01-3.42445E+04-7.14275E+02 2.23737E+02-4.38617E+03 3.66451E+01
 -1       384-1.56714E+01 1.86889E+04-1.01148E+03 1.15197E+02-1.78775E+03-7.68261E+00
 -1       385-5.59369E+01-7.64245E+03-8.51281E+02 7.57435E+02-3.26515E+03 1.30712E+01
 -1       386-1.20201E+00-5.83173E+04-1.44601E+03 2.92104E+02-8.75873E+03 1.75172E+01
 -1       387-2.39110E+02 1.52834E+04-1.69663E+03-1.25452E+03-2.20100E+03 1.74486E+02
 -1       388-6.40355E+02 3.08254E+04-4.33630E+02-3.52000E+03-1.75768E+03-8.75214E+01
 -1       389-2.74539E+02 1.31704E+04-1.66613E+03-6.02039E+02-2.25578E+03 1.46445E+02
 -1       390-7.56134E+02 2.45794E+04-4.06524E+02-1.31783E+03-7.71252E+02-1.44247E+02
 -1       391 9.52111E+01 1.84435E+04-7.64661E+02-5.41992E+02-2.04855E+03 2.61324E+01
 -1       392-3.14063E+02 2.28405E+04-7.17372E+02-2.42345E+03-1.18290E+03 1.19764E+01
 -1       393 7.75007E+01-5.76292E+03-3.48006E+02-1.37212E+03-3.45891E+03-5.75096E+01
 -1       394-1.69260E+00-6.35923E+04 3.38847E+06 1.57615E+00 5.29039E+04 2.32228E+00
 -1       395 2.35814E-01 1.21495E+05 2.86846E+06-1.78393E-01 6.36708E+05 8.62727E-02
 -1       396-1.69259E+00-6.35873E+04 3.38847E+06-2.40720E-08 5.29061E+04 1.97976E-06
 -1       397 2.29504E-01 1.21495E+05 2.86845E+06 5.98301E-07 6.36706E+05 3.57445E-06
 -1       398-1.69631E+00-5.41077E+04 1.65267E+06-3.54536E-01 3.38200E+04 2.04340E-02
 -1       399-1.16184E-01 3.08329E+04 3.13228E+06 8.85182E-02 3.42164E+05 3.91759E-02
 -1       400-6.04517E-03 3.85390E+04 1.39684E+06-2.53847E-01 3.34275E+05-7.32001E-02
 -1       401-1.69260E+00-6.35898E+04 3.38847E+06 1.58823E+00 5.29050E+04 2.51048E+00
 -1       402 2.32659E-01 1.21495E+05 2.86846E+06-4.54265E-02 6.36707E+05 1.83266E-01
 -1       403-1.69631E+00-5.41025E+04 1.65267E+06 3.60179E-08 3.38231E+04 9.36331E-07
 -1       404-1.19337E-01 3.08330E+04 3.13229E+06 2.91479E-07 3.42164E+05 2.71059E-06
 -1       405-8.00731E-03 3.85391E+04 1.39684E+06 2.05358E-07 3.34275E+05 1.49571E-06
 -1       406 2.77207E-01 3.89063E+05 2.22793E+06-1.02816E-01 9.61056E+05 4.61646E-01
 -1       407 2.69706E-01 3.89062E+05 2.22793E+06 1.36415E-06 9.61054E+05 2.91778E-06
 -1       408-1.19489E-01 2.57238E+05 2.54683E+06 8.00838E-02 8.00554E+05-1.31735E-01
 -1       409-2.10042E-02 1.86875E+05 1.08245E+06-3.17335E-01 4.90014E+05 8.77977E-02
 -1       410 2.73457E-01 3.89063E+05 2.22793E+06 3.93571E-02 9.61055E+05 4.32642E-01
 -1       411-1.26395E-01 2.57238E+05 2.54684E+06 1.15079E-06 8.00555E+05 3.24181E-06
 -1       412-2.41302E-02 1.86875E+05 1.08245E+06 5.33914E-07 4.90013E+05 1.31408E-06
 -1       413 4.00768E-01 6.52057E+05 1.63181E+06 1.03320E-01 1.04536E+06 9.09906E-01
 -1       414 3.90328E-01 6.52056E+05 1.63180E+06 1.72450E-06 1.04535E+06 2.80176E-06
 -1       415-1.57632E-01 5.21821E+05 1.92865E+06 1.11538E-02 1.00347E+06-3.35971E-01
 -1       416 6.33857E-04 3.24132E+05 7.89406E+05-3.36286E-01 5.29099E+05 3.10513E-01
 -1       417 3.95548E-01 6.52056E+05 1.63180E+06 2.00498E-01 1.04535E+06 7.41920E-01
 -1       418-1.66602E-01 5.21822E+05 1.92866E+06 1.33269E-06 1.00347E+06 2.84280E-06
 -1       419-4.76276E-03 3.24132E+05 7.89403E+05 5.83217E-07 5.29098E+05 1.24190E-06
 -1       420 6.41979E-01 8.34293E+05 1.14428E+06 4.74380E-01 9.86174E+05 1.45395E+00
 -1       421 6.27949E-01 8.34290E+05 1.14427E+06 3.39861E-06 9.86170E+05 1.80692E-06
 -1       422-2.43582E-01 7.43209E+05 1.38757E+06-1.28602E-01 1.01545E+06-5.80764E-01
 -1       423 8.52141E-02 4.19917E+05 5.50786E+05-2.83572E-01 4.96343E+05 6.19018E-01
 -1       424 6.34964E-01 8.34292E+05 1.14428E+06 4.58040E-01 9.86172E+05 1.12060E+00
 -1       425-2.55816E-01 7.43210E+05 1.38757E+06 2.34768E-06 1.01545E+06 2.27181E-06
 -1       426 7.65533E-02 4.19916E+05 5.50783E+05 1.64505E-06 4.96342E+05 8.93099E-07
 -1       427 1.05643E+00 9.28965E+05 7.77969E+05 1.07486E+00 8.55927E+05 2.12728E+00
 -1       428 1.03722E+00 9.28960E+05 7.77964E+05 9.49986E-07 8.55922E+05 2.09786E-06
 -1       429-3.99909E-01 8.80952E+05 9.60992E+05-3.63713E-01 9.20767E+05-8.81214E-01
 -1       430 2.76491E-01 4.69855E+05 3.72100E+05-1.08139E-01 4.29153E+05 1.04198E+00
 -1       431 1.04683E+00 9.28962E+05 7.77967E+05 8.40313E-01 8.55924E+05 1.58561E+00
 -1       432-4.16532E-01 8.80954E+05 9.60995E+05 2.24360E-06 9.20769E+05 2.17241E-06
 -1       433 2.63009E-01 4.69854E+05 3.72096E+05 7.49281E-08 4.29150E+05 8.40332E-07
 -1       434 1.72614E+00 9.49625E+05 5.17236E+05 2.00217E+00 7.04842E+05 2.96689E+00
 -1       435 1.69991E+00 9.49619E+05 5.17230E+05 1.58828E-06 7.04835E+05 1.98162E-06
 -1       436-6.59931E-01 9.38354E+05 6.47614E+05-7.34005E-01 7.80301E+05-1.25515E+00
 -1       437 6.42956E-01 4.81805E+05 2.45555E+05 2.69488E-01 3.52214E+05 1.61149E+00
 -1       438 1.71303E+00 9.49622E+05 5.17233E+05 1.38394E+00 7.04838E+05 2.15658E+00
 -1       439-6.82652E-01 9.38356E+05 6.47617E+05 1.00193E-06 7.80304E+05 1.31278E-06
 -1       440 6.22683E-01 4.81802E+05 2.45551E+05 1.23425E-06 3.52211E+05 9.91175E-07
 -1       441 2.76893E+00 9.18007E+05 3.38565E+05 3.38885E+00 5.60285E+05 4.00974E+00
 -1       442 2.73368E+00 9.17999E+05 3.38559E+05 1.29491E-06 5.60277E+05-5.60238E-08
 -1       443-1.07287E+00 9.32904E+05 4.27915E+05-1.29638E+00 6.32650E+05-1.72132E+00
 -1       444 1.28710E+00 4.66943E+05 1.59318E+05 9.63281E-01 2.79123E+05 2.36161E+00
 -1       445 2.75130E+00 9.18003E+05 3.38562E+05 2.12890E+00 5.60281E+05 2.85218E+00
 -1       446-1.10361E+00 9.32907E+05 4.27918E+05 2.20103E-06 6.32654E+05 1.36076E-06
 -1       447 1.25774E+00 4.66938E+05 1.59314E+05 6.74228E-07 2.79118E+05 8.23174E-08
 -1       448 4.34620E+00 8.53941E+05 2.19269E+05 5.40376E+00 4.34702E+05 5.28907E+00
 -1       449 4.30064E+00 8.53931E+05 2.19262E+05 5.81290E-06 4.34692E+05 7.49254E-07
 -1       450-1.70814E+00 8.85215E+05 2.78890E+05-2.12502E+00 4.97670E+05-2.29751E+00
 -1       451 2.35496E+00 4.35480E+05 1.02119E+05 2.12854E+00 2.15904E+05 3.32595E+00
 -1       452 4.32342E+00 8.53936E+05 2.19265E+05 3.10744E+00 4.34697E+05 3.68626E+00
 -1       453-1.74854E+00 8.85219E+05 2.78894E+05 3.13685E-06 4.97675E+05-4.05493E-08
 -1       454 2.31430E+00 4.35473E+05 1.02114E+05 1.46777E-06 2.15898E+05 7.14432E-07
 -1       455 6.66611E+00 7.72722E+05 1.41057E+05 8.23764E+00 3.31576E+05 6.82708E+00
 -1       456 6.60988E+00 7.72709E+05 1.41049E+05 2.44432E-06 3.31563E+05 2.43694E-06
 -1       457-2.65895E+00 8.12749E+05 1.80095E+05-3.31179E+00 3.83338E+05-2.99854E+00
 -1       458 4.04279E+00 3.95216E+05 6.49022E+04 3.95787E+00 1.64166E+05 4.53252E+00
 -1       459 6.63799E+00 7.72716E+05 1.41053E+05 4.32237E+00 3.31570E+05 4.66183E+00
 -1       460-2.70984E+00 8.12755E+05 1.80099E+05 2.71219E-06 3.83344E+05 1.47409E-06
 -1       461 3.98966E+00 3.95206E+05 6.48962E+04 1.76189E-06 1.64159E+05 5.78399E-07
 -1       462 9.97412E+00 6.84843E+05 9.04152E+04 1.20959E+01 2.49868E+05 8.62787E+00
 -1       463 9.91374E+00 6.84830E+05 9.04064E+04 1.72975E-06 2.49853E+05 1.85124E-06
 -1       464-4.04157E+00 7.28357E+05 1.15642E+05-4.95023E+00 2.90904E+05-3.83082E+00
 -1       465 6.59414E+00 3.51491E+05 4.10166E+04 6.68284E+00 1.23289E+05 5.99582E+00
 -1       466 9.94393E+00 6.84836E+05 9.04108E+04 5.70540E+00 2.49860E+05 5.76387E+00
 -1       467-4.09988E+00 7.28364E+05 1.15647E+05 3.19075E-06 2.90911E+05 1.99500E-06
 -1       468 6.53048E+00 3.51478E+05 4.10100E+04 6.17338E-07 1.23281E+05-4.45338E-08
 -1       469 1.45189E+01 5.96889E+05 5.78959E+04 1.70536E+01 1.86632E+05 1.06480E+01
 -1       470 1.44589E+01 5.96879E+05 5.78866E+04 2.24014E-06 1.86616E+05 1.37212E-07
 -1       471-5.98801E+00 6.40564E+05 7.40501E+04-7.14352E+00 2.18398E+05-4.79065E+00
 -1       472 1.02766E+01 3.07650E+05 2.58343E+04 1.04724E+01 9.17327E+04 7.69978E+00
 -1       473 1.44889E+01 5.96884E+05 5.78912E+04 7.04696E+00 1.86624E+05 6.94091E+00
 -1       474-6.04821E+00 6.40570E+05 7.40547E+04-5.84884E-07 2.18406E+05 1.44365E-06
 -1       475 1.02102E+01 3.07636E+05 2.58272E+04-6.48415E-07 9.17242E+04 5.91636E-07
 -1       476 2.04579E+01 5.12591E+05 3.71174E+04 2.32196E+01 1.38446E+05 1.28115E+01
 -1       477 2.04532E+01 5.12592E+05 3.71079E+04-7.53009E-06 1.38430E+05 1.36540E-06
 -1       478-8.61353E+00 5.54531E+05 4.73971E+04-9.84686E+00 1.62647E+05-5.83579E+00
 -1       479 1.53078E+01 2.65589E+05 1.62472E+04 1.55493E+01 6.77408E+04 9.58369E+00
 -1       480 2.04555E+01 5.12592E+05 3.71127E+04 7.86745E+00 1.38438E+05 8.10255E+00
 -1       481-8.64588E+00 5.54534E+05 4.74018E+04-2.01054E-06 1.62655E+05 1.73659E-06
 -1       482 1.52615E+01 2.65579E+05 1.62399E+04-3.08258E-06 6.77331E+04-1.15396E-06
 -1       483 2.77095E+01 4.33751E+05 2.38702E+04 2.93709E+01 1.02079E+05 1.48199E+01
 -1       484 2.77196E+01 4.33776E+05 2.38608E+04 4.53253E-06 1.02065E+05 7.59551E-08
 -1       485-1.19753E+01 4.73036E+05 3.03801E+04-1.31928E+01 1.20330E+05-6.93004E+00
 -1       486 2.17326E+01 2.26227E+05 1.02174E+04 2.11989E+01 4.96718E+04 1.14761E+01
 -1       487 2.77146E+01 4.33764E+05 2.38655E+04 7.23586E+00 1.02072E+05 9.02687E+00
 -1       488-1.19726E+01 4.73030E+05 3.03848E+04 2.21884E-06 1.20338E+05-1.41619E-06
 -1       489 2.17420E+01 2.26228E+05 1.02102E+04 3.50283E-06 4.96667E+04 7.98081E-07
 -1       490 3.54954E+01 3.60923E+05 1.54211E+04 3.66936E+01 7.47656E+04 1.65903E+01
 -1       491 3.59412E+01 3.60998E+05 1.54130E+04 4.41740E-06 7.47564E+04-2.04841E-07
 -1       492-1.58827E+01 3.97273E+05 1.95208E+04-1.57745E+01 8.84508E+04-7.80242E+00
 -1       493 2.90286E+01 1.89851E+05 6.43041E+03 2.83677E+01 3.61232E+04 1.31352E+01
 -1       494 3.57183E+01 3.60961E+05 1.54171E+04 3.40724E+00 7.47610E+04 9.53149E+00
 -1       495-1.56547E+01 3.97250E+05 1.95254E+04 1.33535E-06 8.84561E+04 1.17202E-06
 -1       496 2.92065E+01 1.89880E+05 6.42433E+03 1.94936E-06 3.61241E+04-1.77494E-06
 -1       497 4.21672E+01 2.93902E+05 1.00115E+04 3.24476E+01 5.42264E+04 1.64050E+01
 -1       498 4.21373E+01 2.94065E+05 1.00041E+04-8.01614E-06 5.42352E+04 5.98958E-06
 -1       499-1.99422E+01 3.27441E+05 1.25671E+04-2.01678E+01 6.44873E+04-8.64509E+00
 -1       500 3.60236E+01 1.56368E+05 4.04865E+03 2.81115E+01 2.59518E+04 1.38159E+01
 -1       501 4.21522E+01 2.93983E+05 1.00078E+04-6.51192E+00 5.42308E+04 8.65049E+00
 -1       502-1.97342E+01 3.27384E+05 1.25706E+04-8.37617E-07 6.44902E+04 3.68798E-06
 -1       503 3.63985E+01 1.56453E+05 4.04342E+03-4.88116E-06 2.59641E+04 1.57507E-06
 -1       504 4.28049E+01 2.31995E+05 6.51925E+03 4.69915E+01 3.87156E+04 1.66609E+01
 -1       505 4.61588E+01 2.32320E+05 6.51923E+03 3.80378E-07 3.87258E+04 4.84458E-06
 -1       506-2.21269E+01 2.63133E+05 8.07891E+03-1.08296E+01 4.64319E+04-7.48471E+00
 -1       507 3.83075E+01 1.25452E+05 2.53202E+03 4.11960E+01 1.82473E+04 1.32597E+01
 -1       508 4.44819E+01 2.32158E+05 6.51924E+03-2.76220E+01 3.87207E+04 7.15886E+00
 -1       509-2.04651E+01 2.63019E+05 8.08235E+03-3.98834E-07 4.64190E+04 3.08701E-06
 -1       510 3.95530E+01 1.25642E+05 2.53375E+03 3.44847E-06 1.82779E+04 3.68591E-06
 -1       511 3.17013E+01 1.74331E+05 4.19114E+03-6.49848E+01 2.65761E+04 3.42685E+00
 -1       512 2.72948E+01 1.74886E+05 4.18691E+03-1.69835E-08 2.67033E+04-4.71938E-06
 -1       513-2.23922E+01 2.03639E+05 5.12025E+03-3.40409E+01 3.26031E+04-8.87155E+00
 -1       514 3.34446E+01 9.66542E+04 1.54613E+03-3.39817E+01 1.22787E+04 7.46561E+00
 -1       515 2.94980E+01 1.74609E+05 4.18902E+03-6.72267E+01 2.66397E+04-1.70861E+00
 -1       516-2.29177E+01 2.03416E+05 5.11815E+03-4.36453E-06 3.26030E+04 3.37478E-06
 -1       517 3.43515E+01 9.70230E+04 1.54158E+03 1.88812E-06 1.23446E+04-2.85737E-06
 -1       518-1.04512E+01 1.19547E+05 2.59931E+03 1.80729E+02 1.74552E+04 1.37959E+01
 -1       519 1.46892E+01 1.20590E+05 2.63050E+03-6.95865E-06 1.73502E+04 4.68029E-06
 -1       520-4.10082E+00 1.47960E+05 3.16917E+03 1.03679E+02 2.20425E+04 6.51900E+00
 -1       521-6.65138E+00 6.94587E+04 7.73677E+02 1.34707E+02 7.46503E+03 1.90282E+00
 -1       522 2.11901E+00 1.20069E+05 2.61491E+03-1.38464E+02 1.74027E+04-6.96400E-01
 -1       523 6.26516E+00 1.47607E+05 3.16965E+03 3.11394E-06 2.19146E+04-1.02463E-06
 -1       524 3.79626E-01 7.01217E+04 8.19969E+02-2.00835E-06 7.56890E+03 8.87889E-07
 -1       525-1.05268E+02 6.73137E+04 9.99151E+02-1.11305E+03 7.28589E+03-9.22844E+01
 -1       526-1.61000E+02 6.86579E+04 1.00321E+03-7.62410E-07 8.37237E+03-6.89823E-06
 -1       527-5.71021E+00 9.54332E+04 1.63645E+03-2.81406E+02 1.26696E+04-2.09691E+01
 -1       528-4.27661E+01 4.33225E+04 1.87288E+02-7.61632E+02 3.23936E+03-3.67575E+01
 -1       529-1.33134E+02 6.79858E+04 1.00118E+03-2.56553E+02 7.82913E+03-5.95872E+01
 -1       530-2.10080E+01 9.47225E+04 1.62594E+03-6.79154E-06 1.28887E+04-2.88048E-06
 -1       531-5.02020E+01 4.44382E+04 1.05683E+02-3.95529E-06 3.46563E+03-1.82766E-06
 -1       532-1.31150E+02 2.82143E+04-3.78885E+02 3.78197E+03 8.00236E+03-7.89626E+00
 -1       533 5.48262E+01 1.70133E+04-3.07885E+02-7.22626E-06 3.71728E+03 5.97562E-06
 -1       534 1.88718E+02 4.39251E+04 1.25031E+03 1.41419E+03 7.79960E+03 1.21651E+02
 -1       535-3.10799E+02 2.19627E+04-1.38552E+03 2.48206E+03 2.10424E+03-1.22697E+02
 -1       536-3.81619E+01 2.26138E+04-3.43385E+02 1.56170E+03 5.85982E+03 6.11087E+01
 -1       537 2.53843E+02 4.32383E+04 1.17375E+03-5.72247E-06 6.52174E+03 8.87813E-07
 -1       538-2.53241E+02 1.39995E+04-9.90058E+02-1.83473E-06 7.97849E+02 2.88047E-06
 -1       539-1.69260E+00-6.35923E+04 3.38847E+06-1.57615E+00 5.29039E+04-2.32228E+00
 -1       540 2.35814E-01 1.21495E+05 2.86846E+06 1.78393E-01 6.36708E+05-8.62708E-02
 -1       541-1.69260E+00-6.35898E+04 3.38847E+06-1.58823E+00 5.29050E+04-2.51047E+00
 -1       542 2.32659E-01 1.21495E+05 2.86846E+06 4.54274E-02 6.36707E+05-1.83262E-01
 -1       543-1.69631E+00-5.41077E+04 1.65267E+06 3.54536E-01 3.38200E+04-2.04322E-02
 -1       544-1.16184E-01 3.08329E+04 3.13228E+06-8.85180E-02 3.42164E+05-3.91732E-02
 -1       545-6.04517E-03 3.85390E+04 1.39684E+06 2.53847E-01 3.34275E+05 7.32005E-02
 -1       546 2.77207E-01 3.89063E+05 2.22793E+06 1.02816E-01 9.61056E+05-4.61644E-01
 -1       547 2.73456E-01 3.89063E+05 2.22793E+06-3.93554E-02 9.61055E+05-4.32637E-01
 -1       548-1.19490E-01 2.57238E+05 2.54683E+06-8.00832E-02 8.00554E+05 1.31738E-01
 -1       549-2.10042E-02 1.86875E+05 1.08245E+06 3.17336E-01 4.90014E+05-8.77965E-02
 -1       550 4.00768E-01 6.52057E+05 1.63181E+06-1.03318E-01 1.04536E+06-9.09903E-01
 -1       551 3.95548E-01 6.52056E+05 1.63180E+06-2.00495E-01 1.04535E+06-7.41915E-01
 -1       552-1.57632E-01 5.21821E+05 1.92865E+06-1.11519E-02 1.00347E+06 3.35974E-01
 -1       553 6.33862E-04 3.24132E+05 7.89406E+05 3.36288E-01 5.29099E+05-3.10512E-01
 -1       554 6.41979E-01 8.34293E+05 1.14428E+06-4.74379E-01 9.86174E+05-1.45395E+00
 -1       555 6.34964E-01 8.34292E+05 1.14428E+06-4.58036E-01 9.86172E+05-1.12059E+00
 -1       556-2.43582E-01 7.43209E+05 1.38757E+06 1.28603E-01 1.01545E+06 5.80766E-01
 -1       557 8.52141E-02 4.19917E+05 5.50786E+05 2.83572E-01 4.96343E+05-6.19017E-01
 -1       558 1.05643E+00 9.28965E+05 7.77969E+05-1.07486E+00 8.55927E+05-2.12728E+00
 -1       559 1.04683E+00 9.28962E+05 7.77967E+05-8.40311E-01 8.55924E+05-1.58561E+00
 -1       560-3.99909E-01 8.80952E+05 9.60992E+05 3.63715E-01 9.20767E+05 8.81216E-01
 -1       561 2.76490E-01 4.69855E+05 3.72100E+05 1.08141E-01 4.29153E+05-1.04198E+00
 -1       562 1.72614E+00 9.49625E+05 5.17236E+05-2.00216E+00 7.04842E+05-2.96688E+00
 -1       563 1.71303E+00 9.49622E+05 5.17233E+05-1.38394E+00 7.04838E+05-2.15658E+00
 -1       564-6.59931E-01 9.38354E+05 6.47614E+05 7.34008E-01 7.80301E+05 1.25515E+00
 -1       565 6.42956E-01 4.81805E+05 2.45555E+05-2.69487E-01 3.52214E+05-1.61149E+00
 -1       566 2.76893E+00 9.18007E+05 3.38565E+05-3.38885E+00 5.60285E+05-4.00974E+00
 -1       567 2.75130E+00 9.18003E+05 3.38562E+05-2.12890E+00 5.60281E+05-2.85218E+00
 -1       568-1.07287E+00 9.32904E+05 4.27915E+05 1.29638E+00 6.32650E+05 1.72133E+00
 -1       569 1.28710E+00 4.66943E+05 1.59318E+05-9.63281E-01 2.79123E+05-2.36160E+00
 -1       570 4.34620E+00 8.53941E+05 2.19269E+05-5.40377E+00 4.34702E+05-5.28907E+00
 -1       571 4.32342E+00 8.53936E+05 2.19265E+05-3.10744E+00 4.34697E+05-3.68625E+00
 -1       572-1.70814E+00 8.85215E+05 2.78890E+05 2.12502E+00 4.97670E+05 2.29752E+00
 -1       573 2.35496E+00 4.35480E+05 1.02119E+05-2.12854E+00 2.15904E+05-3.32595E+00
 -1       574 6.66611E+00 7.72722E+05 1.41057E+05-8.23763E+00 3.31576E+05-6.82708E+00
 -1       575 6.63799E+00 7.72716E+05 1.41053E+05-4.32236E+00 3.31570E+05-4.66183E+00
 -1       576-2.65895E+00 8.12749E+05 1.80095E+05 3.31179E+00 3.83338E+05 2.99854E+00
 -1       577 4.04279E+00 3.95216E+05 6.49022E+04-3.95787E+00 1.64166E+05-4.53252E+00
 -1       578 9.97412E+00 6.84843E+05 9.04152E+04-1.20959E+01 2.49868E+05-8.62787E+00
 -1       579 9.94393E+00 6.84836E+05 9.04108E+04-5.70540E+00 2.49860E+05-5.76387E+00
 -1       580-4.04157E+00 7.28357E+05 1.15642E+05 4.95024E+00 2.90904E+05 3.83082E+00
 -1       581 6.59414E+00 3.51491E+05 4.10166E+04-6.68284E+00 1.23289E+05-5.99581E+00
 -1       582 1.45189E+01 5.96889E+05 5.78959E+04-1.70536E+01 1.86632E+05-1.06480E+01
 -1       583 1.44889E+01 5.96884E+05 5.78912E+04-7.04696E+00 1.86624E+05-6.94091E+00
 -1       584-5.98801E+00 6.40564E+05 7.40501E+04 7.14352E+00 2.18398E+05 4.79065E+00
 -1       585 1.02766E+01 3.07650E+05 2.58343E+04-1.04724E+01 9.17327E+04-7.69978E+00
 -1       586 2.04579E+01 5.12591E+05 3.71174E+04-2.32196E+01 1.38446E+05-1.28115E+01
 -1       587 2.04555E+01 5.12592E+05 3.71127E+04-7.86745E+00 1.38438E+05-8.10255E+00
 -1       588-8.61353E+00 5.54531E+05 4.73971E+04 9.84687E+00 1.62647E+05 5.83579E+00
 -1       589 1.53078E+01 2.65589E+05 1.62472E+04-1.55493E+01 6.77408E+04-9.58369E+00
 -1       590 2.77095E+01 4.33751E+05 2.38702E+04-2.93709E+01 1.02079E+05-1.48199E+01
 -1       591 2.77146E+01 4.33764E+05 2.38655E+04-7.23585E+00 1.02072E+05-9.02687E+00
 -1       592-1.19753E+01 4.73036E+05 3.03801E+04 1.31928E+01 1.20330E+05 6.93004E+00
 -1       593 2.17326E+01 2.26227E+05 1.02174E+04-2.11989E+01 4.96718E+04-1.14761E+01
 -1       594 3.54954E+01 3.60923E+05 1.54211E+04-3.66936E+01 7.47656E+04-1.65904E+01
 -1       595 3.57183E+01 3.60961E+05 1.54171E+04-3.40723E+00 7.47610E+04-9.53149E+00
 -1       596-1.58827E+01 3.97273E+05 1.95208E+04 1.57745E+01 8.84508E+04 7.80242E+00
 -1       597 2.90286E+01 1.89851E+05 6.43041E+03-2.83677E+01 3.61232E+04-1.31352E+01
 -1       598 4.21672E+01 2.93902E+05 1.00115E+04-3.24476E+01 5.42264E+04-1.64050E+01
 -1       599 4.21522E+01 2.93983E+05 1.00078E+04 6.51191E+00 5.42308E+04-8.65049E+00
 -1       600-1.99422E+01 3.27441E+05 1.25671E+04 2.01678E+01 6.44873E+04 8.64508E+00
 -1       601 3.60236E+01 1.56368E+05 4.04865E+03-2.81115E+01 2.59518E+04-1.38159E+01
 -1       602 4.28049E+01 2.31995E+05 6.51925E+03-4.69915E+01 3.87156E+04-1.66609E+01
 -1       603 4.44819E+01 2.32158E+05 6.51924E+03 2.76220E+01 3.87207E+04-7.15885E+00
 -1       604-2.21269E+01 2.63133E+05 8.07891E+03 1.08296E+01 4.64319E+04 7.48471E+00
 -1       605 3.83075E+01 1.25452E+05 2.53202E+03-4.11960E+01 1.82473E+04-1.32597E+01
 -1       606 3.17013E+01 1.74331E+05 4.19114E+03 6.49848E+01 2.65761E+04-3.42685E+00
 -1       607 2.94980E+01 1.74609E+05 4.18902E+03 6.72267E+01 2.66397E+04 1.70860E+00
 -1       608-2.23922E+01 2.03639E+05 5.12025E+03 3.40409E+01 3.26031E+04 8.87155E+00
 -1       609 3.34446E+01 9.66542E+04 1.54613E+03 3.39817E+01 1.22787E+04-7.46561E+00
 -1       610-1.04512E+01 1.19547E+05 2.59931E+03-1.80729E+02 1.74552E+04-1.37959E+01
 -1       611 2.11901E+00 1.20069E+05 2.61491E+03 1.38464E+02 1.74027E+04 6.96410E-01
 -1       612-4.10082E+00 1.47960E+05 3.16917E+03-1.03679E+02 2.20425E+04-6.51899E+00
 -1       613-6.65138E+00 6.94587E+04 7.73677E+02-1.34707E+02 7.46503E+03-1.90281E+00
 -1       614-1.05268E+02 6.73137E+04 9.99151E+02 1.11305E+03 7.28589E+03 9.22844E+01
 -1       615-1.33134E+02 6.79858E+04 1.00118E+03 2.56553E+02 7.82913E+03 5.95872E+01
 -1       616-5.71021E+00 9.54332E+04 1.63645E+03 2.81406E+02 1.26696E+04 2.09691E+01
 -1       617-4.27661E+01 4.33225E+04 1.87288E+02 7.61632E+02 3.23936E+03 3.67575E+01
 -1       618-1.31150E+02 2.82143E+04-3.78885E+02-3.78197E+03 8.00236E+03 7.89626E+00
 -1       619-3.81619E+01 2.26138E+04-3.43385E+02-1.56170E+03 5.85982E+03-6.11087E+01
 -1       620 1.88718E+02 4.39251E+04 1.25031E+03-1.41419E+03 7.79960E+03-1.21651E+02
 -1       621-3.10799E+02 2.19627E+04-1.38552E+03-2.48206E+03 2.10424E+03 1.22697E+02
 -3
 9999
