    1C
    1UUSER                                                              
    1UDATE              25.december.2019                                
    1UTIME              22:28:02                                        
    1UHOST                                                              
    1UPGM               CalculiX                                        
    1UVERSION           Version 2.11                             
    1UCOMPILETIME       So 31. Jul 13:26:31 CEST 2016                    
    1UDIR                                                               
    1UDBN                                                               
    1UMAT    1STEEL                                                     
    2C                           321                                     1
 -1         1 1.00000E-01 1.47800E-01 0.00000E+00
 -1         2 1.00000E-01 7.39000E-02 0.00000E+00
 -1         3 1.00000E-01 7.39000E-02 1.00000E+00
 -1         4 1.00000E-01 1.47800E-01 1.00000E+00
 -1         5 5.00000E-02 1.47800E-01 0.00000E+00
 -1         6 5.00000E-02 7.39000E-02-1.77636E-15
 -1         7 5.00000E-02 7.39000E-02 1.00000E+00
 -1         8 5.00000E-02 1.47800E-01 1.00000E+00
 -1         9 1.00000E-01 1.10850E-01 0.00000E+00
 -1        10 1.00000E-01 7.39000E-02 5.00000E-01
 -1        11 1.00000E-01 1.10850E-01 1.00000E+00
 -1        12 1.00000E-01 1.47800E-01 5.00000E-01
 -1        13 7.50000E-02 1.47800E-01 0.00000E+00
 -1        14 7.50000E-02 7.39000E-02 0.00000E+00
 -1        15 7.50000E-02 7.39000E-02 1.00000E+00
 -1        16 7.50000E-02 1.47800E-01 1.00000E+00
 -1        17 5.00000E-02 1.10850E-01 8.88178E-16
 -1        18 5.00000E-02 7.39000E-02 5.00000E-01
 -1        19 5.00000E-02 1.10850E-01 1.00000E+00
 -1        20 5.00000E-02 1.47800E-01 5.00000E-01
 -1        21 1.00000E-01 7.39000E-02 2.00000E+00
 -1        22 1.00000E-01 1.47800E-01 2.00000E+00
 -1        23 5.00000E-02 7.39000E-02 2.00000E+00
 -1        24 5.00000E-02 1.47800E-01 2.00000E+00
 -1        25 1.00000E-01 7.39000E-02 1.50000E+00
 -1        26 1.00000E-01 1.10850E-01 2.00000E+00
 -1        27 1.00000E-01 1.47800E-01 1.50000E+00
 -1        28 7.50000E-02 7.39000E-02 2.00000E+00
 -1        29 7.50000E-02 1.47800E-01 2.00000E+00
 -1        30 5.00000E-02 7.39000E-02 1.50000E+00
 -1        31 5.00000E-02 1.10850E-01 2.00000E+00
 -1        32 5.00000E-02 1.47800E-01 1.50000E+00
 -1        33 1.00000E-01 7.39000E-02 3.00000E+00
 -1        34 1.00000E-01 1.47800E-01 3.00000E+00
 -1        35 5.00000E-02 7.39000E-02 3.00000E+00
 -1        36 5.00000E-02 1.47800E-01 3.00000E+00
 -1        37 1.00000E-01 7.39000E-02 2.50000E+00
 -1        38 1.00000E-01 1.10850E-01 3.00000E+00
 -1        39 1.00000E-01 1.47800E-01 2.50000E+00
 -1        40 7.50000E-02 7.39000E-02 3.00000E+00
 -1        41 7.50000E-02 1.47800E-01 3.00000E+00
 -1        42 5.00000E-02 7.39000E-02 2.50000E+00
 -1        43 5.00000E-02 1.10850E-01 3.00000E+00
 -1        44 5.00000E-02 1.47800E-01 2.50000E+00
 -1        45 1.00000E-01 7.39000E-02 4.00000E+00
 -1        46 1.00000E-01 1.47800E-01 4.00000E+00
 -1        47 5.00000E-02 7.39000E-02 4.00000E+00
 -1        48 5.00000E-02 1.47800E-01 4.00000E+00
 -1        49 1.00000E-01 7.39000E-02 3.50000E+00
 -1        50 1.00000E-01 1.10850E-01 4.00000E+00
 -1        51 1.00000E-01 1.47800E-01 3.50000E+00
 -1        52 7.50000E-02 7.39000E-02 4.00000E+00
 -1        53 7.50000E-02 1.47800E-01 4.00000E+00
 -1        54 5.00000E-02 7.39000E-02 3.50000E+00
 -1        55 5.00000E-02 1.10850E-01 4.00000E+00
 -1        56 5.00000E-02 1.47800E-01 3.50000E+00
 -1        57 1.00000E-01 7.39000E-02 5.00000E+00
 -1        58 1.00000E-01 1.47800E-01 5.00000E+00
 -1        59 5.00000E-02 7.39000E-02 5.00000E+00
 -1        60 5.00000E-02 1.47800E-01 5.00000E+00
 -1        61 1.00000E-01 7.39000E-02 4.50000E+00
 -1        62 1.00000E-01 1.10850E-01 5.00000E+00
 -1        63 1.00000E-01 1.47800E-01 4.50000E+00
 -1        64 7.50000E-02 7.39000E-02 5.00000E+00
 -1        65 7.50000E-02 1.47800E-01 5.00000E+00
 -1        66 5.00000E-02 7.39000E-02 4.50000E+00
 -1        67 5.00000E-02 1.10850E-01 5.00000E+00
 -1        68 5.00000E-02 1.47800E-01 4.50000E+00
 -1        69 1.00000E-01 7.39000E-02 6.00000E+00
 -1        70 1.00000E-01 1.47800E-01 6.00000E+00
 -1        71 5.00000E-02 7.39000E-02 6.00000E+00
 -1        72 5.00000E-02 1.47800E-01 6.00000E+00
 -1        73 1.00000E-01 7.39000E-02 5.50000E+00
 -1        74 1.00000E-01 1.10850E-01 6.00000E+00
 -1        75 1.00000E-01 1.47800E-01 5.50000E+00
 -1        76 7.50000E-02 7.39000E-02 6.00000E+00
 -1        77 7.50000E-02 1.47800E-01 6.00000E+00
 -1        78 5.00000E-02 7.39000E-02 5.50000E+00
 -1        79 5.00000E-02 1.10850E-01 6.00000E+00
 -1        80 5.00000E-02 1.47800E-01 5.50000E+00
 -1        81 1.00000E-01 7.39000E-02 7.00000E+00
 -1        82 1.00000E-01 1.47800E-01 7.00000E+00
 -1        83 5.00000E-02 7.39000E-02 7.00000E+00
 -1        84 5.00000E-02 1.47800E-01 7.00000E+00
 -1        85 1.00000E-01 7.39000E-02 6.50000E+00
 -1        86 1.00000E-01 1.10850E-01 7.00000E+00
 -1        87 1.00000E-01 1.47800E-01 6.50000E+00
 -1        88 7.50000E-02 7.39000E-02 7.00000E+00
 -1        89 7.50000E-02 1.47800E-01 7.00000E+00
 -1        90 5.00000E-02 7.39000E-02 6.50000E+00
 -1        91 5.00000E-02 1.10850E-01 7.00000E+00
 -1        92 5.00000E-02 1.47800E-01 6.50000E+00
 -1        93 1.00000E-01 7.39000E-02 8.00000E+00
 -1        94 1.00000E-01 1.47800E-01 8.00000E+00
 -1        95 5.00000E-02 7.39000E-02 8.00000E+00
 -1        96 5.00000E-02 1.47800E-01 8.00000E+00
 -1        97 1.00000E-01 7.39000E-02 7.50000E+00
 -1        98 1.00000E-01 1.10850E-01 8.00000E+00
 -1        99 1.00000E-01 1.47800E-01 7.50000E+00
 -1       100 7.50000E-02 7.39000E-02 8.00000E+00
 -1       101 7.50000E-02 1.47800E-01 8.00000E+00
 -1       102 5.00000E-02 7.39000E-02 7.50000E+00
 -1       103 5.00000E-02 1.10850E-01 8.00000E+00
 -1       104 5.00000E-02 1.47800E-01 7.50000E+00
 -1       105 1.00000E-01 7.39000E-02 9.00000E+00
 -1       106 1.00000E-01 1.47800E-01 9.00000E+00
 -1       107 5.00000E-02 7.39000E-02 9.00000E+00
 -1       108 5.00000E-02 1.47800E-01 9.00000E+00
 -1       109 1.00000E-01 7.39000E-02 8.50000E+00
 -1       110 1.00000E-01 1.10850E-01 9.00000E+00
 -1       111 1.00000E-01 1.47800E-01 8.50000E+00
 -1       112 7.50000E-02 7.39000E-02 9.00000E+00
 -1       113 7.50000E-02 1.47800E-01 9.00000E+00
 -1       114 5.00000E-02 7.39000E-02 8.50000E+00
 -1       115 5.00000E-02 1.10850E-01 9.00000E+00
 -1       116 5.00000E-02 1.47800E-01 8.50000E+00
 -1       117 1.00000E-01 7.39000E-02 1.00000E+01
 -1       118 1.00000E-01 1.47800E-01 1.00000E+01
 -1       119 5.00000E-02 7.39000E-02 1.00000E+01
 -1       120 5.00000E-02 1.47800E-01 1.00000E+01
 -1       121 1.00000E-01 7.39000E-02 9.50000E+00
 -1       122 1.00000E-01 1.10850E-01 1.00000E+01
 -1       123 1.00000E-01 1.47800E-01 9.50000E+00
 -1       124 7.50000E-02 7.39000E-02 1.00000E+01
 -1       125 7.50000E-02 1.47800E-01 1.00000E+01
 -1       126 5.00000E-02 7.39000E-02 9.50000E+00
 -1       127 5.00000E-02 1.10850E-01 1.00000E+01
 -1       128 5.00000E-02 1.47800E-01 9.50000E+00
 -1       129 0.00000E+00 1.47800E-01 0.00000E+00
 -1       130 0.00000E+00 7.39000E-02 0.00000E+00
 -1       131 0.00000E+00 7.39000E-02 1.00000E+00
 -1       132 0.00000E+00 1.47800E-01 1.00000E+00
 -1       133 2.50000E-02 1.47800E-01 0.00000E+00
 -1       134 2.50000E-02 7.39000E-02 8.88178E-16
 -1       135 2.50000E-02 7.39000E-02 1.00000E+00
 -1       136 2.50000E-02 1.47800E-01 1.00000E+00
 -1       137 0.00000E+00 1.10850E-01 0.00000E+00
 -1       138 0.00000E+00 7.39000E-02 5.00000E-01
 -1       139 1.38778E-17 1.10850E-01 1.00000E+00
 -1       140 0.00000E+00 1.47800E-01 5.00000E-01
 -1       141 0.00000E+00 7.39000E-02 2.00000E+00
 -1       142 0.00000E+00 1.47800E-01 2.00000E+00
 -1       143 2.50000E-02 7.39000E-02 2.00000E+00
 -1       144 2.50000E-02 1.47800E-01 2.00000E+00
 -1       145 0.00000E+00 7.39000E-02 1.50000E+00
 -1       146 0.00000E+00 1.10850E-01 2.00000E+00
 -1       147 0.00000E+00 1.47800E-01 1.50000E+00
 -1       148 0.00000E+00 7.39000E-02 3.00000E+00
 -1       149 0.00000E+00 1.47800E-01 3.00000E+00
 -1       150 2.50000E-02 7.39000E-02 3.00000E+00
 -1       151 2.50000E-02 1.47800E-01 3.00000E+00
 -1       152 0.00000E+00 7.39000E-02 2.50000E+00
 -1       153-6.93889E-18 1.10850E-01 3.00000E+00
 -1       154 0.00000E+00 1.47800E-01 2.50000E+00
 -1       155 0.00000E+00 7.39000E-02 4.00000E+00
 -1       156 0.00000E+00 1.47800E-01 4.00000E+00
 -1       157 2.50000E-02 7.39000E-02 4.00000E+00
 -1       158 2.50000E-02 1.47800E-01 4.00000E+00
 -1       159 2.08167E-17 7.39000E-02 3.50000E+00
 -1       160-6.93889E-18 1.10850E-01 4.00000E+00
 -1       161 0.00000E+00 1.47800E-01 3.50000E+00
 -1       162 0.00000E+00 7.39000E-02 5.00000E+00
 -1       163 0.00000E+00 1.47800E-01 5.00000E+00
 -1       164 2.50000E-02 7.39000E-02 5.00000E+00
 -1       165 2.50000E-02 1.47800E-01 5.00000E+00
 -1       166 0.00000E+00 7.39000E-02 4.50000E+00
 -1       167 0.00000E+00 1.10850E-01 5.00000E+00
 -1       168 0.00000E+00 1.47800E-01 4.50000E+00
 -1       169 0.00000E+00 7.39000E-02 6.00000E+00
 -1       170 0.00000E+00 1.47800E-01 6.00000E+00
 -1       171 2.50000E-02 7.39000E-02 6.00000E+00
 -1       172 2.50000E-02 1.47800E-01 6.00000E+00
 -1       173 0.00000E+00 7.39000E-02 5.50000E+00
 -1       174 0.00000E+00 1.10850E-01 6.00000E+00
 -1       175 0.00000E+00 1.47800E-01 5.50000E+00
 -1       176 0.00000E+00 7.39000E-02 7.00000E+00
 -1       177 0.00000E+00 1.47800E-01 7.00000E+00
 -1       178 2.50000E-02 7.39000E-02 7.00000E+00
 -1       179 2.50000E-02 1.47800E-01 7.00000E+00
 -1       180 0.00000E+00 7.39000E-02 6.50000E+00
 -1       181 0.00000E+00 1.10850E-01 7.00000E+00
 -1       182 0.00000E+00 1.47800E-01 6.50000E+00
 -1       183 0.00000E+00 7.39000E-02 8.00000E+00
 -1       184 0.00000E+00 1.47800E-01 8.00000E+00
 -1       185 2.50000E-02 7.39000E-02 8.00000E+00
 -1       186 2.50000E-02 1.47800E-01 8.00000E+00
 -1       187 0.00000E+00 7.39000E-02 7.50000E+00
 -1       188 0.00000E+00 1.10850E-01 8.00000E+00
 -1       189 0.00000E+00 1.47800E-01 7.50000E+00
 -1       190 0.00000E+00 7.39000E-02 9.00000E+00
 -1       191 0.00000E+00 1.47800E-01 9.00000E+00
 -1       192 2.50000E-02 7.39000E-02 9.00000E+00
 -1       193 2.50000E-02 1.47800E-01 9.00000E+00
 -1       194 0.00000E+00 7.39000E-02 8.50000E+00
 -1       195 1.38778E-17 1.10850E-01 9.00000E+00
 -1       196 0.00000E+00 1.47800E-01 8.50000E+00
 -1       197 0.00000E+00 7.39000E-02 1.00000E+01
 -1       198 0.00000E+00 1.47800E-01 1.00000E+01
 -1       199 2.50000E-02 7.39000E-02 1.00000E+01
 -1       200 2.50000E-02 1.47800E-01 1.00000E+01
 -1       201-6.93889E-18 7.39000E-02 9.50000E+00
 -1       202 0.00000E+00 1.10850E-01 1.00000E+01
 -1       203 0.00000E+00 1.47800E-01 9.50000E+00
 -1       204 1.00000E-01 0.00000E+00 0.00000E+00
 -1       205 1.00000E-01 0.00000E+00 1.00000E+00
 -1       206 5.00000E-02 0.00000E+00 0.00000E+00
 -1       207 5.00000E-02 1.38778E-17 1.00000E+00
 -1       208 1.00000E-01 3.69500E-02 0.00000E+00
 -1       209 1.00000E-01 0.00000E+00 5.00000E-01
 -1       210 1.00000E-01 3.69500E-02 1.00000E+00
 -1       211 7.50000E-02 0.00000E+00 0.00000E+00
 -1       212 7.50000E-02-1.38778E-17 1.00000E+00
 -1       213 5.00000E-02 3.69500E-02 0.00000E+00
 -1       214 5.00000E-02 1.38778E-17 5.00000E-01
 -1       215 5.00000E-02 3.69500E-02 1.00000E+00
 -1       216 1.00000E-01 0.00000E+00 2.00000E+00
 -1       217 5.00000E-02 1.38778E-17 2.00000E+00
 -1       218 1.00000E-01 0.00000E+00 1.50000E+00
 -1       219 1.00000E-01 3.69500E-02 2.00000E+00
 -1       220 7.50000E-02-1.38778E-17 2.00000E+00
 -1       221 5.00000E-02 1.38778E-17 1.50000E+00
 -1       222 5.00000E-02 3.69500E-02 2.00000E+00
 -1       223 1.00000E-01 0.00000E+00 3.00000E+00
 -1       224 5.00000E-02 1.38778E-17 3.00000E+00
 -1       225 1.00000E-01 0.00000E+00 2.50000E+00
 -1       226 1.00000E-01 3.69500E-02 3.00000E+00
 -1       227 7.50000E-02-1.38778E-17 3.00000E+00
 -1       228 5.00000E-02 1.38778E-17 2.50000E+00
 -1       229 5.00000E-02 3.69500E-02 3.00000E+00
 -1       230 1.00000E-01 0.00000E+00 4.00000E+00
 -1       231 5.00000E-02 1.38778E-17 4.00000E+00
 -1       232 1.00000E-01 0.00000E+00 3.50000E+00
 -1       233 1.00000E-01 3.69500E-02 4.00000E+00
 -1       234 7.50000E-02-1.38778E-17 4.00000E+00
 -1       235 5.00000E-02-1.38778E-17 3.50000E+00
 -1       236 5.00000E-02 3.69500E-02 4.00000E+00
 -1       237 1.00000E-01 0.00000E+00 5.00000E+00
 -1       238 5.00000E-02 1.38778E-17 5.00000E+00
 -1       239 1.00000E-01 0.00000E+00 4.50000E+00
 -1       240 1.00000E-01 3.69500E-02 5.00000E+00
 -1       241 7.50000E-02 1.38778E-17 5.00000E+00
 -1       242 5.00000E-02-1.38778E-17 4.50000E+00
 -1       243 5.00000E-02 3.69500E-02 5.00000E+00
 -1       244 1.00000E-01 0.00000E+00 6.00000E+00
 -1       245 5.00000E-02-1.38778E-17 6.00000E+00
 -1       246 1.00000E-01 0.00000E+00 5.50000E+00
 -1       247 1.00000E-01 3.69500E-02 6.00000E+00
 -1       248 7.50000E-02-2.77556E-17 6.00000E+00
 -1       249 5.00000E-02 1.38778E-17 5.50000E+00
 -1       250 5.00000E-02 3.69500E-02 6.00000E+00
 -1       251 1.00000E-01 0.00000E+00 7.00000E+00
 -1       252 5.00000E-02-2.77556E-17 7.00000E+00
 -1       253 1.00000E-01 0.00000E+00 6.50000E+00
 -1       254 1.00000E-01 3.69500E-02 7.00000E+00
 -1       255 7.50000E-02-1.38778E-17 7.00000E+00
 -1       256 5.00000E-02 1.38778E-17 6.50000E+00
 -1       257 5.00000E-02 3.69500E-02 7.00000E+00
 -1       258 1.00000E-01 0.00000E+00 8.00000E+00
 -1       259 5.00000E-02 1.38778E-17 8.00000E+00
 -1       260 1.00000E-01 0.00000E+00 7.50000E+00
 -1       261 1.00000E-01 3.69500E-02 8.00000E+00
 -1       262 7.50000E-02-1.38778E-17 8.00000E+00
 -1       263 5.00000E-02 1.38778E-17 7.50000E+00
 -1       264 5.00000E-02 3.69500E-02 8.00000E+00
 -1       265 1.00000E-01 0.00000E+00 9.00000E+00
 -1       266 5.00000E-02 1.38778E-17 9.00000E+00
 -1       267 1.00000E-01 0.00000E+00 8.50000E+00
 -1       268 1.00000E-01 3.69500E-02 9.00000E+00
 -1       269 7.50000E-02 0.00000E+00 9.00000E+00
 -1       270 5.00000E-02 1.38778E-17 8.50000E+00
 -1       271 5.00000E-02 3.69500E-02 9.00000E+00
 -1       272 1.00000E-01 0.00000E+00 1.00000E+01
 -1       273 5.00000E-02 0.00000E+00 1.00000E+01
 -1       274 1.00000E-01 0.00000E+00 9.50000E+00
 -1       275 1.00000E-01 3.69500E-02 1.00000E+01
 -1       276 7.50000E-02 0.00000E+00 1.00000E+01
 -1       277 5.00000E-02 1.38778E-17 9.50000E+00
 -1       278 5.00000E-02 3.69500E-02 1.00000E+01
 -1       279 0.00000E+00 0.00000E+00 0.00000E+00
 -1       280 0.00000E+00 0.00000E+00 1.00000E+00
 -1       281 2.50000E-02 0.00000E+00 0.00000E+00
 -1       282 2.50000E-02 0.00000E+00 1.00000E+00
 -1       283 0.00000E+00 3.69500E-02 0.00000E+00
 -1       284 0.00000E+00 0.00000E+00 5.00000E-01
 -1       285 0.00000E+00 3.69500E-02 1.00000E+00
 -1       286 0.00000E+00 0.00000E+00 2.00000E+00
 -1       287 2.50000E-02 0.00000E+00 2.00000E+00
 -1       288 0.00000E+00 0.00000E+00 1.50000E+00
 -1       289-6.93889E-18 3.69500E-02 2.00000E+00
 -1       290 0.00000E+00 0.00000E+00 3.00000E+00
 -1       291 2.50000E-02-1.38778E-17 3.00000E+00
 -1       292 0.00000E+00 0.00000E+00 2.50000E+00
 -1       293 0.00000E+00 3.69500E-02 3.00000E+00
 -1       294 0.00000E+00 0.00000E+00 4.00000E+00
 -1       295 2.50000E-02-1.38778E-17 4.00000E+00
 -1       296 0.00000E+00 0.00000E+00 3.50000E+00
 -1       297 0.00000E+00 3.69500E-02 4.00000E+00
 -1       298 0.00000E+00 0.00000E+00 5.00000E+00
 -1       299 2.50000E-02 1.38778E-17 5.00000E+00
 -1       300 0.00000E+00 0.00000E+00 4.50000E+00
 -1       301 0.00000E+00 3.69500E-02 5.00000E+00
 -1       302 0.00000E+00 0.00000E+00 6.00000E+00
 -1       303 2.50000E-02-2.77556E-17 6.00000E+00
 -1       304 0.00000E+00 0.00000E+00 5.50000E+00
 -1       305 0.00000E+00 3.69500E-02 6.00000E+00
 -1       306 0.00000E+00 0.00000E+00 7.00000E+00
 -1       307 2.50000E-02-1.38778E-17 7.00000E+00
 -1       308 0.00000E+00 0.00000E+00 6.50000E+00
 -1       309 0.00000E+00 3.69500E-02 7.00000E+00
 -1       310 0.00000E+00 0.00000E+00 8.00000E+00
 -1       311 2.50000E-02-1.38778E-17 8.00000E+00
 -1       312 0.00000E+00 0.00000E+00 7.50000E+00
 -1       313 0.00000E+00 3.69500E-02 8.00000E+00
 -1       314 0.00000E+00 0.00000E+00 9.00000E+00
 -1       315 2.50000E-02 0.00000E+00 9.00000E+00
 -1       316 0.00000E+00 0.00000E+00 8.50000E+00
 -1       317-6.93889E-18 3.69500E-02 9.00000E+00
 -1       318 0.00000E+00 0.00000E+00 1.00000E+01
 -1       319 2.50000E-02 0.00000E+00 1.00000E+01
 -1       320 0.00000E+00 0.00000E+00 9.50000E+00
 -1       321 0.00000E+00 3.69500E-02 1.00000E+01
 -3
    3C                            40                                     1
 -1         1    4    0    1
 -2         1         2         3         4         5         6         7         8         9        10
 -2        11        12        13        14        15        16        17        18        19        20
 -1         2    4    0    1
 -2         4         3        21        22         8         7        23        24        11        25
 -2        26        27        16        15        28        29        19        30        31        32
 -1         3    4    0    1
 -2        22        21        33        34        24        23        35        36        26        37
 -2        38        39        29        28        40        41        31        42        43        44
 -1         4    4    0    1
 -2        34        33        45        46        36        35        47        48        38        49
 -2        50        51        41        40        52        53        43        54        55        56
 -1         5    4    0    1
 -2        46        45        57        58        48        47        59        60        50        61
 -2        62        63        53        52        64        65        55        66        67        68
 -1         6    4    0    1
 -2        58        57        69        70        60        59        71        72        62        73
 -2        74        75        65        64        76        77        67        78        79        80
 -1         7    4    0    1
 -2        70        69        81        82        72        71        83        84        74        85
 -2        86        87        77        76        88        89        79        90        91        92
 -1         8    4    0    1
 -2        82        81        93        94        84        83        95        96        86        97
 -2        98        99        89        88       100       101        91       102       103       104
 -1         9    4    0    1
 -2        94        93       105       106        96        95       107       108        98       109
 -2       110       111       101       100       112       113       103       114       115       116
 -1        10    4    0    1
 -2       106       105       117       118       108       107       119       120       110       121
 -2       122       123       113       112       124       125       115       126       127       128
 -1        11    4    0    1
 -2         5         6         7         8       129       130       131       132        17        18
 -2        19        20       133       134       135       136       137       138       139       140
 -1        12    4    0    1
 -2         8         7        23        24       132       131       141       142        19        30
 -2        31        32       136       135       143       144       139       145       146       147
 -1        13    4    0    1
 -2        24        23        35        36       142       141       148       149        31        42
 -2        43        44       144       143       150       151       146       152       153       154
 -1        14    4    0    1
 -2        36        35        47        48       149       148       155       156        43        54
 -2        55        56       151       150       157       158       153       159       160       161
 -1        15    4    0    1
 -2        48        47        59        60       156       155       162       163        55        66
 -2        67        68       158       157       164       165       160       166       167       168
 -1        16    4    0    1
 -2        60        59        71        72       163       162       169       170        67        78
 -2        79        80       165       164       171       172       167       173       174       175
 -1        17    4    0    1
 -2        72        71        83        84       170       169       176       177        79        90
 -2        91        92       172       171       178       179       174       180       181       182
 -1        18    4    0    1
 -2        84        83        95        96       177       176       183       184        91       102
 -2       103       104       179       178       185       186       181       187       188       189
 -1        19    4    0    1
 -2        96        95       107       108       184       183       190       191       103       114
 -2       115       116       186       185       192       193       188       194       195       196
 -1        20    4    0    1
 -2       108       107       119       120       191       190       197       198       115       126
 -2       127       128       193       192       199       200       195       201       202       203
 -1        21    4    0    1
 -2         2       204       205         3         6       206       207         7       208       209
 -2       210        10        14       211       212        15       213       214       215        18
 -1        22    4    0    1
 -2         3       205       216        21         7       207       217        23       210       218
 -2       219        25        15       212       220        28       215       221       222        30
 -1        23    4    0    1
 -2        21       216       223        33        23       217       224        35       219       225
 -2       226        37        28       220       227        40       222       228       229        42
 -1        24    4    0    1
 -2        33       223       230        45        35       224       231        47       226       232
 -2       233        49        40       227       234        52       229       235       236        54
 -1        25    4    0    1
 -2        45       230       237        57        47       231       238        59       233       239
 -2       240        61        52       234       241        64       236       242       243        66
 -1        26    4    0    1
 -2        57       237       244        69        59       238       245        71       240       246
 -2       247        73        64       241       248        76       243       249       250        78
 -1        27    4    0    1
 -2        69       244       251        81        71       245       252        83       247       253
 -2       254        85        76       248       255        88       250       256       257        90
 -1        28    4    0    1
 -2        81       251       258        93        83       252       259        95       254       260
 -2       261        97        88       255       262       100       257       263       264       102
 -1        29    4    0    1
 -2        93       258       265       105        95       259       266       107       261       267
 -2       268       109       100       262       269       112       264       270       271       114
 -1        30    4    0    1
 -2       105       265       272       117       107       266       273       119       268       274
 -2       275       121       112       269       276       124       271       277       278       126
 -1        31    4    0    1
 -2         6       206       207         7       130       279       280       131       213       214
 -2       215        18       134       281       282       135       283       284       285       138
 -1        32    4    0    1
 -2         7       207       217        23       131       280       286       141       215       221
 -2       222        30       135       282       287       143       285       288       289       145
 -1        33    4    0    1
 -2        23       217       224        35       141       286       290       148       222       228
 -2       229        42       143       287       291       150       289       292       293       152
 -1        34    4    0    1
 -2        35       224       231        47       148       290       294       155       229       235
 -2       236        54       150       291       295       157       293       296       297       159
 -1        35    4    0    1
 -2        47       231       238        59       155       294       298       162       236       242
 -2       243        66       157       295       299       164       297       300       301       166
 -1        36    4    0    1
 -2        59       238       245        71       162       298       302       169       243       249
 -2       250        78       164       299       303       171       301       304       305       173
 -1        37    4    0    1
 -2        71       245       252        83       169       302       306       176       250       256
 -2       257        90       171       303       307       178       305       308       309       180
 -1        38    4    0    1
 -2        83       252       259        95       176       306       310       183       257       263
 -2       264       102       178       307       311       185       309       312       313       187
 -1        39    4    0    1
 -2        95       259       266       107       183       310       314       190       264       270
 -2       271       114       185       311       315       192       313       316       317       194
 -1        40    4    0    1
 -2       107       266       273       119       190       314       318       197       271       277
 -2       278       126       192       315       319       199       317       320       321       201
 -3
    1PSTEP                         1           1           1          
  100CL  101 5.00000E-02         321                     0    1           1
 -4  DISP        4    1
 -5  D1          1    2    1    0
 -5  D2          1    2    2    0
 -5  D3          1    2    3    0
 -5  ALL         1    2    0    0    1ALL
 -1         1 0.00000E+00 0.00000E+00 0.00000E+00
 -1         2 0.00000E+00 0.00000E+00 0.00000E+00
 -1         3-1.17403E-09 2.38077E-02-3.80184E-04
 -1         4-1.60805E-09 2.37265E-02-3.83466E-03
 -1         5 0.00000E+00 0.00000E+00 0.00000E+00
 -1         6 0.00000E+00 0.00000E+00 0.00000E+00
 -1         7 1.68749E-13 2.38076E-02-3.80181E-04
 -1         8 1.64738E-13 2.37265E-02-3.83466E-03
 -1         9 0.00000E+00 0.00000E+00 0.00000E+00
 -1        10 2.29223E-10 6.06117E-03-5.12616E-05
 -1        11-1.39104E-09 2.37670E-02-2.10710E-03
 -1        12 3.75416E-10 6.03953E-03-1.82469E-03
 -1        13 0.00000E+00 0.00000E+00 0.00000E+00
 -1        14 0.00000E+00 0.00000E+00 0.00000E+00
 -1        15-5.87002E-10 2.38076E-02-3.80183E-04
 -1        16-8.03980E-10 2.37265E-02-3.83466E-03
 -1        17 0.00000E+00 0.00000E+00 0.00000E+00
 -1        18 4.25244E-14 6.06117E-03-5.12622E-05
 -1        19 1.66744E-13 2.37670E-02-2.10710E-03
 -1        20 4.06145E-14 6.03954E-03-1.82469E-03
 -1        21-2.82319E-09 9.18181E-02-2.77248E-03
 -1        22-3.61836E-09 9.15281E-02-9.30536E-03
 -1        23 6.65253E-13 9.18181E-02-2.77247E-03
 -1        24 6.57118E-13 9.15281E-02-9.30536E-03
 -1        25 9.44701E-10 5.26061E-02-1.22180E-03
 -1        26-3.21964E-09 9.16731E-02-6.03868E-03
 -1        27 1.23194E-09 5.24340E-02-6.26191E-03
 -1        28-1.41126E-09 9.18181E-02-2.77248E-03
 -1        29-1.80898E-09 9.15281E-02-9.30536E-03
 -1        30 3.77000E-13 5.26062E-02-1.22180E-03
 -1        31 6.61201E-13 9.16731E-02-6.03868E-03
 -1        32 3.70899E-13 5.24340E-02-6.26191E-03
 -1        33-4.88633E-09 1.98935E-01-8.58542E-03
 -1        34-6.42464E-09 1.98355E-01-1.78199E-02
 -1        35 1.47347E-12 1.98935E-01-8.58541E-03
 -1        36 1.46149E-12 1.98355E-01-1.78199E-02
 -1        37 1.88034E-09 1.40807E-01-5.18707E-03
 -1        38-5.65829E-09 1.98645E-01-1.32024E-02
 -1        39 2.38650E-09 1.40380E-01-1.31171E-02
 -1        40-2.44240E-09 1.98935E-01-8.58541E-03
 -1        41-3.21145E-09 1.98355E-01-1.78199E-02
 -1        42 1.03165E-12 1.40807E-01-5.18707E-03
 -1        43 1.46747E-12 1.98645E-01-1.32024E-02
 -1        44 1.02160E-12 1.40380E-01-1.31171E-02
 -1        45-7.31059E-09 3.40070E-01-1.86392E-02
 -1        46-1.05129E-08 3.39159E-01-3.02003E-02
 -1        47 2.57010E-12 3.40070E-01-1.86391E-02
 -1        48 2.55490E-12 3.39159E-01-3.02002E-02
 -1        49 3.01071E-09 2.65567E-01-1.30516E-02
 -1        50-8.89920E-09 3.39614E-01-2.44195E-02
 -1        51 4.03979E-09 2.64826E-01-2.34956E-02
 -1        52-3.65397E-09 3.40070E-01-1.86391E-02
 -1        53-5.25621E-09 3.39159E-01-3.02003E-02
 -1        54 1.98763E-12 2.65567E-01-1.30516E-02
 -1        55 2.56259E-12 3.39614E-01-2.44194E-02
 -1        56 1.97394E-12 2.64826E-01-2.34956E-02
 -1        57-1.00316E-08 5.10177E-01-3.32446E-02
 -1        58-1.62979E-08 5.08929E-01-4.67616E-02
 -1        59 3.91878E-12 5.10177E-01-3.32446E-02
 -1        60 3.90055E-12 5.08929E-01-4.67616E-02
 -1        61 4.30825E-09 4.21815E-01-2.53711E-02
 -1        62-1.32090E-08 5.09553E-01-4.00028E-02
 -1        63 6.47686E-09 4.20736E-01-3.79559E-02
 -1        64-5.01367E-09 5.10177E-01-3.32446E-02
 -1        65-8.14390E-09 5.08929E-01-4.67616E-02
 -1        66 3.21607E-12 4.21815E-01-2.53711E-02
 -1        67 3.90968E-12 5.09553E-01-4.00028E-02
 -1        68 3.19887E-12 4.20736E-01-3.79560E-02
 -1        69-1.29462E-08 7.04274E-01-5.22823E-02
 -1        70-2.48393E-08 7.02712E-01-6.73896E-02
 -1        71 5.46939E-12 7.04274E-01-5.22823E-02
 -1        72 5.44717E-12 7.02712E-01-6.73896E-02
 -1        73 5.73634E-09 6.04536E-01-4.22314E-02
 -1        74-1.87236E-08 7.03493E-01-5.98357E-02
 -1        75 9.82813E-09 6.03128E-01-5.65890E-02
 -1        76-6.47044E-09 7.04274E-01-5.22823E-02
 -1        77-1.24293E-08 7.02712E-01-6.73896E-02
 -1        78 4.67282E-12 6.04536E-01-4.22314E-02
 -1        79 5.45841E-12 7.03493E-01-5.98357E-02
 -1        80 4.65318E-12 6.03128E-01-5.65890E-02
 -1        81-1.59090E-08 9.17450E-01-7.52800E-02
 -1        82-3.53074E-08 9.15621E-01-9.16172E-02
 -1        83 7.16192E-12 9.17450E-01-7.52800E-02
 -1        84 7.13836E-12 9.15621E-01-9.16172E-02
 -1        85 7.22706E-09 8.08782E-01-6.33271E-02
 -1        86-2.62361E-08 9.16536E-01-8.34483E-02
 -1        87 1.50184E-08 8.07081E-01-7.90947E-02
 -1        88-7.95009E-09 9.17450E-01-7.52800E-02
 -1        89-1.76054E-08 9.15621E-01-9.16172E-02
 -1        90 6.30088E-12 8.08782E-01-6.33271E-02
 -1        91 7.15045E-12 9.16536E-01-8.34483E-02
 -1        92 6.27767E-12 8.07081E-01-7.90947E-02
 -1        93-1.86641E-08 1.14487E+00-1.01487E-01
 -1        94-5.46152E-08 1.14283E+00-1.18699E-01
 -1        95 8.94235E-12 1.14487E+00-1.01487E-01
 -1        96 8.91608E-12 1.14283E+00-1.18698E-01
 -1        97 8.70845E-09 1.02968E+00-8.80376E-02
 -1        98-3.42855E-08 1.14385E+00-1.10092E-01
 -1        99 2.03111E-08 1.02774E+00-1.04857E-01
 -1       100-9.32939E-09 1.14487E+00-1.01487E-01
 -1       101-2.74708E-08 1.14283E+00-1.18699E-01
 -1       102 8.04424E-12 1.02968E+00-8.80376E-02
 -1       103 8.92913E-12 1.14385E+00-1.10092E-01
 -1       104 8.01956E-12 1.02774E+00-1.04857E-01
 -1       105-2.09333E-08 1.38174E+00-1.29946E-01
 -1       106-6.17057E-08 1.37958E+00-1.47681E-01
 -1       107 1.07644E-11 1.38174E+00-1.29946E-01
 -1       108 1.07363E-11 1.37958E+00-1.47681E-01
 -1       109 9.97259E-09 1.26242E+00-1.15500E-01
 -1       110-5.01170E-08 1.38066E+00-1.38813E-01
 -1       111 3.42836E-08 1.26031E+00-1.33019E-01
 -1       112-1.04559E-08 1.38174E+00-1.29946E-01
 -1       113-3.02268E-08 1.37958E+00-1.47681E-01
 -1       114 9.84948E-12 1.26242E+00-1.15500E-01
 -1       115 1.07505E-11 1.38066E+00-1.38813E-01
 -1       116 9.82362E-12 1.26031E+00-1.33019E-01
 -1       117-2.21609E-08 1.62333E+00-1.59566E-01
 -1       118-1.41169E-07 1.62112E+00-1.77474E-01
 -1       119 1.26032E-11 1.62333E+00-1.59566E-01
 -1       120 1.25737E-11 1.62112E+00-1.77474E-01
 -1       121 1.10458E-08 1.50224E+00-1.44682E-01
 -1       122-4.87453E-08 1.62222E+00-1.68520E-01
 -1       123 2.75727E-08 1.50005E+00-1.62549E-01
 -1       124-1.10836E-08 1.62333E+00-1.59566E-01
 -1       125-7.28864E-08 1.62112E+00-1.77474E-01
 -1       126 1.16826E-11 1.50224E+00-1.44682E-01
 -1       127 1.25880E-11 1.62222E+00-1.68520E-01
 -1       128 1.16569E-11 1.50005E+00-1.62549E-01
 -1       129 0.00000E+00 0.00000E+00 0.00000E+00
 -1       130 0.00000E+00 0.00000E+00 0.00000E+00
 -1       131 1.17437E-09 2.38077E-02-3.80184E-04
 -1       132 1.60838E-09 2.37265E-02-3.83466E-03
 -1       133 0.00000E+00 0.00000E+00 0.00000E+00
 -1       134 0.00000E+00 0.00000E+00 0.00000E+00
 -1       135 5.87339E-10 2.38076E-02-3.80183E-04
 -1       136 8.04310E-10 2.37265E-02-3.83466E-03
 -1       137 0.00000E+00 0.00000E+00 0.00000E+00
 -1       138-2.29138E-10 6.06117E-03-5.12616E-05
 -1       139 1.39137E-09 2.37670E-02-2.10710E-03
 -1       140-3.75335E-10 6.03953E-03-1.82469E-03
 -1       141 2.82452E-09 9.18181E-02-2.77248E-03
 -1       142 3.61967E-09 9.15281E-02-9.30536E-03
 -1       143 1.41260E-09 9.18181E-02-2.77248E-03
 -1       144 1.81029E-09 9.15281E-02-9.30536E-03
 -1       145-9.43946E-10 5.26061E-02-1.22180E-03
 -1       146 3.22096E-09 9.16731E-02-6.03868E-03
 -1       147-1.23120E-09 5.24340E-02-6.26191E-03
 -1       148 4.88928E-09 1.98935E-01-8.58542E-03
 -1       149 6.42756E-09 1.98355E-01-1.78199E-02
 -1       150 2.44535E-09 1.98935E-01-8.58541E-03
 -1       151 3.21437E-09 1.98355E-01-1.78199E-02
 -1       152-1.87827E-09 1.40807E-01-5.18707E-03
 -1       153 5.66122E-09 1.98645E-01-1.32024E-02
 -1       154-2.38446E-09 1.40380E-01-1.31171E-02
 -1       155 7.31573E-09 3.40070E-01-1.86392E-02
 -1       156 1.05181E-08 3.39159E-01-3.02003E-02
 -1       157 3.65911E-09 3.40070E-01-1.86391E-02
 -1       158 5.26132E-09 3.39159E-01-3.02003E-02
 -1       159-3.00673E-09 2.65567E-01-1.30516E-02
 -1       160 8.90432E-09 3.39614E-01-2.44195E-02
 -1       161-4.03584E-09 2.64826E-01-2.34956E-02
 -1       162 1.00394E-08 5.10177E-01-3.32446E-02
 -1       163 1.63057E-08 5.08929E-01-4.67616E-02
 -1       164 5.02150E-09 5.10177E-01-3.32446E-02
 -1       165 8.15170E-09 5.08929E-01-4.67616E-02
 -1       166-4.30182E-09 4.21815E-01-2.53711E-02
 -1       167 1.32168E-08 5.09553E-01-4.00028E-02
 -1       168-6.47046E-09 4.20736E-01-3.79559E-02
 -1       169 1.29571E-08 7.04274E-01-5.22823E-02
 -1       170 2.48502E-08 7.02712E-01-6.73896E-02
 -1       171 6.48138E-09 7.04274E-01-5.22823E-02
 -1       172 1.24402E-08 7.02712E-01-6.73896E-02
 -1       173-5.72700E-09 6.04536E-01-4.22314E-02
 -1       174 1.87345E-08 7.03493E-01-5.98357E-02
 -1       175-9.81882E-09 6.03128E-01-5.65890E-02
 -1       176 1.59233E-08 9.17450E-01-7.52800E-02
 -1       177 3.53217E-08 9.15621E-01-9.16172E-02
 -1       178 7.96441E-09 9.17450E-01-7.52800E-02
 -1       179 1.76197E-08 9.15621E-01-9.16172E-02
 -1       180-7.21445E-09 8.08782E-01-6.33271E-02
 -1       181 2.62504E-08 9.16536E-01-8.34483E-02
 -1       182-1.50058E-08 8.07081E-01-7.90947E-02
 -1       183 1.86820E-08 1.14487E+00-1.01487E-01
 -1       184 5.46330E-08 1.14283E+00-1.18699E-01
 -1       185 9.34728E-09 1.14487E+00-1.01487E-01
 -1       186 2.74886E-08 1.14283E+00-1.18699E-01
 -1       187-8.69236E-09 1.02968E+00-8.80376E-02
 -1       188 3.43034E-08 1.14385E+00-1.10092E-01
 -1       189-2.02950E-08 1.02774E+00-1.04857E-01
 -1       190 2.09548E-08 1.38174E+00-1.29946E-01
 -1       191 6.17271E-08 1.37958E+00-1.47681E-01
 -1       192 1.04774E-08 1.38174E+00-1.29946E-01
 -1       193 3.02483E-08 1.37958E+00-1.47681E-01
 -1       194-9.95289E-09 1.26242E+00-1.15500E-01
 -1       195 5.01385E-08 1.38066E+00-1.38813E-01
 -1       196-3.42640E-08 1.26031E+00-1.33019E-01
 -1       197 2.21861E-08 1.62333E+00-1.59566E-01
 -1       198 1.41194E-07 1.62112E+00-1.77474E-01
 -1       199 1.11089E-08 1.62333E+00-1.59566E-01
 -1       200 7.29115E-08 1.62112E+00-1.77474E-01
 -1       201-1.10224E-08 1.50224E+00-1.44682E-01
 -1       202 4.87705E-08 1.62222E+00-1.68520E-01
 -1       203-2.75494E-08 1.50005E+00-1.62549E-01
 -1       204 0.00000E+00 0.00000E+00 0.00000E+00
 -1       205-4.57780E-09 2.38889E-02 3.07376E-03
 -1       206 0.00000E+00 0.00000E+00 0.00000E+00
 -1       207 1.72818E-13 2.38888E-02 3.07377E-03
 -1       208 0.00000E+00 0.00000E+00 0.00000E+00
 -1       209 1.02529E-09 6.08278E-03 1.72235E-03
 -1       210-2.87593E-09 2.38483E-02 1.34647E-03
 -1       211 0.00000E+00 0.00000E+00 0.00000E+00
 -1       212-2.28890E-09 2.38888E-02 3.07376E-03
 -1       213 0.00000E+00 0.00000E+00 0.00000E+00
 -1       214 4.44172E-14 6.08278E-03 1.72234E-03
 -1       215 1.70784E-13 2.38483E-02 1.34647E-03
 -1       216-9.80541E-09 9.21082E-02 3.75965E-03
 -1       217 6.73575E-13 9.21081E-02 3.75966E-03
 -1       218 3.55309E-09 5.27783E-02 3.81865E-03
 -1       219-6.31540E-09 9.19632E-02 4.93348E-04
 -1       220-4.90222E-09 9.21082E-02 3.75965E-03
 -1       221 3.83085E-13 5.27783E-02 3.81864E-03
 -1       222 6.69437E-13 9.19631E-02 4.93359E-04
 -1       223-1.50932E-08 1.99515E-01 6.48263E-04
 -1       224 1.48555E-12 1.99515E-01 6.48283E-04
 -1       225 6.25598E-09 1.41234E-01 2.74338E-03
 -1       226-9.98678E-09 1.99225E-01-3.96883E-03
 -1       227-7.54590E-09 1.99515E-01 6.48273E-04
 -1       228 1.04168E-12 1.41234E-01 2.74337E-03
 -1       229 1.47946E-12 1.99225E-01-3.96882E-03
 -1       230-1.97733E-08 3.40981E-01-7.07870E-03
 -1       231 2.58563E-12 3.40981E-01-7.07868E-03
 -1       232 8.84503E-09 2.66308E-01-2.60733E-03
 -1       233-1.35547E-08 3.40525E-01-1.28592E-02
 -1       234-9.88413E-09 3.40981E-01-7.07869E-03
 -1       235 2.00147E-12 2.66308E-01-2.60734E-03
 -1       236 2.57786E-12 3.40525E-01-1.28592E-02
 -1       237-2.32159E-08 5.11425E-01-1.97280E-02
 -1       238 3.93776E-12 5.11425E-01-1.97280E-02
 -1       239 1.09414E-08 4.22894E-01-1.27859E-02
 -1       240-1.65786E-08 5.10801E-01-2.64865E-02
 -1       241-1.16089E-08 5.11425E-01-1.97280E-02
 -1       242 3.23282E-12 4.22894E-01-1.27859E-02
 -1       243 3.92838E-12 5.10801E-01-2.64865E-02
 -1       244-2.40628E-08 7.05837E-01-3.71751E-02
 -1       245 5.49125E-12 7.05836E-01-3.71751E-02
 -1       246 1.22941E-08 6.05943E-01-2.78736E-02
 -1       247-1.86758E-08 7.05055E-01-4.47290E-02
 -1       248-1.20156E-08 7.05836E-01-3.71751E-02
 -1       249 4.69218E-12 6.05943E-01-2.78736E-02
 -1       250 5.48032E-12 7.05055E-01-4.47290E-02
 -1       251-2.27168E-08 9.19281E-01-5.89423E-02
 -1       252 7.18529E-12 9.19281E-01-5.89423E-02
 -1       253 1.17956E-08 8.10483E-01-4.75597E-02
 -1       254-1.86786E-08 9.18366E-01-6.71114E-02
 -1       255-1.14000E-08 9.19281E-01-5.89423E-02
 -1       256 6.32341E-12 8.10483E-01-4.75597E-02
 -1       257 7.17395E-12 9.18366E-01-6.71114E-02
 -1       258-1.16304E-08 1.14690E+00-8.42740E-02
 -1       259 8.96703E-12 1.14690E+00-8.42740E-02
 -1       260 1.09582E-08 1.03162E+00-7.12182E-02
 -1       261-1.75179E-08 1.14588E+00-9.28806E-02
 -1       262-5.63991E-09 1.14690E+00-8.42740E-02
 -1       263 8.06941E-12 1.03162E+00-7.12182E-02
 -1       264 8.95475E-12 1.14588E+00-9.28806E-02
 -1       265-1.10321E-08 1.38390E+00-1.12210E-01
 -1       266 1.07903E-11 1.38390E+00-1.12210E-01
 -1       267 7.10947E-10 1.26452E+00-9.79823E-02
 -1       268-7.14886E-09 1.38282E+00-1.21078E-01
 -1       269-6.13575E-09 1.38390E+00-1.12210E-01
 -1       270 9.87562E-12 1.26452E+00-9.79823E-02
 -1       271 1.07772E-11 1.38282E+00-1.21078E-01
 -1       272 6.49681E-08 1.62553E+00-1.41654E-01
 -1       273 1.26300E-11 1.62553E+00-1.41654E-01
 -1       274 1.04044E-08 1.50443E+00-1.26816E-01
 -1       275-1.15653E-08 1.62443E+00-1.50610E-01
 -1       276 3.47995E-08 1.62553E+00-1.41654E-01
 -1       277 1.17095E-11 1.50443E+00-1.26816E-01
 -1       278 1.26164E-11 1.62443E+00-1.50610E-01
 -1       279 0.00000E+00 0.00000E+00 0.00000E+00
 -1       280 4.57814E-09 2.38889E-02 3.07376E-03
 -1       281 0.00000E+00 0.00000E+00 0.00000E+00
 -1       282 2.28924E-09 2.38888E-02 3.07376E-03
 -1       283 0.00000E+00 0.00000E+00 0.00000E+00
 -1       284-1.02520E-09 6.08278E-03 1.72235E-03
 -1       285 2.87627E-09 2.38483E-02 1.34647E-03
 -1       286 9.80675E-09 9.21082E-02 3.75965E-03
 -1       287 4.90356E-09 9.21082E-02 3.75965E-03
 -1       288-3.55233E-09 5.27783E-02 3.81865E-03
 -1       289 6.31674E-09 9.19632E-02 4.93348E-04
 -1       290 1.50961E-08 1.99515E-01 6.48263E-04
 -1       291 7.54887E-09 1.99515E-01 6.48273E-04
 -1       292-6.25390E-09 1.41234E-01 2.74338E-03
 -1       293 9.98974E-09 1.99225E-01-3.96883E-03
 -1       294 1.97785E-08 3.40981E-01-7.07870E-03
 -1       295 9.88931E-09 3.40981E-01-7.07869E-03
 -1       296-8.84103E-09 2.66308E-01-2.60733E-03
 -1       297 1.35598E-08 3.40525E-01-1.28592E-02
 -1       298 2.32238E-08 5.11425E-01-1.97280E-02
 -1       299 1.16168E-08 5.11425E-01-1.97280E-02
 -1       300-1.09350E-08 4.22894E-01-1.27859E-02
 -1       301 1.65865E-08 5.10801E-01-2.64865E-02
 -1       302 2.40738E-08 7.05837E-01-3.71751E-02
 -1       303 1.20266E-08 7.05836E-01-3.71751E-02
 -1       304-1.22847E-08 6.05943E-01-2.78736E-02
 -1       305 1.86868E-08 7.05055E-01-4.47290E-02
 -1       306 2.27311E-08 9.19281E-01-5.89423E-02
 -1       307 1.14144E-08 9.19281E-01-5.89423E-02
 -1       308-1.17829E-08 8.10483E-01-4.75597E-02
 -1       309 1.86929E-08 9.18366E-01-6.71114E-02
 -1       310 1.16483E-08 1.14690E+00-8.42740E-02
 -1       311 5.65785E-09 1.14690E+00-8.42740E-02
 -1       312-1.09421E-08 1.03162E+00-7.12182E-02
 -1       313 1.75358E-08 1.14588E+00-9.28806E-02
 -1       314 1.10537E-08 1.38390E+00-1.12210E-01
 -1       315 6.15733E-09 1.38390E+00-1.12210E-01
 -1       316-6.91196E-10 1.26452E+00-9.79823E-02
 -1       317 7.17042E-09 1.38282E+00-1.21078E-01
 -1       318-6.49428E-08 1.62553E+00-1.41654E-01
 -1       319-3.47742E-08 1.62553E+00-1.41654E-01
 -1       320-1.03809E-08 1.50443E+00-1.26816E-01
 -1       321 1.15906E-08 1.62443E+00-1.50610E-01
 -3
    1PSTEP                         2           1           1          
  100CL  101 5.00000E-02         321                     0    1           1
 -4  STRESS      6    1
 -5  SXX         1    4    1    1
 -5  SYY         1    4    2    2
 -5  SZZ         1    4    3    3
 -5  SXY         1    4    1    2
 -5  SYZ         1    4    2    3
 -5  SZX         1    4    3    1
 -1         1 1.57791E+00-1.00664E+03-3.63008E+05-1.63744E+01 5.27331E+02 4.79585E-01
 -1         2 1.08922E+00-1.09120E+03-1.00978E+03-5.79467E+00 9.20242E+02 1.21062E+00
 -1         3 1.58559E-01-5.43784E+02-9.37095E+02-1.01427E-01 1.77091E+03 1.13264E-01
 -1         4 1.33886E-01-6.13580E+02-3.25537E+05-1.12843E-01-1.55685E+04 4.05378E-01
 -1         5 1.57791E+00-9.91316E+02-3.63008E+05 1.50166E-08 5.31003E+02-1.25652E-07
 -1         6 1.08922E+00-1.09100E+03-1.01027E+03 2.13746E-08 9.22942E+02 6.32956E-09
 -1         7 1.57461E-01-5.43644E+02-9.37514E+02-1.43054E-08 1.77172E+03 4.45449E-12
 -1         8 1.33296E-01-6.12969E+02-3.25537E+05-3.49799E-08-1.55656E+04-2.88578E-07
 -1         9 1.33301E+00-1.06325E+03-1.81996E+05-1.07587E+01 7.73639E+02 8.40408E-01
 -1        10-8.55700E-02-5.03884E+02-9.31590E+02 4.28283E-02 1.33124E+03-4.49823E-02
 -1        11 1.46244E-01-5.81198E+02-1.63231E+05-1.04630E-01-6.90757E+03 2.54470E-01
 -1        12-3.54696E-02-4.80146E+02-3.44373E+05 3.68888E-02-7.59245E+03-1.96326E-01
 -1        13 1.57791E+00-9.98980E+02-3.63008E+05-1.64585E+01 5.29167E+02 4.03562E-01
 -1        14 1.08922E+00-1.09110E+03-1.01003E+03-5.55530E+00 9.21592E+02 1.15444E+00
 -1        15 1.58010E-01-5.43714E+02-9.37305E+02-1.00451E-01 1.77132E+03 3.87191E-02
 -1        16 1.33591E-01-6.13274E+02-3.25537E+05-1.15855E-01-1.55670E+04 3.18053E-01
 -1        17 1.33301E+00-1.04800E+03-1.81997E+05 1.54724E-08 7.76204E+02-5.99424E-08
 -1        18-8.61190E-02-5.03915E+02-9.31357E+02 6.38357E-09 1.33084E+03 2.44495E-10
 -1        19 1.45399E-01-5.80786E+02-1.63231E+05-1.27502E-08-6.90569E+03-1.30727E-07
 -1        20-3.57648E-02-4.80297E+02-3.44373E+05-3.92333E-10-7.59394E+03-2.02154E-07
 -1        21 1.37912E-01-1.68599E+02-8.28588E+02-1.32726E-01 1.51565E+03 1.47921E-01
 -1        22 2.67076E-01-2.27725E+03-2.87205E+05-1.90177E-01-2.55502E+04 4.47928E-01
 -1        23 1.37869E-01-1.68306E+02-8.28916E+02 2.23450E-08 1.51654E+03 6.14881E-10
 -1        24 2.65044E-01-2.27606E+03-2.87206E+05 8.26457E-08-2.55471E+04-2.83141E-07
 -1        25-7.32587E-02-3.80005E+02-8.69853E+02 5.93952E-02 1.63337E+03-6.69660E-02
 -1        26 2.03261E-01-1.22408E+03-1.44015E+05-1.61087E-01-1.20233E+04 2.93724E-01
 -1        27-9.90724E-02-1.47534E+03-3.06354E+05 7.61970E-02-2.06055E+04-2.10718E-01
 -1        28 1.37891E-01-1.68453E+02-8.28752E+02-1.68532E-01 1.51610E+03 5.44824E-02
 -1        29 2.66060E-01-2.27665E+03-2.87206E+05-2.31546E-01-2.55487E+04 3.34089E-01
 -1        30-7.38293E-02-3.80113E+02-8.69667E+02-3.60014E-09 1.63294E+03 9.72951E-11
 -1        31 2.02223E-01-1.22326E+03-1.44015E+05 4.61768E-08-1.20213E+04-1.36434E-07
 -1        32-1.00384E-01-1.47580E+03-3.06354E+05-3.18935E-08-2.06070E+04-2.85703E-07
 -1        33 1.20343E-01 3.86126E+01-7.60072E+02-1.76647E-01 1.55110E+03 1.64816E-01
 -1        34 4.21250E-01-3.93806E+03-2.48837E+05-2.78763E-01-3.14245E+04 5.20843E-01
 -1        35 1.20815E-01 3.90715E+01-7.60311E+02 2.79673E-07 1.55214E+03-4.01333E-09
 -1        36 4.23519E-01-3.93631E+03-2.48837E+05-2.49026E-07-3.14213E+04-3.19308E-07
 -1        37-6.47865E-02-9.65258E+01-7.89943E+02 7.48095E-02 1.52538E+03-7.97050E-02
 -1        38 2.68897E-01-1.95209E+03-1.24795E+05-2.29580E-01-1.49405E+04 3.39097E-01
 -1        39-1.69137E-01-3.15154E+03-2.67998E+05 1.14442E-01-2.85195E+04-2.39107E-01
 -1        40 1.20579E-01 3.88420E+01-7.60192E+02-2.48063E-01 1.55162E+03 5.95895E-02
 -1        41 4.22385E-01-3.93718E+03-2.48837E+05-3.53894E-01-3.14229E+04 3.63026E-01
 -1        42-6.45719E-02-9.67118E+01-7.89802E+02 1.10038E-07 1.52490E+03 2.28511E-09
 -1        43 2.70268E-01-1.95087E+03-1.24795E+05-6.78105E-10-1.49384E+04-1.52002E-07
 -1        44-1.69018E-01-3.15227E+03-2.67997E+05-5.04005E-08-2.85211E+04-3.04417E-07
 -1        45 9.87800E-02 2.45856E+02-6.87887E+02-2.00931E-01 1.50740E+03 1.63792E-01
 -1        46 5.88380E-01-5.28349E+03-2.10971E+05-3.39390E-01-3.34453E+04 6.31810E-01
 -1        47 9.94584E-02 2.46496E+02-6.88028E+02 1.62042E-07 1.50865E+03-1.07850E-08
 -1        48 5.72114E-01-5.28127E+03-2.10972E+05-2.11357E-09-3.34418E+04-2.46542E-07
 -1        49-5.55536E-02 1.04207E+02-7.32179E+02 1.04097E-01 1.52360E+03-8.39509E-02
 -1        50 3.52039E-01-2.52148E+03-1.05826E+05-2.74180E-01-1.59719E+04 3.96703E-01
 -1        51-2.53706E-01-4.65815E+03-2.29867E+05 1.64852E-01-3.24532E+04-2.84320E-01
 -1        52 9.91192E-02 2.46176E+02-6.87958E+02-3.28009E-01 1.50803E+03 5.16909E-02
 -1        53 5.80247E-01-5.28238E+03-2.10972E+05-5.02516E-01-3.34435E+04 4.07908E-01
 -1        54-5.49778E-02 1.03932E+02-7.32081E+02 2.38482E-07 1.52303E+03-1.90183E-08
 -1        55 3.44245E-01-2.51988E+03-1.05827E+05 9.92007E-08-1.59695E+04-1.31073E-07
 -1        56-2.60706E-01-4.65916E+03-2.29867E+05-1.52952E-07-3.24549E+04-2.72789E-07
 -1        57 6.45806E-02 4.10509E+02-6.29763E+02-3.41481E-01 1.48614E+03 1.47505E-01
 -1        58 8.32621E-01-5.99464E+03-1.73883E+05-5.16346E-01-3.23465E+04 7.72362E-01
 -1        59 6.70282E-02 4.11397E+02-6.29819E+02-1.99644E-09 1.48774E+03 5.19270E-09
 -1        60 8.82040E-01-5.99171E+03-1.73884E+05 7.82314E-07-3.23428E+04-2.55728E-07
 -1        61-4.32867E-02 2.85027E+02-6.75828E+02 9.98747E-02 1.49252E+03-7.83657E-02
 -1        62 4.18833E-01-2.79515E+03-8.72533E+04-4.36465E-01-1.54329E+04 4.54159E-01
 -1        63-3.37178E-01-5.68797E+03-1.92386E+05 1.75856E-01-3.29006E+04-3.48937E-01
 -1        64 6.58044E-02 4.10953E+02-6.29791E+02-4.72060E-01 1.48694E+03 4.02795E-02
 -1        65 8.57331E-01-5.99318E+03-1.73884E+05-6.22284E-01-3.23446E+04 4.67256E-01
 -1        66-4.17247E-02 2.84658E+02-6.75784E+02 6.01974E-08 1.49183E+03 8.64643E-09
 -1        67 4.44766E-01-2.79303E+03-8.72539E+04 4.20708E-07-1.54302E+04-1.30313E-07
 -1        68-3.20596E-01-5.68918E+03-1.92385E+05 1.71199E-07-3.29024E+04-2.75309E-07
 -1        69 1.57718E-02 5.44929E+02-5.78323E+02-1.08942E-01 1.46339E+03 8.66898E-02
 -1        70 9.60868E-01-5.96326E+03-1.37694E+05-2.71332E-01-2.87130E+04 1.02310E+00
 -1        71 1.44677E-02 5.45988E+02-5.78185E+02 1.59954E-07 1.46522E+03-5.46031E-08
 -1        72 7.62610E-01-5.96047E+03-1.37695E+05-8.64111E-07-2.87083E+04-2.98783E-07
 -1        73-2.07358E-02 4.31174E+02-6.30628E+02 2.45997E-01 1.47080E+03-6.83848E-02
 -1        74 6.01841E-01-2.71345E+03-6.91326E+04-1.96877E-01-1.36287E+04 5.73857E-01
 -1        75-4.97284E-01-6.02534E+03-1.55743E+05 3.40026E-01-3.05214E+04-4.30708E-01
 -1        76 1.51198E-02 5.45458E+02-5.78254E+02-4.68205E-01 1.46430E+03-1.94696E-02
 -1        77 8.61739E-01-5.96186E+03-1.37695E+05-9.41555E-01-2.87107E+04 5.62562E-01
 -1        78-2.01603E-02 4.30649E+02-6.30615E+02 2.97722E-07 1.46988E+03-2.26679E-08
 -1        79 5.02059E-01-2.71123E+03-6.91333E+04-3.65010E-07-1.36254E+04-1.73153E-07
 -1        80-5.71723E-01-6.02707E+03-1.55743E+05 2.30868E-07-3.05234E+04-2.40431E-07
 -1        81-6.84863E-02 6.45800E+02-5.33816E+02-1.34110E+00 1.44510E+03 9.73250E-02
 -1        82 1.75204E+00-5.20354E+03-1.02374E+05-1.62664E+00-2.31293E+04 1.07291E+00
 -1        83-5.53585E-02 6.47535E+02-5.33858E+02-2.10897E-07 1.44812E+03 3.47492E-08
 -1        84 2.46800E+00-5.19765E+03-1.02375E+05 5.36512E-07-2.31253E+04-3.29690E-08
 -1        85 3.49784E-03 5.47259E+02-5.94261E+02-1.32731E-01 1.44889E+03-1.48490E-02
 -1        86 4.21070E-01-2.28241E+03-5.14508E+04-1.51224E+00-1.08454E+04 5.16745E-01
 -1        87-4.72104E-01-5.62367E+03-1.19984E+05-6.02941E-02-2.58998E+04-5.79318E-01
 -1        88-6.19224E-02 6.46667E+02-5.33837E+02-1.13346E+00 1.44661E+03 4.82884E-02
 -1        89 2.11002E+00-5.20059E+03-1.02375E+05-6.37339E-01-2.31273E+04 6.15261E-01
 -1        90 9.39593E-03 5.46717E+02-5.94415E+02-4.50601E-09 1.44795E+03 3.98660E-09
 -1        91 7.85618E-01-2.27835E+03-5.14513E+04 9.22834E-08-1.08421E+04-4.42704E-08
 -1        92-2.13180E-01-5.62471E+03-1.19984E+05 1.68472E-07-2.59025E+04-2.33333E-07
 -1        93-1.64777E-01 7.18841E+02-4.99914E+02 2.78121E+00 1.44103E+03-3.45686E-01
 -1        94 3.75207E-01-3.79890E+03-6.77966E+04 2.96468E+00-1.61182E+04 2.29996E+00
 -1        95-1.93145E-01 7.19578E+02-4.98547E+02-4.74684E-07 1.44228E+03-5.82189E-08
 -1        96-2.30896E+00-3.80181E+03-6.77998E+04-4.20035E-07-1.61078E+04-1.44710E-07
 -1        97 7.15296E-02 6.35575E+02-5.70342E+02 1.48515E+00 1.43384E+03-8.66250E-02
 -1        98 1.68015E+00-1.55168E+03-3.41406E+04 2.91252E+00-7.35093E+03 1.25400E+00
 -1        99-1.26601E+00-4.53026E+03-8.50289E+04 1.66296E+00-1.95881E+04-5.60184E-01
 -1       100-1.78961E-01 7.19209E+02-4.99230E+02 5.39153E-01 1.44165E+03-4.62914E-01
 -1       101-9.66879E-01-3.80035E+03-6.77982E+04-2.81913E+00-1.61130E+04 9.65914E-01
 -1       102 6.39602E-02 6.34378E+02-5.70134E+02-5.99253E-07 1.43173E+03 4.30612E-08
 -1       103 3.23873E-01-1.55205E+03-3.41418E+04-4.20533E-07-7.34458E+03-1.05673E-07
 -1       104-2.25038E+00-4.53517E+03-8.50286E+04-3.96807E-07-1.95895E+04-9.70529E-08
 -1       105-3.31164E-01 7.46666E+02-4.56154E+02-1.31603E+01 1.41419E+03 8.42624E-01
 -1       106 7.50676E+00-2.01621E+03-3.37321E+04-1.47149E+01-8.20964E+03-8.29581E-01
 -1       107-2.45667E-01 7.52975E+02-4.59611E+02 1.33705E-06 1.42581E+03 5.69257E-08
 -1       108 1.74390E+01-1.98355E+03-3.37270E+04-1.14252E-06-8.21872E+03 3.52852E-08
 -1       109 6.97232E-02 6.89063E+02-5.52466E+02-4.27637E+00 1.41199E+03 4.49848E-01
 -1       110-2.28920E+00-6.22885E+02-1.70990E+04-1.42069E+01-3.38685E+03-1.03143E+00
 -1       111 8.11851E-01-2.92063E+03-5.06957E+04-4.52266E+00-1.21116E+04-1.50576E+00
 -1       112-2.88416E-01 7.49821E+02-4.57882E+02-6.69529E+00 1.42000E+03 1.17754E+00
 -1       113 1.24729E+01-1.99988E+03-3.37295E+04 4.07977E+00-8.21418E+03 3.06453E-01
 -1       114 9.80970E-02 6.89492E+02-5.54057E+02-3.89200E-08 1.41278E+03-3.83477E-08
 -1       115 2.71970E+00-6.04160E+02-1.70975E+04-8.49529E-08-3.38753E+03 6.19860E-08
 -1       116 4.43686E+00-2.91258E+03-5.06931E+04-2.43069E-07-1.21201E+04-7.89897E-08
 -1       117-8.45466E-01 7.17994E+02-9.98048E+02 6.18207E+01 1.30173E+03-6.85184E+00
 -1       118-4.79932E+01 3.59918E+02 6.42722E+02 8.02229E+01 2.85695E+02-1.90454E+01
 -1       119-9.97049E-01 6.74371E+02-9.82721E+02-1.88242E-06 1.21615E+03 1.22845E-07
 -1       120-8.49275E+01 1.60590E+02 6.50421E+02 7.54681E-07 2.15091E+02-1.91047E-07
 -1       121 3.51838E-01 7.40338E+02-5.68436E+02 1.75276E+01 1.43427E+03-1.32838E+00
 -1       122-2.45679E+00 5.77672E+02-1.93808E+02 7.23438E+01 8.24577E+02-7.32433E+00
 -1       123-8.05145E+00-8.59250E+02-1.67823E+04 1.88502E+01-3.90670E+03 1.41718E+00
 -1       124-9.21258E-01 6.96182E+02-9.90384E+02 4.12231E+01 1.25894E+03-5.93345E+00
 -1       125-6.64604E+01 2.60254E+02 6.46571E+02 1.54746E+01 2.50393E+02-1.44274E+01
 -1       126 3.18945E-01 7.33688E+02-5.63373E+02 2.62111E-07 1.42188E+03 5.61668E-08
 -1       127-2.09998E+01 4.46914E+02-1.86269E+02-3.59243E-07 7.54228E+02-1.11884E-08
 -1       128-2.15533E+01-9.00912E+02-1.67886E+04-6.21495E-07-3.89091E+03-2.64525E-09
 -1       129 1.57791E+00-1.00664E+03-3.63008E+05 1.63744E+01 5.27331E+02-4.79585E-01
 -1       130 1.08922E+00-1.09120E+03-1.00978E+03 5.79467E+00 9.20242E+02-1.21062E+00
 -1       131 1.58559E-01-5.43784E+02-9.37095E+02 1.01427E-01 1.77091E+03-1.13264E-01
 -1       132 1.33886E-01-6.13580E+02-3.25537E+05 1.12843E-01-1.55685E+04-4.05379E-01
 -1       133 1.57791E+00-9.98980E+02-3.63008E+05 1.64585E+01 5.29167E+02-4.03562E-01
 -1       134 1.08922E+00-1.09110E+03-1.01003E+03 5.55530E+00 9.21592E+02-1.15444E+00
 -1       135 1.58010E-01-5.43714E+02-9.37305E+02 1.00451E-01 1.77132E+03-3.87191E-02
 -1       136 1.33591E-01-6.13274E+02-3.25537E+05 1.15855E-01-1.55670E+04-3.18053E-01
 -1       137 1.33301E+00-1.06325E+03-1.81996E+05 1.07587E+01 7.73639E+02-8.40408E-01
 -1       138-8.55700E-02-5.03884E+02-9.31590E+02-4.28284E-02 1.33124E+03 4.49823E-02
 -1       139 1.46244E-01-5.81198E+02-1.63231E+05 1.04630E-01-6.90757E+03-2.54470E-01
 -1       140-3.54696E-02-4.80146E+02-3.44373E+05-3.68888E-02-7.59245E+03 1.96326E-01
 -1       141 1.37912E-01-1.68599E+02-8.28588E+02 1.32726E-01 1.51565E+03-1.47921E-01
 -1       142 2.67076E-01-2.27725E+03-2.87205E+05 1.90177E-01-2.55502E+04-4.47928E-01
 -1       143 1.37891E-01-1.68453E+02-8.28752E+02 1.68532E-01 1.51610E+03-5.44824E-02
 -1       144 2.66060E-01-2.27665E+03-2.87206E+05 2.31547E-01-2.55487E+04-3.34090E-01
 -1       145-7.32587E-02-3.80005E+02-8.69853E+02-5.93951E-02 1.63337E+03 6.69660E-02
 -1       146 2.03261E-01-1.22408E+03-1.44015E+05 1.61087E-01-1.20233E+04-2.93724E-01
 -1       147-9.90724E-02-1.47534E+03-3.06354E+05-7.61969E-02-2.06055E+04 2.10718E-01
 -1       148 1.20343E-01 3.86126E+01-7.60072E+02 1.76647E-01 1.55110E+03-1.64816E-01
 -1       149 4.21250E-01-3.93806E+03-2.48837E+05 2.78763E-01-3.14245E+04-5.20844E-01
 -1       150 1.20579E-01 3.88420E+01-7.60192E+02 2.48063E-01 1.55162E+03-5.95895E-02
 -1       151 4.22385E-01-3.93718E+03-2.48837E+05 3.53894E-01-3.14229E+04-3.63026E-01
 -1       152-6.47865E-02-9.65258E+01-7.89943E+02-7.48095E-02 1.52538E+03 7.97050E-02
 -1       153 2.68897E-01-1.95209E+03-1.24795E+05 2.29580E-01-1.49405E+04-3.39097E-01
 -1       154-1.69137E-01-3.15154E+03-2.67998E+05-1.14442E-01-2.85195E+04 2.39107E-01
 -1       155 9.87800E-02 2.45856E+02-6.87887E+02 2.00931E-01 1.50740E+03-1.63792E-01
 -1       156 5.88380E-01-5.28349E+03-2.10971E+05 3.39390E-01-3.34453E+04-6.31811E-01
 -1       157 9.91192E-02 2.46176E+02-6.87958E+02 3.28009E-01 1.50803E+03-5.16909E-02
 -1       158 5.80247E-01-5.28238E+03-2.10972E+05 5.02515E-01-3.34435E+04-4.07908E-01
 -1       159-5.55535E-02 1.04207E+02-7.32179E+02-1.04096E-01 1.52360E+03 8.39508E-02
 -1       160 3.52039E-01-2.52148E+03-1.05826E+05 2.74180E-01-1.59719E+04-3.96704E-01
 -1       161-2.53706E-01-4.65815E+03-2.29867E+05-1.64852E-01-3.24532E+04 2.84320E-01
 -1       162 6.45806E-02 4.10509E+02-6.29763E+02 3.41480E-01 1.48614E+03-1.47505E-01
 -1       163 8.32621E-01-5.99464E+03-1.73883E+05 5.16345E-01-3.23465E+04-7.72363E-01
 -1       164 6.58044E-02 4.10953E+02-6.29791E+02 4.72059E-01 1.48694E+03-4.02795E-02
 -1       165 8.57331E-01-5.99318E+03-1.73884E+05 6.22284E-01-3.23446E+04-4.67256E-01
 -1       166-4.32867E-02 2.85027E+02-6.75828E+02-9.98748E-02 1.49252E+03 7.83657E-02
 -1       167 4.18833E-01-2.79515E+03-8.72533E+04 4.36464E-01-1.54329E+04-4.54159E-01
 -1       168-3.37178E-01-5.68797E+03-1.92386E+05-1.75856E-01-3.29006E+04 3.48936E-01
 -1       169 1.57718E-02 5.44929E+02-5.78323E+02 1.08941E-01 1.46339E+03-8.66899E-02
 -1       170 9.60868E-01-5.96326E+03-1.37694E+05 2.71334E-01-2.87130E+04-1.02310E+00
 -1       171 1.51198E-02 5.45458E+02-5.78254E+02 4.68205E-01 1.46430E+03 1.94695E-02
 -1       172 8.61739E-01-5.96186E+03-1.37695E+05 9.41555E-01-2.87107E+04-5.62563E-01
 -1       173-2.07358E-02 4.31174E+02-6.30628E+02-2.45998E-01 1.47080E+03 6.83848E-02
 -1       174 6.01841E-01-2.71345E+03-6.91326E+04 1.96877E-01-1.36287E+04-5.73858E-01
 -1       175-4.97284E-01-6.02534E+03-1.55743E+05-3.40025E-01-3.05214E+04 4.30708E-01
 -1       176-6.84861E-02 6.45800E+02-5.33816E+02 1.34111E+00 1.44510E+03-9.73250E-02
 -1       177 1.75204E+00-5.20354E+03-1.02374E+05 1.62664E+00-2.31293E+04-1.07291E+00
 -1       178-6.19223E-02 6.46667E+02-5.33837E+02 1.13346E+00 1.44661E+03-4.82884E-02
 -1       179 2.11002E+00-5.20059E+03-1.02375E+05 6.37340E-01-2.31273E+04-6.15261E-01
 -1       180 3.49800E-03 5.47259E+02-5.94261E+02 1.32732E-01 1.44889E+03 1.48490E-02
 -1       181 4.21070E-01-2.28241E+03-5.14508E+04 1.51224E+00-1.08454E+04-5.16745E-01
 -1       182-4.72104E-01-5.62367E+03-1.19984E+05 6.02943E-02-2.58998E+04 5.79317E-01
 -1       183-1.64777E-01 7.18841E+02-4.99914E+02-2.78121E+00 1.44103E+03 3.45686E-01
 -1       184 3.75207E-01-3.79890E+03-6.77966E+04-2.96468E+00-1.61182E+04-2.29996E+00
 -1       185-1.78961E-01 7.19209E+02-4.99230E+02-5.39154E-01 1.44165E+03 4.62914E-01
 -1       186-9.66879E-01-3.80035E+03-6.77982E+04 2.81913E+00-1.61130E+04-9.65915E-01
 -1       187 7.15296E-02 6.35575E+02-5.70342E+02-1.48515E+00 1.43384E+03 8.66250E-02
 -1       188 1.68015E+00-1.55168E+03-3.41406E+04-2.91252E+00-7.35093E+03-1.25400E+00
 -1       189-1.26601E+00-4.53026E+03-8.50289E+04-1.66296E+00-1.95881E+04 5.60184E-01
 -1       190-3.31164E-01 7.46666E+02-4.56154E+02 1.31603E+01 1.41419E+03-8.42624E-01
 -1       191 7.50676E+00-2.01621E+03-3.37321E+04 1.47149E+01-8.20964E+03 8.29581E-01
 -1       192-2.88415E-01 7.49821E+02-4.57882E+02 6.69529E+00 1.42000E+03-1.17754E+00
 -1       193 1.24729E+01-1.99988E+03-3.37295E+04-4.07977E+00-8.21418E+03-3.06452E-01
 -1       194 6.97231E-02 6.89063E+02-5.52466E+02 4.27637E+00 1.41199E+03-4.49849E-01
 -1       195-2.28920E+00-6.22885E+02-1.70990E+04 1.42069E+01-3.38685E+03 1.03143E+00
 -1       196 8.11851E-01-2.92063E+03-5.06957E+04 4.52266E+00-1.21116E+04 1.50576E+00
 -1       197-8.45466E-01 7.17994E+02-9.98048E+02-6.18207E+01 1.30173E+03 6.85184E+00
 -1       198-4.79932E+01 3.59918E+02 6.42722E+02-8.02229E+01 2.85695E+02 1.90454E+01
 -1       199-9.21257E-01 6.96182E+02-9.90384E+02-4.12231E+01 1.25894E+03 5.93345E+00
 -1       200-6.64604E+01 2.60254E+02 6.46571E+02-1.54746E+01 2.50393E+02 1.44274E+01
 -1       201 3.51838E-01 7.40338E+02-5.68436E+02-1.75276E+01 1.43427E+03 1.32838E+00
 -1       202-2.45679E+00 5.77672E+02-1.93808E+02-7.23438E+01 8.24577E+02 7.32433E+00
 -1       203-8.05145E+00-8.59250E+02-1.67823E+04-1.88502E+01-3.90670E+03-1.41718E+00
 -1       204 4.40546E+00-1.17737E+03 3.65027E+05-1.73372E+01 1.31602E+03 5.66274E+00
 -1       205 2.17242E-01 6.76824E+02 3.27235E+05-1.80181E-01 1.57612E+04-4.84659E-03
 -1       206 4.40546E+00-1.19199E+03 3.65024E+05 1.28249E-08 1.32216E+03 1.15624E-07
 -1       207 2.15860E-01 6.77290E+02 3.27233E+05 2.52877E-08 1.57642E+04 2.90984E-07
 -1       208 2.74790E+00-1.11995E+03 1.81996E+05-1.18918E+01 1.06828E+03 3.44137E+00
 -1       209-1.58380E-01 4.80429E+01 3.46149E+05 6.70034E-02 8.58934E+03 2.55445E-02
 -1       210 1.87880E-01 6.90364E+01 1.63142E+05-1.43310E-01 8.77482E+03 5.90596E-02
 -1       211 4.40546E+00-1.18468E+03 3.65025E+05-1.67812E+01 1.31909E+03 5.43537E+00
 -1       212 2.16551E-01 6.77057E+02 3.27234E+05-1.92030E-01 1.57627E+04-2.61598E-01
 -1       213 2.74790E+00-1.13465E+03 1.81995E+05 1.98230E-08 1.07332E+03 6.12577E-08
 -1       214-1.59070E-01 4.79234E+01 3.46150E+05-5.29154E-09 8.58784E+03 2.08272E-07
 -1       215 1.86640E-01 6.93023E+01 1.63141E+05-6.40130E-09 8.77676E+03 1.31935E-07
 -1       216 1.90120E-02 2.22132E+03 2.88529E+05-2.73560E-01 2.62429E+04 2.91191E-02
 -1       217 2.13863E-02 2.22222E+03 2.88528E+05-4.51630E-08 2.62460E+04 2.86375E-07
 -1       218-5.88086E-02 1.43377E+03 3.07843E+05 1.13146E-01 2.10297E+04-1.34347E-02
 -1       219 7.76960E-02 1.02752E+03 1.43848E+05-2.03508E-01 1.38853E+04 9.27211E-02
 -1       220 2.01992E-02 2.22177E+03 2.88528E+05-3.38668E-01 2.62445E+04-2.40159E-01
 -1       221-5.83125E-02 1.43342E+03 3.07844E+05 1.24502E-08 2.10281E+04 2.91812E-07
 -1       222 7.88616E-02 1.02804E+03 1.43847E+05-5.09049E-09 1.38873E+04 1.38665E-07
 -1       223-1.94843E-01 4.01795E+03 2.49889E+05-3.91258E-01 3.19982E+04-2.52318E-02
 -1       224-1.95867E-01 4.01922E+03 2.49889E+05 2.86428E-07 3.20016E+04 3.29635E-07
 -1       225 4.02408E-02 3.10567E+03 2.69183E+05 1.61554E-01 2.91473E+04-8.50385E-03
 -1       226-3.53514E-02 2.03065E+03 1.24561E+05-2.82078E-01 1.67784E+04 7.35249E-02
 -1       227-1.95355E-01 4.01858E+03 2.49889E+05-4.94492E-01 3.19999E+04-2.71953E-01
 -1       228 4.09164E-02 3.10512E+03 2.69183E+05 1.24509E-07 2.91457E+04 3.06502E-07
 -1       229-3.56270E-02 2.03139E+03 1.24561E+05 2.99052E-07 1.67806E+04 1.53152E-07
 -1       230-4.34281E-01 5.41604E+03 2.11771E+05-5.07303E-01 3.40361E+04-1.69312E-01
 -1       231-4.14910E-01 5.41778E+03 2.11771E+05-2.58438E-07 3.40400E+04 2.74834E-07
 -1       232 1.55570E-01 4.69680E+03 2.30815E+05 2.31877E-01 3.30433E+04 4.17789E-02
 -1       233-1.76210E-01 2.83361E+03 1.05538E+05-3.50098E-01 1.77747E+04-1.66179E-03
 -1       234-4.24596E-01 5.41691E+03 2.11771E+05-6.83988E-01 3.40380E+04-3.55159E-01
 -1       235 1.64743E-01 4.69608E+03 2.30815E+05-3.04480E-08 3.30415E+04 3.18286E-07
 -1       236-1.66184E-01 2.83463E+03 1.05539E+05-6.74350E-08 1.77772E+04 1.34433E-07
 -1       237-7.74965E-01 6.18273E+03 1.74482E+05-7.70977E-01 3.29009E+04-4.24238E-01
 -1       238-8.21774E-01 6.18459E+03 1.74483E+05 4.40894E-09 3.29053E+04 2.55145E-07
 -1       239 2.80165E-01 5.77492E+03 1.93121E+05 2.78342E-01 3.34954E+04 1.34157E-01
 -1       240-3.25424E-01 3.29970E+03 8.69229E+04-5.48678E-01 1.71962E+04-1.32592E-01
 -1       241-7.98369E-01 6.18366E+03 1.74482E+05-8.58255E-01 3.29031E+04-5.10379E-01
 -1       242 2.66452E-01 5.77390E+03 1.93121E+05-6.80429E-07 3.34933E+04 3.05536E-07
 -1       243-3.47605E-01 3.30086E+03 8.69234E+04-2.93435E-08 1.71992E+04 1.35214E-07
 -1       244-1.05544E+00 6.18697E+03 1.38126E+05-6.68975E-01 2.92357E+04-7.59778E-01
 -1       245-8.47099E-01 6.19023E+03 1.38127E+05-1.17757E-07 2.92411E+04 2.67185E-07
 -1       246 4.97893E-01 6.15641E+03 1.56311E+05 4.97058E-01 3.10967E+04 3.04886E-01
 -1       247-6.33357E-01 3.37024E+03 6.87701E+04-3.82218E-01 1.53534E+04-3.55506E-01
 -1       248-9.51272E-01 6.18860E+03 1.38126E+05-1.23909E+00 2.92384E+04-6.75267E-01
 -1       249 5.78643E-01 6.15556E+03 1.56310E+05 1.34829E-07 3.10943E+04 2.45110E-07
 -1       250-5.29835E-01 3.37210E+03 6.87710E+04 3.40301E-08 1.53570E+04 1.02751E-07
 -1       251-2.02752E+00 5.45282E+03 1.02670E+05-2.16457E+00 2.36223E+04-1.38669E+00
 -1       252-2.75078E+00 5.45275E+03 1.02673E+05 7.83235E-07 2.36279E+04 8.42149E-08
 -1       253 5.58473E-01 5.78852E+03 1.20421E+05 1.74446E-01 2.64589E+04 4.44224E-01
 -1       254-6.27298E-01 3.05285E+03 5.10649E+04-1.72447E+00 1.25370E+04-5.76309E-01
 -1       255-2.38915E+00 5.45279E+03 1.02672E+05-1.04558E+00 2.36251E+04-1.13115E+00
 -1       256 3.01082E-01 5.78614E+03 1.20420E+05 7.31001E-07 2.64559E+04 1.67334E-07
 -1       257-9.82367E-01 3.05343E+03 5.10664E+04 3.56692E-07 1.25415E+04 1.04643E-07
 -1       258-1.02311E+00 4.04994E+03 6.79936E+04 2.04469E+00 1.65682E+04-1.62348E+00
 -1       259 1.70797E+00 4.06422E+03 6.79954E+04-2.87994E-07 1.65778E+04 1.38768E-07
 -1       260 1.48543E+00 4.71908E+03 8.53767E+04 2.00338E+00 2.01256E+04 1.03069E+00
 -1       261-2.16888E+00 2.39604E+03 3.37392E+04 2.37338E+00 9.01696E+03-1.26145E+00
 -1       262 3.42429E-01 4.05708E+03 6.79945E+04-3.21606E+00 1.65730E+04-8.14838E-01
 -1       263 2.48909E+00 4.72143E+03 8.53747E+04 3.65033E-07 2.01229E+04 8.92847E-08
 -1       264-8.17514E-01 2.40283E+03 3.37410E+04-4.08165E-07 9.02184E+03 4.44838E-08
 -1       265-8.32104E+00 2.29280E+03 3.38190E+04-1.53378E+01 8.68996E+03-4.09099E+00
 -1       266-1.83203E+01 2.25527E+03 3.38299E+04-1.48416E-06 8.69042E+03 1.28310E-07
 -1       267-4.99497E-01 3.13712E+03 5.09815E+04-4.06911E+00 1.26574E+04 3.26707E-01
 -1       268 1.55089E+00 1.50785E+03 1.66864E+04-1.39797E+01 5.04121E+03-5.86233E-01
 -1       269-1.33207E+01 2.27404E+03 3.38244E+04 3.12185E+00 8.69019E+03-3.88756E+00
 -1       270-4.13268E+00 3.12090E+03 5.09817E+04-7.29612E-07 1.26512E+04 1.33120E-07
 -1       271-3.40601E+00 1.49300E+03 1.66893E+04 1.08658E-07 5.04919E+03 7.67373E-08
 -1       272 4.53910E+01 2.95931E+01 5.30091E+02 9.17551E+01 6.15750E+02 2.54260E+01
 -1       273 8.23340E+01 1.36614E+02 4.76327E+02 4.04051E-06 4.93422E+02-4.53724E-08
 -1       274 9.00220E+00 1.06317E+03 1.70923E+04 1.95013E+01 4.37772E+03 4.80287E+00
 -1       275 3.10234E-01 3.35078E+02-2.17834E+02 7.54659E+01 9.27880E+02 3.66279E+00
 -1       276 6.38625E+01 8.31036E+01 5.03209E+02 2.55886E+01 5.54586E+02 2.45108E+01
 -1       277 2.24734E+01 1.11540E+03 1.70818E+04 1.01047E-06 4.38151E+03 2.53217E-08
 -1       278 1.87060E+01 3.76059E+02-2.33079E+02 8.74419E-07 8.16174E+02 1.58237E-08
 -1       279 4.40546E+00-1.17737E+03 3.65027E+05 1.73372E+01 1.31602E+03-5.66274E+00
 -1       280 2.17242E-01 6.76824E+02 3.27235E+05 1.80181E-01 1.57612E+04 4.84683E-03
 -1       281 4.40546E+00-1.18468E+03 3.65025E+05 1.67812E+01 1.31909E+03-5.43537E+00
 -1       282 2.16551E-01 6.77057E+02 3.27234E+05 1.92030E-01 1.57627E+04 2.61598E-01
 -1       283 2.74790E+00-1.11995E+03 1.81996E+05 1.18918E+01 1.06828E+03-3.44137E+00
 -1       284-1.58380E-01 4.80429E+01 3.46149E+05-6.70034E-02 8.58934E+03-2.55443E-02
 -1       285 1.87880E-01 6.90364E+01 1.63142E+05 1.43310E-01 8.77482E+03-5.90595E-02
 -1       286 1.90120E-02 2.22132E+03 2.88529E+05 2.73560E-01 2.62429E+04-2.91187E-02
 -1       287 2.01992E-02 2.22177E+03 2.88528E+05 3.38668E-01 2.62445E+04 2.40160E-01
 -1       288-5.88086E-02 1.43377E+03 3.07843E+05-1.13146E-01 2.10297E+04 1.34351E-02
 -1       289 7.76960E-02 1.02752E+03 1.43848E+05 2.03508E-01 1.38853E+04-9.27209E-02
 -1       290-1.94843E-01 4.01795E+03 2.49889E+05 3.91258E-01 3.19982E+04 2.52323E-02
 -1       291-1.95355E-01 4.01858E+03 2.49889E+05 4.94492E-01 3.19999E+04 2.71954E-01
 -1       292 4.02408E-02 3.10567E+03 2.69183E+05-1.61554E-01 2.91473E+04 8.50432E-03
 -1       293-3.53514E-02 2.03065E+03 1.24561E+05 2.82078E-01 1.67784E+04-7.35247E-02
 -1       294-4.34281E-01 5.41604E+03 2.11771E+05 5.07304E-01 3.40361E+04 1.69312E-01
 -1       295-4.24596E-01 5.41691E+03 2.11771E+05 6.83988E-01 3.40380E+04 3.55160E-01
 -1       296 1.55570E-01 4.69680E+03 2.30815E+05-2.31877E-01 3.30433E+04-4.17784E-02
 -1       297-1.76210E-01 2.83361E+03 1.05538E+05 3.50098E-01 1.77747E+04 1.66205E-03
 -1       298-7.74965E-01 6.18273E+03 1.74482E+05 7.70978E-01 3.29009E+04 4.24239E-01
 -1       299-7.98369E-01 6.18366E+03 1.74482E+05 8.58255E-01 3.29031E+04 5.10379E-01
 -1       300 2.80165E-01 5.77492E+03 1.93121E+05-2.78342E-01 3.34954E+04-1.34156E-01
 -1       301-3.25424E-01 3.29970E+03 8.69229E+04 5.48678E-01 1.71962E+04 1.32592E-01
 -1       302-1.05544E+00 6.18697E+03 1.38126E+05 6.68973E-01 2.92357E+04 7.59779E-01
 -1       303-9.51271E-01 6.18860E+03 1.38126E+05 1.23909E+00 2.92384E+04 6.75268E-01
 -1       304 4.97893E-01 6.15641E+03 1.56311E+05-4.97057E-01 3.10967E+04-3.04886E-01
 -1       305-6.33357E-01 3.37024E+03 6.87701E+04 3.82218E-01 1.53534E+04 3.55506E-01
 -1       306-2.02752E+00 5.45282E+03 1.02670E+05 2.16457E+00 2.36223E+04 1.38669E+00
 -1       307-2.38915E+00 5.45279E+03 1.02672E+05 1.04558E+00 2.36251E+04 1.13115E+00
 -1       308 5.58473E-01 5.78852E+03 1.20421E+05-1.74447E-01 2.64589E+04-4.44223E-01
 -1       309-6.27298E-01 3.05285E+03 5.10649E+04 1.72447E+00 1.25370E+04 5.76310E-01
 -1       310-1.02311E+00 4.04994E+03 6.79936E+04-2.04469E+00 1.65682E+04 1.62348E+00
 -1       311 3.42429E-01 4.05708E+03 6.79945E+04 3.21606E+00 1.65730E+04 8.14838E-01
 -1       312 1.48543E+00 4.71908E+03 8.53767E+04-2.00338E+00 2.01256E+04-1.03069E+00
 -1       313-2.16888E+00 2.39604E+03 3.37392E+04-2.37338E+00 9.01696E+03 1.26145E+00
 -1       314-8.32104E+00 2.29280E+03 3.38190E+04 1.53378E+01 8.68996E+03 4.09099E+00
 -1       315-1.33207E+01 2.27404E+03 3.38244E+04-3.12185E+00 8.69019E+03 3.88756E+00
 -1       316-4.99497E-01 3.13712E+03 5.09815E+04 4.06912E+00 1.26574E+04-3.26707E-01
 -1       317 1.55089E+00 1.50785E+03 1.66864E+04 1.39797E+01 5.04121E+03 5.86233E-01
 -1       318 4.53910E+01 2.95931E+01 5.30091E+02-9.17551E+01 6.15750E+02-2.54260E+01
 -1       319 6.38625E+01 8.31036E+01 5.03209E+02-2.55886E+01 5.54586E+02-2.45108E+01
 -1       320 9.00220E+00 1.06317E+03 1.70923E+04-1.95013E+01 4.37772E+03-4.80287E+00
 -1       321 3.10234E-01 3.35078E+02-2.17834E+02-7.54659E+01 9.27880E+02-3.66279E+00
 -3
    1PSTEP                         3           2           1          
  100CL  102 1.00000E-01         321                     0    2           1
 -4  DISP        4    1
 -5  D1          1    2    1    0
 -5  D2          1    2    2    0
 -5  D3          1    2    3    0
 -5  ALL         1    2    0    0    1ALL
 -1         1 0.00000E+00 0.00000E+00 0.00000E+00
 -1         2 0.00000E+00 0.00000E+00 0.00000E+00
 -1         3-4.51160E-09 4.55522E-02-1.39230E-03
 -1         4-8.87107E-09 4.52550E-02-7.99571E-03
 -1         5 0.00000E+00 0.00000E+00 0.00000E+00
 -1         6 0.00000E+00 0.00000E+00 0.00000E+00
 -1         7 3.56261E-13 4.55522E-02-1.39229E-03
 -1         8 3.44899E-13 4.52549E-02-7.99570E-03
 -1         9 0.00000E+00 0.00000E+00 0.00000E+00
 -1        10 8.98534E-10 1.16085E-02-1.87938E-04
 -1        11-6.69090E-09 4.54034E-02-4.69335E-03
 -1        12 2.01663E-09 1.15293E-02-3.58249E-03
 -1        13 0.00000E+00 0.00000E+00 0.00000E+00
 -1        14 0.00000E+00 0.00000E+00 0.00000E+00
 -1        15-2.25584E-09 4.55522E-02-1.39230E-03
 -1        16-4.43562E-09 4.52549E-02-7.99571E-03
 -1        17 0.00000E+00 0.00000E+00 0.00000E+00
 -1        18 9.19516E-14 1.16085E-02-1.87940E-04
 -1        19 3.50594E-13 4.54034E-02-4.69334E-03
 -1        20 8.65246E-14 1.15293E-02-3.58249E-03
 -1        21-1.07216E-08 1.75206E-01-1.01132E-02
 -1        22-1.95569E-08 1.74150E-01-2.25401E-02
 -1        23 1.33794E-12 1.75206E-01-1.01131E-02
 -1        24 1.31505E-12 1.74150E-01-2.25401E-02
 -1        25 3.61201E-09 1.00530E-01-4.46611E-03
 -1        26-1.51370E-08 1.74678E-01-1.63261E-02
 -1        27 6.85041E-09 9.99021E-02-1.40767E-02
 -1        28-5.36013E-09 1.75206E-01-1.01131E-02
 -1        29-9.77798E-09 1.74150E-01-2.25401E-02
 -1        30 7.77097E-13 1.00530E-01-4.46612E-03
 -1        31 1.32654E-12 1.74678E-01-1.63261E-02
 -1        32 7.59799E-13 9.99022E-02-1.40767E-02
 -1        33-1.84147E-08 3.78340E-01-3.11782E-02
 -1        34-3.25589E-08 3.76243E-01-4.86423E-02
 -1        35 2.81725E-12 3.78340E-01-3.11782E-02
 -1        36 2.78372E-12 3.76243E-01-4.86422E-02
 -1        37 7.11298E-09 2.68253E-01-1.88795E-02
 -1        38-2.54919E-08 3.77291E-01-3.99097E-02
 -1        39 1.27059E-08 2.66707E-01-3.39203E-02
 -1        40-9.20583E-09 3.78340E-01-3.11782E-02
 -1        41-1.62777E-08 3.76243E-01-4.86422E-02
 -1        42 2.02332E-12 2.68253E-01-1.88795E-02
 -1        43 2.80051E-12 3.77291E-01-3.99097E-02
 -1        44 1.99489E-12 2.66707E-01-3.39203E-02
 -1        45-2.74015E-08 6.44403E-01-6.73828E-02
 -1        46-4.85836E-08 6.41131E-01-8.91131E-02
 -1        47 4.67010E-12 6.44403E-01-6.73828E-02
 -1        48 4.62760E-12 6.41131E-01-8.91130E-02
 -1        49 1.13111E-08 5.04156E-01-4.72900E-02
 -1        50-3.79692E-08 6.42767E-01-7.82475E-02
 -1        51 1.98568E-08 5.01485E-01-6.69807E-02
 -1        52-1.36983E-08 6.44403E-01-6.73828E-02
 -1        53-2.42912E-08 6.41131E-01-8.91130E-02
 -1        54 3.70443E-12 5.04156E-01-4.72900E-02
 -1        55 4.64893E-12 6.42767E-01-7.82474E-02
 -1        56 3.66621E-12 5.01485E-01-6.69807E-02
 -1        57-3.74484E-08 9.63153E-01-1.19657E-01
 -1        58-6.81713E-08 9.58699E-01-1.44912E-01
 -1        59 6.77913E-12 9.63153E-01-1.19657E-01
 -1        60 6.72880E-12 9.58698E-01-1.44912E-01
 -1        61 1.61066E-08 7.97816E-01-9.15158E-02
 -1        62-5.28916E-08 9.60926E-01-1.32284E-01
 -1        63 2.87346E-08 7.93954E-01-1.15099E-01
 -1        64-1.87202E-08 9.63153E-01-1.19657E-01
 -1        65-3.40765E-08 9.58699E-01-1.44912E-01
 -1        66 5.69904E-12 7.97816E-01-9.15158E-02
 -1        67 6.75406E-12 9.60926E-01-1.32284E-01
 -1        68 5.65248E-12 7.93954E-01-1.15099E-01
 -1        69-4.81807E-08 1.32480E+00-1.87413E-01
 -1        70-9.29845E-08 1.31925E+00-2.15487E-01
 -1        71 9.03578E-12 1.32480E+00-1.87413E-01
 -1        72 8.97904E-12 1.31925E+00-2.15487E-01
 -1        73 2.13666E-08 1.13921E+00-1.51686E-01
 -1        74-7.02699E-08 1.32202E+00-2.01449E-01
 -1        75 3.94522E-08 1.13420E+00-1.78438E-01
 -1        76-2.40862E-08 1.32480E+00-1.87413E-01
 -1        77-4.65100E-08 1.31925E+00-2.15487E-01
 -1        78 7.89574E-12 1.13921E+00-1.51686E-01
 -1        79 9.00760E-12 1.32202E+00-2.01449E-01
 -1        80 7.84243E-12 1.13420E+00-1.78438E-01
 -1        81-5.90693E-08 1.72002E+00-2.68870E-01
 -1        82-1.21031E-07 1.71355E+00-2.99091E-01
 -1        83 1.13488E-11 1.72002E+00-2.68870E-01
 -1        84 1.12888E-11 1.71355E+00-2.99091E-01
 -1        85 2.68440E-08 1.51877E+00-2.26578E-01
 -1        86-9.12083E-08 1.71679E+00-2.83980E-01
 -1        87 5.35407E-08 1.51275E+00-2.55811E-01
 -1        88-2.95259E-08 1.72002E+00-2.68870E-01
 -1        89-6.04278E-08 1.71355E+00-2.99091E-01
 -1        90 1.01880E-11 1.51877E+00-2.26578E-01
 -1        91 1.13196E-11 1.71679E+00-2.83980E-01
 -1        92 1.01293E-11 1.51275E+00-2.55811E-01
 -1        93-6.91851E-08 2.13998E+00-3.61342E-01
 -1        94-1.64506E-07 2.13281E+00-3.93073E-01
 -1        95 1.36586E-11 2.13998E+00-3.61342E-01
 -1        96 1.35933E-11 2.13281E+00-3.93073E-01
 -1        97 3.22780E-08 1.92745E+00-3.13923E-01
 -1        98-1.12505E-07 2.13639E+00-3.77207E-01
 -1        99 6.75458E-08 1.92060E+00-3.44983E-01
 -1       100-3.45923E-08 2.13998E+00-3.61342E-01
 -1       101-8.25527E-08 2.13281E+00-3.93073E-01
 -1       102 1.25064E-11 1.92745E+00-3.13923E-01
 -1       103 1.36258E-11 2.13639E+00-3.77207E-01
 -1       104 1.24415E-11 1.92060E+00-3.44983E-01
 -1       105-7.75133E-08 2.57619E+00-4.61501E-01
 -1       106-1.83657E-07 2.56859E+00-4.94126E-01
 -1       107 1.59300E-11 2.57619E+00-4.61501E-01
 -1       108 1.58648E-11 2.56859E+00-4.94126E-01
 -1       109 3.69111E-08 2.35657E+00-4.10685E-01
 -1       110-1.46799E-07 2.57239E+00-4.77813E-01
 -1       111 9.68613E-08 2.34916E+00-4.42947E-01
 -1       112-3.87288E-08 2.57619E+00-4.61501E-01
 -1       113-9.06800E-08 2.56859E+00-4.94126E-01
 -1       114 1.47988E-11 2.35657E+00-4.10685E-01
 -1       115 1.58970E-11 2.57239E+00-4.77813E-01
 -1       116 1.47314E-11 2.34916E+00-4.42947E-01
 -1       117-8.20265E-08 3.02047E+00-5.65604E-01
 -1       118-3.33540E-07 3.01272E+00-5.98523E-01
 -1       119 1.81617E-11 3.02047E+00-5.65604E-01
 -1       120 1.80951E-11 3.01272E+00-5.98523E-01
 -1       121 4.08454E-08 2.79783E+00-5.13300E-01
 -1       122-1.47072E-07 3.01660E+00-5.82063E-01
 -1       123 8.72420E-08 2.79013E+00-5.46158E-01
 -1       124-4.10391E-08 3.02047E+00-5.65604E-01
 -1       125-1.71019E-07 3.01272E+00-5.98523E-01
 -1       126 1.70521E-11 2.79783E+00-5.13300E-01
 -1       127 1.81269E-11 3.01659E+00-5.82063E-01
 -1       128 1.69876E-11 2.79013E+00-5.46158E-01
 -1       129 0.00000E+00 0.00000E+00 0.00000E+00
 -1       130 0.00000E+00 0.00000E+00 0.00000E+00
 -1       131 4.51231E-09 4.55522E-02-1.39230E-03
 -1       132 8.87176E-09 4.52550E-02-7.99571E-03
 -1       133 0.00000E+00 0.00000E+00 0.00000E+00
 -1       134 0.00000E+00 0.00000E+00 0.00000E+00
 -1       135 2.25656E-09 4.55522E-02-1.39230E-03
 -1       136 4.43631E-09 4.52549E-02-7.99571E-03
 -1       137 0.00000E+00 0.00000E+00 0.00000E+00
 -1       138-8.98350E-10 1.16085E-02-1.87938E-04
 -1       139 6.69160E-09 4.54034E-02-4.69335E-03
 -1       140-2.01646E-09 1.15293E-02-3.58249E-03
 -1       141 1.07243E-08 1.75206E-01-1.01132E-02
 -1       142 1.95595E-08 1.74150E-01-2.25401E-02
 -1       143 5.36281E-09 1.75206E-01-1.01131E-02
 -1       144 9.78061E-09 1.74150E-01-2.25401E-02
 -1       145-3.61046E-09 1.00530E-01-4.46611E-03
 -1       146 1.51396E-08 1.74678E-01-1.63261E-02
 -1       147-6.84889E-09 9.99021E-02-1.40767E-02
 -1       148 1.84203E-08 3.78340E-01-3.11782E-02
 -1       149 3.25645E-08 3.76243E-01-4.86423E-02
 -1       150 9.21146E-09 3.78340E-01-3.11782E-02
 -1       151 1.62833E-08 3.76243E-01-4.86422E-02
 -1       152-7.10893E-09 2.68253E-01-1.88795E-02
 -1       153 2.54975E-08 3.77291E-01-3.99097E-02
 -1       154-1.27019E-08 2.66707E-01-3.39203E-02
 -1       155 2.74109E-08 6.44403E-01-6.73828E-02
 -1       156 4.85929E-08 6.41131E-01-8.91131E-02
 -1       157 1.37076E-08 6.44403E-01-6.73828E-02
 -1       158 2.43004E-08 6.41131E-01-8.91130E-02
 -1       159-1.13036E-08 5.04156E-01-4.72900E-02
 -1       160 3.79785E-08 6.42767E-01-7.82475E-02
 -1       161-1.98495E-08 5.01485E-01-6.69807E-02
 -1       162 3.74619E-08 9.63153E-01-1.19657E-01
 -1       163 6.81847E-08 9.58699E-01-1.44912E-01
 -1       164 1.87338E-08 9.63153E-01-1.19657E-01
 -1       165 3.40899E-08 9.58699E-01-1.44912E-01
 -1       166-1.60952E-08 7.97816E-01-9.15158E-02
 -1       167 5.29051E-08 9.60926E-01-1.32284E-01
 -1       168-2.87233E-08 7.93954E-01-1.15099E-01
 -1       169 4.81988E-08 1.32480E+00-1.87413E-01
 -1       170 9.30025E-08 1.31925E+00-2.15487E-01
 -1       171 2.41042E-08 1.32480E+00-1.87413E-01
 -1       172 4.65280E-08 1.31925E+00-2.15487E-01
 -1       173-2.13508E-08 1.13921E+00-1.51686E-01
 -1       174 7.02879E-08 1.32202E+00-2.01449E-01
 -1       175-3.94365E-08 1.13420E+00-1.78438E-01
 -1       176 5.90920E-08 1.72002E+00-2.68870E-01
 -1       177 1.21053E-07 1.71355E+00-2.99091E-01
 -1       178 2.95486E-08 1.72002E+00-2.68870E-01
 -1       179 6.04504E-08 1.71355E+00-2.99091E-01
 -1       180-2.68236E-08 1.51877E+00-2.26578E-01
 -1       181 9.12309E-08 1.71679E+00-2.83980E-01
 -1       182-5.35205E-08 1.51275E+00-2.55811E-01
 -1       183 6.92124E-08 2.13998E+00-3.61342E-01
 -1       184 1.64533E-07 2.13281E+00-3.93073E-01
 -1       185 3.46196E-08 2.13998E+00-3.61342E-01
 -1       186 8.25798E-08 2.13281E+00-3.93073E-01
 -1       187-3.22529E-08 1.92745E+00-3.13923E-01
 -1       188 1.12532E-07 2.13639E+00-3.77207E-01
 -1       189-6.75210E-08 1.92060E+00-3.44983E-01
 -1       190 7.75451E-08 2.57619E+00-4.61501E-01
 -1       191 1.83689E-07 2.56859E+00-4.94126E-01
 -1       192 3.87606E-08 2.57619E+00-4.61501E-01
 -1       193 9.07118E-08 2.56859E+00-4.94126E-01
 -1       194-3.68815E-08 2.35657E+00-4.10685E-01
 -1       195 1.46831E-07 2.57239E+00-4.77813E-01
 -1       196-9.68319E-08 2.34916E+00-4.42947E-01
 -1       197 8.20628E-08 3.02047E+00-5.65604E-01
 -1       198 3.33576E-07 3.01272E+00-5.98523E-01
 -1       199 4.10755E-08 3.02047E+00-5.65604E-01
 -1       200 1.71055E-07 3.01272E+00-5.98523E-01
 -1       201-4.08113E-08 2.79783E+00-5.13300E-01
 -1       202 1.47108E-07 3.01660E+00-5.82063E-01
 -1       203-8.72080E-08 2.79013E+00-5.46158E-01
 -1       204 0.00000E+00 0.00000E+00 0.00000E+00
 -1       205-1.45768E-08 4.58493E-02 5.20919E-03
 -1       206 0.00000E+00 0.00000E+00 0.00000E+00
 -1       207 3.67819E-13 4.58492E-02 5.20922E-03
 -1       208 0.00000E+00 0.00000E+00 0.00000E+00
 -1       209 3.33958E-09 1.16878E-02 3.20727E-03
 -1       210-9.54466E-09 4.57009E-02 1.90780E-03
 -1       211 0.00000E+00 0.00000E+00 0.00000E+00
 -1       212-7.28836E-09 4.58492E-02 5.20921E-03
 -1       213 0.00000E+00 0.00000E+00 0.00000E+00
 -1       214 9.73365E-14 1.16878E-02 3.20727E-03
 -1       215 3.62052E-13 4.57009E-02 1.90782E-03
 -1       216-3.10026E-08 1.76260E-01 2.31115E-03
 -1       217 1.36125E-12 1.76260E-01 2.31120E-03
 -1       218 1.12394E-08 1.01158E-01 5.14564E-03
 -1       219-2.08641E-08 1.75733E-01-3.90148E-03
 -1       220-1.55003E-08 1.76260E-01 2.31117E-03
 -1       221 7.94319E-13 1.01158E-01 5.14562E-03
 -1       222 1.34961E-12 1.75733E-01-3.90145E-03
 -1       223-4.81122E-08 3.80436E-01-1.37167E-02
 -1       224 2.85099E-12 3.80436E-01-1.37166E-02
 -1       225 1.97707E-08 2.69800E-01-3.83736E-03
 -1       226-3.32577E-08 3.79388E-01-2.24480E-02
 -1       227-2.40547E-08 3.80436E-01-1.37167E-02
 -1       228 2.05142E-12 2.69800E-01-3.83738E-03
 -1       229 2.83410E-12 3.79388E-01-2.24479E-02
 -1       230-6.45672E-08 6.47674E-01-4.56546E-02
 -1       231 4.71281E-12 6.47674E-01-4.56545E-02
 -1       232 2.83568E-08 5.06826E-01-2.75982E-02
 -1       233-4.60082E-08 6.46038E-01-5.65192E-02
 -1       234-3.22789E-08 6.47674E-01-4.56545E-02
 -1       235 3.74271E-12 5.06826E-01-2.75982E-02
 -1       236 4.69166E-12 6.46038E-01-5.65191E-02
 -1       237-7.90611E-08 9.67608E-01-9.44030E-02
 -1       238 6.82943E-12 9.67607E-01-9.44029E-02
 -1       239 3.62356E-08 8.01679E-01-6.79316E-02
 -1       240-5.81697E-08 9.65380E-01-1.07030E-01
 -1       241-3.95324E-08 9.67607E-01-9.44030E-02
 -1       242 5.74562E-12 8.01679E-01-6.79316E-02
 -1       243 6.80428E-12 9.65380E-01-1.07030E-01
 -1       244-8.88539E-08 1.33034E+00-1.59339E-01
 -1       245 9.09344E-12 1.33034E+00-1.59339E-01
 -1       246 4.28620E-08 1.14422E+00-1.24934E-01
 -1       247-6.88379E-08 1.32757E+00-1.73377E-01
 -1       248-4.43978E-08 1.33034E+00-1.59339E-01
 -1       249 7.94898E-12 1.14422E+00-1.24934E-01
 -1       250 9.06498E-12 1.32757E+00-1.73377E-01
 -1       251-9.43880E-08 1.72649E+00-2.38646E-01
 -1       252 1.14080E-11 1.72649E+00-2.38646E-01
 -1       253 4.60414E-08 1.52480E+00-1.97345E-01
 -1       254-7.55468E-08 1.72326E+00-2.53758E-01
 -1       255-4.72723E-08 1.72649E+00-2.38646E-01
 -1       256 1.02476E-11 1.52480E+00-1.97345E-01
 -1       257 1.13787E-11 1.72325E+00-2.53758E-01
 -1       258-8.11534E-08 2.14714E+00-3.29607E-01
 -1       259 1.37230E-11 2.14714E+00-3.29607E-01
 -1       260 4.84172E-08 1.93429E+00-2.82864E-01
 -1       261-7.95697E-08 2.14356E+00-3.45475E-01
 -1       262-4.02518E-08 2.14714E+00-3.29607E-01
 -1       263 1.25716E-11 1.93429E+00-2.82864E-01
 -1       264 1.36911E-11 2.14356E+00-3.45475E-01
 -1       265-8.58767E-08 2.58379E+00-4.28869E-01
 -1       266 1.59953E-11 2.58379E+00-4.28869E-01
 -1       267 3.27854E-08 2.36398E+00-3.78426E-01
 -1       268-6.53476E-08 2.57999E+00-4.45185E-01
 -1       269-4.40877E-08 2.58379E+00-4.28869E-01
 -1       270 1.48665E-11 2.36398E+00-3.78426E-01
 -1       271 1.59622E-11 2.57999E+00-4.45185E-01
 -1       272 5.12596E-08 3.02822E+00-5.32672E-01
 -1       273 1.82276E-11 3.02822E+00-5.32672E-01
 -1       274 5.33628E-08 2.80553E+00-4.80446E-01
 -1       275-7.62746E-08 3.02434E+00-5.49139E-01
 -1       276 2.99002E-08 3.02822E+00-5.32672E-01
 -1       277 1.71171E-11 2.80553E+00-4.80446E-01
 -1       278 1.81940E-11 3.02434E+00-5.49139E-01
 -1       279 0.00000E+00 0.00000E+00 0.00000E+00
 -1       280 1.45775E-08 4.58493E-02 5.20919E-03
 -1       281 0.00000E+00 0.00000E+00 0.00000E+00
 -1       282 7.28909E-09 4.58492E-02 5.20921E-03
 -1       283 0.00000E+00 0.00000E+00 0.00000E+00
 -1       284-3.33938E-09 1.16878E-02 3.20727E-03
 -1       285 9.54539E-09 4.57009E-02 1.90780E-03
 -1       286 3.10053E-08 1.76260E-01 2.31115E-03
 -1       287 1.55030E-08 1.76260E-01 2.31117E-03
 -1       288-1.12379E-08 1.01158E-01 5.14564E-03
 -1       289 2.08668E-08 1.75733E-01-3.90148E-03
 -1       290 4.81179E-08 3.80436E-01-1.37167E-02
 -1       291 2.40604E-08 3.80436E-01-1.37167E-02
 -1       292-1.97666E-08 2.69800E-01-3.83736E-03
 -1       293 3.32634E-08 3.79388E-01-2.24480E-02
 -1       294 6.45767E-08 6.47674E-01-4.56546E-02
 -1       295 3.22883E-08 6.47674E-01-4.56545E-02
 -1       296-2.83493E-08 5.06826E-01-2.75982E-02
 -1       297 4.60176E-08 6.46038E-01-5.65192E-02
 -1       298 7.90747E-08 9.67608E-01-9.44030E-02
 -1       299 3.95461E-08 9.67607E-01-9.44030E-02
 -1       300-3.62241E-08 8.01679E-01-6.79316E-02
 -1       301 5.81833E-08 9.65380E-01-1.07030E-01
 -1       302 8.88721E-08 1.33034E+00-1.59339E-01
 -1       303 4.44160E-08 1.33034E+00-1.59339E-01
 -1       304-4.28461E-08 1.14422E+00-1.24934E-01
 -1       305 6.88560E-08 1.32757E+00-1.73377E-01
 -1       306 9.44108E-08 1.72649E+00-2.38646E-01
 -1       307 4.72951E-08 1.72649E+00-2.38646E-01
 -1       308-4.60209E-08 1.52480E+00-1.97345E-01
 -1       309 7.55696E-08 1.72326E+00-2.53758E-01
 -1       310 8.11808E-08 2.14714E+00-3.29607E-01
 -1       311 4.02793E-08 2.14714E+00-3.29607E-01
 -1       312-4.83920E-08 1.93429E+00-2.82864E-01
 -1       313 7.95971E-08 2.14356E+00-3.45475E-01
 -1       314 8.59087E-08 2.58379E+00-4.28869E-01
 -1       315 4.41197E-08 2.58379E+00-4.28869E-01
 -1       316-3.27557E-08 2.36398E+00-3.78426E-01
 -1       317 6.53796E-08 2.57999E+00-4.45185E-01
 -1       318-5.12232E-08 3.02822E+00-5.32672E-01
 -1       319-2.98638E-08 3.02822E+00-5.32672E-01
 -1       320-5.33285E-08 2.80553E+00-4.80446E-01
 -1       321 7.63110E-08 3.02434E+00-5.49139E-01
 -3
    1PSTEP                         4           2           1          
  100CL  102 1.00000E-01         321                     0    2           1
 -4  STRESS      6    1
 -5  SXX         1    4    1    1
 -5  SYY         1    4    2    2
 -5  SZZ         1    4    3    3
 -5  SXY         1    4    1    2
 -5  SYZ         1    4    2    3
 -5  SZX         1    4    3    1
 -1         1 8.65651E+00-3.17769E+03-6.94370E+05-2.88330E+01 4.01156E+02 5.49650E+00
 -1         2 4.20915E+00-4.02420E+03-3.70660E+03-1.01400E+01 1.87568E+03 4.25378E+00
 -1         3 5.66556E-01-1.95324E+03-3.43283E+03-1.47382E-01 3.50041E+03 4.15350E-01
 -1         4 6.05796E-01-4.34023E+03-6.16594E+05-5.44233E-02-5.66326E+04 1.08044E+00
 -1         5 8.65651E+00-3.14860E+03-6.94371E+05 3.21686E-10 4.06027E+02-3.48695E-07
 -1         6 4.20915E+00-4.02352E+03-3.70833E+03 4.56007E-08 1.88078E+03 4.20527E-09
 -1         7 5.62984E-01-1.95279E+03-3.43427E+03-2.42383E-08 3.50170E+03 1.69348E-08
 -1         8 6.01694E-01-4.33825E+03-6.16596E+05-1.14294E-07-5.66274E+04-8.65462E-07
 -1         9 6.42880E+00-3.57300E+03-3.49019E+05-1.82610E+01 1.31720E+03 4.84118E+00
 -1        10-3.05166E-01-1.83443E+03-3.41490E+03 7.14399E-02 2.60048E+03-1.67301E-01
 -1        11 5.86601E-01-3.15428E+03-3.10001E+05-9.68875E-02-2.66005E+04 7.12338E-01
 -1        12-2.67821E-01-2.58268E+03-6.56027E+05 1.27675E-02-2.84733E+04-5.03116E-01
 -1        13 8.65651E+00-3.16315E+03-6.94370E+05-2.96006E+01 4.03592E+02 5.10149E+00
 -1        14 4.20915E+00-4.02386E+03-3.70746E+03-9.67910E+00 1.87823E+03 4.03698E+00
 -1        15 5.64770E-01-1.95302E+03-3.43355E+03-1.91329E-01 3.50105E+03 1.36863E-01
 -1        16 6.03745E-01-4.33924E+03-6.16595E+05-1.38544E-01-5.66300E+04 6.26247E-01
 -1        17 6.42880E+00-3.54419E+03-3.49020E+05 1.19492E-08 1.32002E+03-1.72509E-07
 -1        18-3.06952E-01-1.83452E+03-3.41408E+03-7.91690E-09 2.59984E+03 9.38136E-09
 -1        19 5.82764E-01-3.15300E+03-3.10002E+05-4.12249E-08-2.65973E+04-3.91466E-07
 -1        20-2.69872E-01-2.58316E+03-6.56026E+05-2.81118E-08-2.84759E+04-5.91997E-07
 -1        21 4.93925E-01-5.61903E+02-3.00585E+03-1.54886E-01 2.86725E+03 5.30160E-01
 -1        22 7.75278E-01-1.54998E+04-5.32971E+05-1.10064E-01-9.16226E+04 1.21199E+00
 -1        23 4.93810E-01-5.60927E+02-3.00693E+03-2.52614E-08 2.86866E+03-1.64693E-09
 -1        24 7.71807E-01-1.54959E+04-5.32973E+05 9.15693E-08-9.16174E+04-8.24305E-07
 -1        25-2.62144E-01-1.35722E+03-3.16538E+03 7.79790E-02 3.12899E+03-2.42956E-01
 -1        26 6.36187E-01-8.04023E+03-2.67979E+05-1.36823E-01-4.43998E+04 8.40544E-01
 -1        27-3.40625E-01-1.01118E+04-5.74616E+05 4.17487E-02-7.43696E+04-5.73960E-01
 -1        28 4.93868E-01-5.61415E+02-3.00639E+03-3.02315E-01 2.86795E+03 1.91494E-01
 -1        29 7.73542E-01-1.54978E+04-5.32972E+05-3.27466E-01-9.16200E+04 6.76418E-01
 -1        30-2.63987E-01-1.35757E+03-3.16475E+03-5.02974E-08 3.12833E+03 6.81865E-09
 -1        31 6.34394E-01-8.03765E+03-2.67981E+05 2.24105E-09-4.43966E+04-4.05857E-07
 -1        32-3.44412E-01-1.01133E+04-5.74614E+05-6.40183E-08-7.43722E+04-8.24302E-07
 -1        33 4.30965E-01 1.78719E+02-2.71648E+03-1.92194E-01 2.80838E+03 5.76791E-01
 -1        34 9.96254E-01-2.66253E+04-4.49658E+05-1.98632E-01-1.10053E+05 1.33578E+00
 -1        35 4.32745E-01 1.80285E+02-2.71723E+03 1.74294E-07 2.81008E+03 2.97984E-08
 -1        36 1.00164E+00-2.66196E+04-4.49660E+05-6.83083E-07-1.10048E+05-8.79474E-07
 -1        37-2.32054E-01-3.22464E+02-2.83784E+03 8.06967E-02 2.80045E+03-2.82463E-01
 -1        38 7.10167E-01-1.32361E+04-2.26175E+05-2.07904E-01-5.36343E+04 9.31369E-01
 -1        39-4.37623E-01-2.13046E+04-4.91108E+05 7.00835E-02-1.00975E+05-6.36110E-01
 -1        40 4.31855E-01 1.79502E+02-2.71686E+03-4.42427E-01 2.80923E+03 2.05790E-01
 -1        41 9.98946E-01-2.66225E+04-4.49659E+05-5.42703E-01-1.10051E+05 7.08209E-01
 -1        42-2.31222E-01-3.23089E+02-2.83738E+03 1.71261E-07 2.79969E+03 1.66873E-08
 -1        43 7.13748E-01-1.32322E+04-2.26176E+05-2.68594E-07-5.36309E+04-4.17510E-07
 -1        44-4.36666E-01-2.13069E+04-4.91107E+05-2.47405E-07-1.00977E+05-8.58174E-07
 -1        45 3.52769E-01 8.94630E+02-2.40859E+03-2.08609E-01 2.59418E+03 5.58072E-01
 -1        46 1.22882E+00-3.51460E+04-3.70187E+05-2.46728E-01-1.14400E+05 1.47738E+00
 -1        47 3.55215E-01 8.96870E+02-2.40899E+03-2.53899E-07 2.59630E+03-5.85982E-10
 -1        48 1.20192E+00-3.51387E+04-3.70189E+05-1.03799E-07-1.14395E+05-6.01996E-07
 -1        49-1.98710E-01 3.84068E+02-2.58657E+03 1.17098E-01 2.68190E+03-2.90077E-01
 -1        50 8.06724E-01-1.71391E+04-1.86286E+05-2.47424E-01-5.59102E+04 1.00318E+00
 -1        51-5.61915E-01-3.11312E+04-4.09686E+05 1.31214E-01-1.12270E+05-6.99479E-01
 -1        52 3.53992E-01 8.95750E+02-2.40879E+03-5.97807E-01 2.59524E+03 1.73564E-01
 -1        53 1.21537E+00-3.51423E+04-3.70188E+05-8.25830E-01-1.14397E+05 7.36468E-01
 -1        54-1.96596E-01 3.83117E+02-2.58627E+03-9.64052E-08 2.68095E+03-8.85716E-09
 -1        55 7.94498E-01-1.71340E+04-1.86287E+05 1.16907E-08-5.59063E+04-3.54164E-07
 -1        56-5.72676E-01-3.11344E+04-4.09685E+05-1.85170E-07-1.12272E+05-7.25277E-07
 -1        57 2.28437E-01 1.43893E+03-2.15138E+03-4.80057E-01 2.43858E+03 4.88528E-01
 -1        58 1.58296E+00-3.92653E+04-2.96210E+05-5.69402E-01-1.08096E+05 1.60156E+00
 -1        59 2.37562E-01 1.44210E+03-2.15149E+03 1.81460E-07 2.44138E+03 6.75338E-08
 -1        60 1.67648E+00-3.92560E+04-2.96212E+05 1.02549E-07-1.08090E+05-5.30419E-07
 -1        61-1.54134E-01 9.99317E+02-2.33777E+03 9.92925E-02 2.50868E+03-2.62891E-01
 -1        62 8.50272E-01-1.89274E+04-1.49169E+05-5.55813E-01-5.28339E+04 1.02884E+00
 -1        63-6.72329E-01-3.74320E+04-3.32975E+05 1.20464E-01-1.11212E+05-7.76235E-01
 -1        64 2.32999E-01 1.44052E+03-2.15144E+03-8.87946E-01 2.43998E+03 1.30165E-01
 -1        65 1.62972E+00-3.92607E+04-2.96211E+05-1.08033E+00-1.08093E+05 7.43134E-01
 -1        66-1.48352E-01 9.98011E+02-2.33766E+03-1.12012E-07 2.50748E+03 5.12390E-08
 -1        67 9.01596E-01-1.89207E+04-1.49170E+05 1.67515E-07-5.28295E+04-1.87164E-07
 -1        68-6.38999E-01-3.74360E+04-3.32974E+05 1.68256E-07-1.11215E+05-6.10731E-07
 -1        69 5.10305E-02 1.86832E+03-1.92325E+03-6.78860E-02 2.30013E+03 2.69240E-01
 -1        70 1.65848E+00-3.85283E+04-2.28208E+05-1.17080E-02-9.39601E+04 1.94734E+00
 -1        71 4.60785E-02 1.87222E+03-1.92276E+03 3.38794E-07 2.30356E+03 7.33221E-08
 -1        72 1.30224E+00-3.85182E+04-2.28210E+05-8.06435E-07-9.39522E+04-5.77539E-07
 -1        73-7.21515E-02 1.47774E+03-2.13026E+03 3.90471E-01 2.36580E+03-2.22975E-01
 -1        74 1.06605E+00-1.83489E+04-1.15050E+05-6.73173E-02-4.58376E+04 1.14317E+00
 -1        75-9.11446E-01-3.90860E+04-2.62007E+05 4.49825E-01-1.00930E+05-8.32600E-01
 -1        76 4.85545E-02 1.87027E+03-1.92301E+03-9.42663E-01 2.30185E+03-7.80498E-02
 -1        77 1.48036E+00-3.85233E+04-2.28209E+05-1.72089E+00-9.39561E+04 8.41333E-01
 -1        78-7.00520E-02 1.47586E+03-2.13025E+03 2.19941E-07 2.36416E+03-7.25880E-09
 -1        79 8.85444E-01-1.83412E+04-1.15051E+05-3.71559E-07-4.58319E+04-3.56523E-07
 -1        80-1.04287E+00-3.90913E+04-2.62006E+05-8.32615E-07-1.00933E+05-3.84850E-07
 -1        81-2.55203E-01 2.18233E+03-1.73024E+03-2.51554E+00 2.19724E+03 3.05724E-01
 -1        82 2.95554E+00-3.32562E+04-1.65726E+05-2.97467E+00-7.43903E+04 1.53961E+00
 -1        83-2.06089E-01 2.18859E+03-1.73032E+03 1.19627E-07 2.20261E+03-1.52594E-07
 -1        84 4.26832E+00-3.32400E+04-1.65726E+05-2.95471E-07-7.43835E+04 1.83400E-07
 -1        85 1.57293E-02 1.84512E+03-1.95915E+03-3.08944E-01 2.23865E+03-3.53353E-02
 -1        86 5.70321E-01-1.55528E+04-8.37134E+04-2.84437E+00-3.61025E+04 8.13821E-01
 -1        87-7.72111E-01-3.60311E+04-1.96786E+05-4.15483E-01-8.40284E+04-1.09006E+00
 -1        88-2.30646E-01 2.18546E+03-1.73028E+03-2.19259E+00 2.19993E+03 1.55321E-01
 -1        89 3.61193E+00-3.32481E+04-1.65726E+05-1.28119E+00-7.43869E+04 5.88791E-01
 -1        90 3.77627E-02 1.84308E+03-1.95966E+03-1.99201E-07 2.23681E+03 9.57437E-09
 -1        91 1.25128E+00-1.55414E+04-8.37133E+04 3.89132E-07-3.60968E+04-3.01546E-07
 -1        92-2.93602E-01-3.60358E+04-1.96785E+05 9.76560E-07-8.40331E+04-3.56898E-07
 -1        93-6.05740E-01 2.40576E+03-1.58449E+03 5.20250E+00 2.14375E+03-1.19956E+00
 -1        94 3.21049E-02-2.41815E+04-1.07811E+05 7.04398E+00-5.12129E+04 4.50008E+00
 -1        95-7.10737E-01 2.40918E+03-1.58020E+03-1.38931E-07 2.14746E+03 3.23205E-07
 -1        96-4.87627E+00-2.41778E+04-1.07817E+05 2.12923E-07-5.11938E+04-3.83544E-07
 -1        97 2.63587E-01 2.11482E+03-1.83758E+03 2.84072E+00 2.13917E+03-2.82563E-01
 -1        98 2.62696E+00-1.09392E+04-5.46540E+04 6.25462E+00-2.45627E+04 2.15029E+00
 -1        99-2.12125E+00-2.87901E+04-1.36598E+05 3.33094E+00-6.26117E+04-5.49661E-01
 -1       100-6.58239E-01 2.40747E+03-1.58234E+03 5.49342E-01 2.14561E+03-1.58600E+00
 -1       101-2.42208E+00-2.41797E+04-1.07814E+05-5.27293E+00-5.12034E+04 1.77231E+00
 -1       102 2.35820E-01 2.11059E+03-1.83696E+03 5.60998E-07 2.13560E+03 6.95650E-08
 -1       103 1.20240E-01-1.09330E+04-5.46567E+04-3.11072E-07-2.45500E+04-4.77762E-08
 -1       104-3.91994E+00-2.88018E+04-1.36599E+05-3.31051E-07-6.26140E+04-1.24961E-07
 -1       105-1.21338E+00 2.50020E+03-1.43216E+03-2.53039E+01 2.10002E+03 2.84114E+00
 -1       106 1.30925E+01-1.27614E+04-5.28992E+04-3.19233E+01-2.60003E+04-5.57844E+00
 -1       107-8.96421E-01 2.52137E+03-1.44287E+03 1.65047E-08 2.11741E+03-1.98613E-07
 -1       108 3.13504E+01-1.27012E+04-5.28794E+04 2.88072E-06-2.60169E+04 4.03735E-07
 -1       109 2.55281E-01 2.27461E+03-1.75130E+03-8.03634E+00 2.05393E+03 1.53579E+00
 -1       110-4.91403E+00-5.08326E+03-2.71993E+04-2.95249E+01-1.19234E+04-3.11678E+00
 -1       111 1.81642E+00-1.84593E+04-8.01776E+04-1.01021E+01-3.83707E+04-3.57184E+00
 -1       112-1.05490E+00 2.51079E+03-1.43751E+03-1.19840E+01 2.10872E+03 3.99548E+00
 -1       113 2.22214E+01-1.27313E+04-5.28893E+04 6.69625E+00-2.60086E+04-2.49583E+00
 -1       114 3.60611E-01 2.27531E+03-1.75626E+03-4.46929E-07 2.05367E+03 6.36071E-08
 -1       115 4.37352E+00-5.04837E+03-2.71891E+04 9.52663E-07-1.19280E+04 2.58243E-07
 -1       116 8.49450E+00-1.84506E+04-8.01717E+04 3.48646E-07-3.83871E+04-3.64251E-08
 -1       117-3.10475E+00 2.11304E+03-3.10962E+03 1.15484E+02 1.32363E+03-2.33041E+01
 -1       118-9.09928E+01 1.02626E+03 2.24324E+03 1.56186E+02 1.01080E+03-2.68632E+01
 -1       119-3.66284E+00 1.96135E+03-3.06191E+03-4.98113E-06 1.18273E+03 3.41399E-07
 -1       120-1.59128E+02 5.67194E+02 2.22013E+03-9.76952E-07 8.98726E+02-6.19068E-07
 -1       121 1.29132E+00 2.41659E+03-1.77264E+03 3.34717E+01 2.03153E+03-4.48893E+00
 -1       122-6.51530E+00 1.71445E+03-5.36351E+02 1.40306E+02 1.23866E+03-1.54360E+01
 -1       123-1.39718E+01-5.75094E+03-2.63479E+04 4.09920E+01-1.24218E+04 7.66544E+00
 -1       124-3.38379E+00 2.03720E+03-3.08577E+03 7.53886E+01 1.25318E+03-2.01588E+01
 -1       125-1.25060E+02 7.96729E+02 2.23169E+03 2.99557E+01 9.54763E+02-1.57164E+01
 -1       126 1.17127E+00 2.39502E+03-1.75690E+03-2.11885E-06 2.01439E+03 1.19400E-07
 -1       127-4.08621E+01 1.40657E+03-5.46025E+02-3.12833E-06 1.13339E+03 2.77860E-07
 -1       128-3.89129E+01-5.82311E+03-2.63700E+04 9.91276E-07-1.23909E+04-4.58680E-08
 -1       129 8.65651E+00-3.17769E+03-6.94370E+05 2.88330E+01 4.01156E+02-5.49650E+00
 -1       130 4.20915E+00-4.02420E+03-3.70660E+03 1.01400E+01 1.87568E+03-4.25378E+00
 -1       131 5.66556E-01-1.95324E+03-3.43283E+03 1.47382E-01 3.50041E+03-4.15350E-01
 -1       132 6.05796E-01-4.34023E+03-6.16594E+05 5.44233E-02-5.66326E+04-1.08044E+00
 -1       133 8.65651E+00-3.16315E+03-6.94370E+05 2.96006E+01 4.03592E+02-5.10149E+00
 -1       134 4.20915E+00-4.02386E+03-3.70746E+03 9.67910E+00 1.87823E+03-4.03698E+00
 -1       135 5.64770E-01-1.95302E+03-3.43355E+03 1.91328E-01 3.50105E+03-1.36863E-01
 -1       136 6.03745E-01-4.33924E+03-6.16595E+05 1.38544E-01-5.66300E+04-6.26248E-01
 -1       137 6.42880E+00-3.57300E+03-3.49019E+05 1.82610E+01 1.31720E+03-4.84118E+00
 -1       138-3.05166E-01-1.83443E+03-3.41490E+03-7.14399E-02 2.60048E+03 1.67301E-01
 -1       139 5.86601E-01-3.15428E+03-3.10001E+05 9.68875E-02-2.66005E+04-7.12338E-01
 -1       140-2.67821E-01-2.58268E+03-6.56027E+05-1.27675E-02-2.84733E+04 5.03115E-01
 -1       141 4.93925E-01-5.61903E+02-3.00585E+03 1.54886E-01 2.86725E+03-5.30160E-01
 -1       142 7.75278E-01-1.54998E+04-5.32971E+05 1.10063E-01-9.16226E+04-1.21199E+00
 -1       143 4.93868E-01-5.61415E+02-3.00639E+03 3.02315E-01 2.86795E+03-1.91494E-01
 -1       144 7.73542E-01-1.54978E+04-5.32972E+05 3.27466E-01-9.16200E+04-6.76420E-01
 -1       145-2.62144E-01-1.35722E+03-3.16538E+03-7.79790E-02 3.12899E+03 2.42956E-01
 -1       146 6.36187E-01-8.04023E+03-2.67979E+05 1.36823E-01-4.43998E+04-8.40545E-01
 -1       147-3.40625E-01-1.01118E+04-5.74616E+05-4.17491E-02-7.43696E+04 5.73959E-01
 -1       148 4.30965E-01 1.78719E+02-2.71648E+03 1.92194E-01 2.80838E+03-5.76791E-01
 -1       149 9.96254E-01-2.66253E+04-4.49658E+05 1.98632E-01-1.10053E+05-1.33578E+00
 -1       150 4.31855E-01 1.79502E+02-2.71686E+03 4.42427E-01 2.80923E+03-2.05790E-01
 -1       151 9.98945E-01-2.66225E+04-4.49659E+05 5.42702E-01-1.10051E+05-7.08211E-01
 -1       152-2.32054E-01-3.22464E+02-2.83784E+03-8.06968E-02 2.80045E+03 2.82463E-01
 -1       153 7.10167E-01-1.32361E+04-2.26175E+05 2.07904E-01-5.36343E+04-9.31370E-01
 -1       154-4.37623E-01-2.13046E+04-4.91108E+05-7.00837E-02-1.00975E+05 6.36109E-01
 -1       155 3.52769E-01 8.94630E+02-2.40859E+03 2.08609E-01 2.59418E+03-5.58072E-01
 -1       156 1.22882E+00-3.51460E+04-3.70187E+05 2.46728E-01-1.14400E+05-1.47738E+00
 -1       157 3.53992E-01 8.95750E+02-2.40879E+03 5.97807E-01 2.59524E+03-1.73563E-01
 -1       158 1.21537E+00-3.51423E+04-3.70188E+05 8.25830E-01-1.14397E+05-7.36469E-01
 -1       159-1.98710E-01 3.84068E+02-2.58657E+03-1.17098E-01 2.68190E+03 2.90077E-01
 -1       160 8.06724E-01-1.71391E+04-1.86286E+05 2.47424E-01-5.59102E+04-1.00318E+00
 -1       161-5.61915E-01-3.11312E+04-4.09686E+05-1.31214E-01-1.12270E+05 6.99478E-01
 -1       162 2.28437E-01 1.43893E+03-2.15138E+03 4.80057E-01 2.43858E+03-4.88528E-01
 -1       163 1.58296E+00-3.92653E+04-2.96210E+05 5.69399E-01-1.08096E+05-1.60156E+00
 -1       164 2.32999E-01 1.44052E+03-2.15144E+03 8.87946E-01 2.43998E+03-1.30165E-01
 -1       165 1.62972E+00-3.92607E+04-2.96211E+05 1.08033E+00-1.08093E+05-7.43136E-01
 -1       166-1.54134E-01 9.99317E+02-2.33777E+03-9.92923E-02 2.50868E+03 2.62891E-01
 -1       167 8.50272E-01-1.89274E+04-1.49169E+05 5.55812E-01-5.28339E+04-1.02884E+00
 -1       168-6.72330E-01-3.74320E+04-3.32975E+05-1.20465E-01-1.11212E+05 7.76233E-01
 -1       169 5.10306E-02 1.86832E+03-1.92325E+03 6.78847E-02 2.30013E+03-2.69240E-01
 -1       170 1.65848E+00-3.85283E+04-2.28208E+05 1.17114E-02-9.39601E+04-1.94734E+00
 -1       171 4.85546E-02 1.87027E+03-1.92301E+03 9.42663E-01 2.30185E+03 7.80500E-02
 -1       172 1.48036E+00-3.85233E+04-2.28209E+05 1.72089E+00-9.39561E+04-8.41334E-01
 -1       173-7.21515E-02 1.47774E+03-2.13026E+03-3.90473E-01 2.36580E+03 2.22975E-01
 -1       174 1.06605E+00-1.83489E+04-1.15050E+05 6.73180E-02-4.58376E+04-1.14317E+00
 -1       175-9.11446E-01-3.90860E+04-2.62007E+05-4.49825E-01-1.00930E+05 8.32599E-01
 -1       176-2.55202E-01 2.18233E+03-1.73024E+03 2.51554E+00 2.19724E+03-3.05724E-01
 -1       177 2.95554E+00-3.32562E+04-1.65726E+05 2.97467E+00-7.43903E+04-1.53961E+00
 -1       178-2.30645E-01 2.18546E+03-1.73028E+03 2.19259E+00 2.19993E+03-1.55321E-01
 -1       179 3.61193E+00-3.32481E+04-1.65726E+05 1.28119E+00-7.43869E+04-5.88791E-01
 -1       180 1.57295E-02 1.84512E+03-1.95915E+03 3.08946E-01 2.23865E+03 3.53354E-02
 -1       181 5.70321E-01-1.55528E+04-8.37134E+04 2.84436E+00-3.61025E+04-8.13821E-01
 -1       182-7.72112E-01-3.60311E+04-1.96786E+05 4.15481E-01-8.40284E+04 1.09006E+00
 -1       183-6.05740E-01 2.40576E+03-1.58449E+03-5.20250E+00 2.14375E+03 1.19956E+00
 -1       184 3.21052E-02-2.41815E+04-1.07811E+05-7.04399E+00-5.12129E+04-4.50008E+00
 -1       185-6.58239E-01 2.40747E+03-1.58234E+03-5.49342E-01 2.14561E+03 1.58600E+00
 -1       186-2.42208E+00-2.41797E+04-1.07814E+05 5.27293E+00-5.12034E+04-1.77231E+00
 -1       187 2.63587E-01 2.11482E+03-1.83758E+03-2.84072E+00 2.13917E+03 2.82563E-01
 -1       188 2.62696E+00-1.09392E+04-5.46540E+04-6.25462E+00-2.45627E+04-2.15029E+00
 -1       189-2.12125E+00-2.87901E+04-1.36598E+05-3.33094E+00-6.26117E+04 5.49660E-01
 -1       190-1.21338E+00 2.50020E+03-1.43216E+03 2.53039E+01 2.10002E+03-2.84115E+00
 -1       191 1.30925E+01-1.27614E+04-5.28992E+04 3.19233E+01-2.60003E+04 5.57844E+00
 -1       192-1.05490E+00 2.51079E+03-1.43751E+03 1.19840E+01 2.10872E+03-3.99548E+00
 -1       193 2.22214E+01-1.27313E+04-5.28893E+04-6.69624E+00-2.60086E+04 2.49583E+00
 -1       194 2.55281E-01 2.27461E+03-1.75130E+03 8.03634E+00 2.05393E+03-1.53579E+00
 -1       195-4.91403E+00-5.08326E+03-2.71993E+04 2.95249E+01-1.19234E+04 3.11678E+00
 -1       196 1.81642E+00-1.84593E+04-8.01776E+04 1.01021E+01-3.83707E+04 3.57184E+00
 -1       197-3.10475E+00 2.11304E+03-3.10962E+03-1.15484E+02 1.32363E+03 2.33041E+01
 -1       198-9.09928E+01 1.02626E+03 2.24324E+03-1.56186E+02 1.01080E+03 2.68632E+01
 -1       199-3.38379E+00 2.03720E+03-3.08577E+03-7.53886E+01 1.25318E+03 2.01588E+01
 -1       200-1.25060E+02 7.96729E+02 2.23169E+03-2.99557E+01 9.54763E+02 1.57164E+01
 -1       201 1.29132E+00 2.41659E+03-1.77264E+03-3.34717E+01 2.03153E+03 4.48893E+00
 -1       202-6.51530E+00 1.71445E+03-5.36351E+02-1.40306E+02 1.23866E+03 1.54360E+01
 -1       203-1.39718E+01-5.75094E+03-2.63479E+04-4.09920E+01-1.24218E+04-7.66544E+00
 -1       204 1.40876E+01-4.88201E+03 7.01776E+05-3.25355E+01 3.45517E+03 1.61091E+01
 -1       205 6.17341E-01 4.64480E+03 6.22728E+05-2.75411E-01 5.75627E+04 3.91474E-01
 -1       206 1.40876E+01-4.90861E+03 7.01769E+05 7.15343E-09 3.46866E+03 3.75985E-07
 -1       207 6.15140E-01 4.64655E+03 6.22723E+05 4.35891E-08 5.75679E+04 8.99006E-07
 -1       208 9.15239E+00-4.48105E+03 3.49015E+05-2.25633E+01 2.48664E+03 1.02154E+01
 -1       209-4.04979E-01 1.00813E+03 6.62521E+05 1.11016E-01 3.06519E+04-1.37909E-01
 -1       210 5.91523E-01 1.35332E+03 3.09635E+05-2.15412E-01 3.05659E+04 4.38969E-01
 -1       211 1.40876E+01-4.89531E+03 7.01772E+05-3.08952E+01 3.46191E+03 1.53518E+01
 -1       212 6.16240E-01 4.64568E+03 6.22726E+05-4.02072E-01 5.75653E+04-4.33664E-01
 -1       213 9.15239E+00-4.50794E+03 3.49011E+05 3.73890E-08 2.49811E+03 1.90359E-07
 -1       214-4.06079E-01 1.00768E+03 6.62524E+05 2.11156E-08 3.06492E+04 6.36812E-07
 -1       215 5.88637E-01 1.35436E+03 3.09631E+05-1.83661E-08 3.05692E+04 4.25173E-07
 -1       216 2.27344E-01 1.54591E+04 5.37609E+05-3.88392E-01 9.37146E+04 4.86105E-01
 -1       217 2.32502E-01 1.54625E+04 5.37606E+05 4.35863E-08 9.37200E+04 8.90823E-07
 -1       218-2.11598E-01 1.00323E+04 5.79968E+05 1.63246E-01 7.56991E+04-2.36380E-01
 -1       219 3.59049E-01 7.45802E+03 2.67292E+05-2.67291E-01 4.83131E+04 5.38665E-01
 -1       220 2.29923E-01 1.54608E+04 5.37607E+05-6.99427E-01 9.37173E+04-3.63986E-01
 -1       221-2.10121E-01 1.00310E+04 5.79970E+05 9.78265E-08 7.56965E+04 8.99593E-07
 -1       222 3.61571E-01 7.46004E+03 2.67290E+05 4.00753E-08 4.83166E+04 4.37469E-07
 -1       223-2.01507E-01 2.71473E+04 4.53229E+05-5.80750E-01 1.11902E+05 3.76723E-01
 -1       224-2.02065E-01 2.71522E+04 4.53228E+05 1.16032E-07 1.11908E+05 9.22412E-07
 -1       225-1.49337E-02 2.12825E+04 4.95253E+05 2.28669E-01 1.02855E+05-2.32400E-01
 -1       226 1.18171E-01 1.36758E+04 2.25244E+05-3.73981E-01 5.73672E+04 5.01674E-01
 -1       227-2.01786E-01 2.71498E+04 4.53228E+05-1.02843E+00 1.11905E+05-4.17104E-01
 -1       228-1.26324E-02 2.12804E+04 4.95254E+05 2.00760E-07 1.02853E+05 9.03090E-07
 -1       229 1.18783E-01 1.36788E+04 2.25243E+05 1.59362E-07 5.73711E+04 4.68778E-07
 -1       230-6.91815E-01 3.58809E+04 3.72814E+05-8.20438E-01 1.16187E+05 7.12857E-02
 -1       231-6.53404E-01 3.58876E+04 3.72814E+05 9.60810E-07 1.16194E+05 7.29686E-07
 -1       232 2.17836E-01 3.14728E+04 4.12901E+05 3.59769E-01 1.14087E+05-1.25234E-01
 -1       233-1.85453E-01 1.84012E+04 1.85191E+05-4.94769E-01 5.93980E+04 3.29226E-01
 -1       234-6.72609E-01 3.58842E+04 3.72814E+05-1.44581E+00 1.16191E+05-5.87105E-01
 -1       235 2.36757E-01 3.14700E+04 4.12901E+05 2.40418E-07 1.14084E+05 8.71516E-07
 -1       236-1.65024E-01 1.84053E+04 1.85191E+05 1.62915E-07 5.94026E+04 4.17423E-07
 -1       237-1.39399E+00 4.01860E+04 2.98129E+05-1.43644E+00 1.09673E+05-4.88020E-01
 -1       238-1.47839E+00 4.01939E+04 2.98131E+05 4.06111E-07 1.09681E+05 7.34267E-07
 -1       239 4.75915E-01 3.79768E+04 3.35392E+05 4.70442E-01 1.12981E+05 7.00539E-02
 -1       240-5.27350E-01 2.08267E+04 1.47977E+05-9.27163E-01 5.60610E+04 1.64566E-02
 -1       241-1.43619E+00 4.01900E+04 2.98130E+05-1.87645E+00 1.09677E+05-9.29085E-01
 -1       242 4.52939E-01 3.79730E+04 3.35391E+05 4.80088E-07 1.12977E+05 8.03155E-07
 -1       243-5.64988E-01 2.08318E+04 1.47978E+05 2.68275E-07 5.60666E+04 3.56622E-07
 -1       244-2.02282E+00 3.95371E+04 2.29574E+05-1.35975E+00 9.53306E+04-1.14203E+00
 -1       245-1.62938E+00 3.95489E+04 2.29577E+05-6.80019E-07 9.53408E+04 5.03700E-07
 -1       246 9.24047E-01 3.97942E+04 2.63818E+05 9.83178E-01 1.02570E+05 4.50129E-01
 -1       247-1.19718E+00 2.07217E+04 1.13810E+05-6.86295E-01 4.88229E+04-4.71277E-01
 -1       248-1.82610E+00 3.95430E+04 2.29576E+05-2.71483E+00 9.53357E+04-1.26235E+00
 -1       249 1.07850E+00 3.97902E+04 2.63817E+05 4.20616E-07 1.02566E+05 5.78599E-07
 -1       250-1.00293E+00 2.07288E+04 1.13812E+05-3.28734E-08 4.88298E+04 3.92925E-07
 -1       251-3.97804E+00 3.43033E+04 1.66670E+05-4.78368E+00 7.55675E+04-2.71432E+00
 -1       252-5.31977E+00 3.43092E+04 1.66676E+05 2.63274E-06 7.55799E+04 4.31193E-07
 -1       253 1.09599E+00 3.68483E+04 1.98148E+05 3.78544E-01 8.55408E+04 6.76087E-01
 -1       254-1.33677E+00 1.82587E+04 8.24551E+04-3.55035E+00 3.88883E+04-1.09546E+00
 -1       255-4.64890E+00 3.43063E+04 1.66673E+05-2.63886E+00 7.55737E+04-2.38254E+00
 -1       256 6.22077E-01 3.68406E+04 1.98146E+05 2.04750E-07 8.55352E+04 3.13956E-07
 -1       257-1.98309E+00 1.82645E+04 8.24581E+04 8.99127E-07 3.88976E+04 4.56249E-07
 -1       258-2.41775E+00 2.51914E+04 1.08454E+05 3.93135E+00 5.22116E+04-2.26064E+00
 -1       259 2.66512E+00 2.52282E+04 1.08456E+05-1.66121E-07 5.22269E+04-1.85770E-07
 -1       260 2.93237E+00 2.96776E+04 1.37668E+05 4.47316E+00 6.40056E+04 2.20701E+00
 -1       261-4.42552E+00 1.38499E+04 5.33911E+04 4.43555E+00 2.72058E+04-2.23013E+00
 -1       262 1.23686E-01 2.52098E+04 1.08455E+05-6.58728E+00 5.22193E+04-1.27679E+00
 -1       263 4.80209E+00 2.96790E+04 1.37664E+05 1.01680E-06 6.39985E+04 2.81735E-07
 -1       264-1.93655E+00 1.38674E+04 5.33959E+04 1.95543E-07 2.72140E+04 8.63239E-08
 -1       265-1.60818E+01 1.37972E+04 5.32196E+04-3.39582E+01 2.69341E+04-1.12160E+01
 -1       266-3.45913E+01 1.37279E+04 5.32495E+04-8.00860E-07 2.69523E+04 5.02983E-07
 -1       267-6.69898E-01 1.94231E+04 8.10576E+04-8.55970E+00 3.97130E+04-4.22156E-01
 -1       268 2.20597E+00 8.10135E+03 2.59274E+04-2.87197E+01 1.44903E+04-2.43929E+00
 -1       269-2.53366E+01 1.37625E+04 5.32346E+04 3.48223E+00 2.69432E+04-9.68782E+00
 -1       270-7.38010E+00 1.93861E+04 8.10601E+04 1.54456E-06 3.97055E+04 2.86895E-07
 -1       271-6.89038E+00 8.08308E+03 2.59312E+04 1.03773E-07 1.45131E+04-3.49788E-09
 -1       272 8.14222E+01 1.00651E+03 1.42127E+03 1.95343E+02 1.88440E+03 4.84054E+01
 -1       273 1.49592E+02 1.10115E+03 1.29915E+03-1.59710E-07 1.58906E+03 2.47342E-07
 -1       274 1.74671E+01 6.69360E+03 2.72967E+04 4.31239E+01 1.36491E+04 1.35126E+01
 -1       275-1.37476E+00 1.41498E+03-7.41019E+02 1.50943E+02 1.53257E+03 2.90298E+00
 -1       276 1.15507E+02 1.05383E+03 1.36021E+03 6.41873E+01 1.73673E+03 4.99572E+01
 -1       277 4.22948E+01 6.79533E+03 2.72664E+04-1.74735E-06 1.36358E+04 1.64612E-07
 -1       278 3.24314E+01 1.38895E+03-7.56241E+02-2.42113E-06 1.29323E+03-1.22324E-07
 -1       279 1.40876E+01-4.88201E+03 7.01776E+05 3.25355E+01 3.45517E+03-1.61091E+01
 -1       280 6.17341E-01 4.64480E+03 6.22728E+05 2.75411E-01 5.75627E+04-3.91473E-01
 -1       281 1.40876E+01-4.89531E+03 7.01772E+05 3.08952E+01 3.46191E+03-1.53518E+01
 -1       282 6.16240E-01 4.64568E+03 6.22726E+05 4.02072E-01 5.75653E+04 4.33666E-01
 -1       283 9.15239E+00-4.48105E+03 3.49015E+05 2.25633E+01 2.48664E+03-1.02154E+01
 -1       284-4.04979E-01 1.00813E+03 6.62521E+05-1.11016E-01 3.06519E+04 1.37910E-01
 -1       285 5.91523E-01 1.35332E+03 3.09635E+05 2.15412E-01 3.05659E+04-4.38968E-01
 -1       286 2.27344E-01 1.54591E+04 5.37609E+05 3.88392E-01 9.37146E+04-4.86103E-01
 -1       287 2.29923E-01 1.54608E+04 5.37607E+05 6.99427E-01 9.37173E+04 3.63987E-01
 -1       288-2.11598E-01 1.00323E+04 5.79968E+05-1.63246E-01 7.56991E+04 2.36381E-01
 -1       289 3.59049E-01 7.45802E+03 2.67292E+05 2.67291E-01 4.83131E+04-5.38664E-01
 -1       290-2.01507E-01 2.71473E+04 4.53229E+05 5.80750E-01 1.11902E+05-3.76721E-01
 -1       291-2.01786E-01 2.71498E+04 4.53228E+05 1.02843E+00 1.11905E+05 4.17106E-01
 -1       292-1.49337E-02 2.12825E+04 4.95253E+05-2.28669E-01 1.02855E+05 2.32402E-01
 -1       293 1.18171E-01 1.36758E+04 2.25244E+05 3.73981E-01 5.73672E+04-5.01673E-01
 -1       294-6.91815E-01 3.58809E+04 3.72814E+05 8.20439E-01 1.16187E+05-7.12843E-02
 -1       295-6.72609E-01 3.58842E+04 3.72814E+05 1.44581E+00 1.16191E+05 5.87106E-01
 -1       296 2.17836E-01 3.14728E+04 4.12901E+05-3.59768E-01 1.14087E+05 1.25235E-01
 -1       297-1.85453E-01 1.84012E+04 1.85191E+05 4.94769E-01 5.93980E+04-3.29225E-01
 -1       298-1.39399E+00 4.01860E+04 2.98129E+05 1.43644E+00 1.09673E+05 4.88021E-01
 -1       299-1.43619E+00 4.01900E+04 2.98130E+05 1.87645E+00 1.09677E+05 9.29087E-01
 -1       300 4.75915E-01 3.79768E+04 3.35392E+05-4.70442E-01 1.12981E+05-7.00526E-02
 -1       301-5.27350E-01 2.08267E+04 1.47977E+05 9.27163E-01 5.60610E+04-1.64558E-02
 -1       302-2.02282E+00 3.95371E+04 2.29574E+05 1.35974E+00 9.53306E+04 1.14203E+00
 -1       303-1.82610E+00 3.95430E+04 2.29576E+05 2.71483E+00 9.53357E+04 1.26236E+00
 -1       304 9.24047E-01 3.97942E+04 2.63818E+05-9.83177E-01 1.02570E+05-4.50128E-01
 -1       305-1.19718E+00 2.07217E+04 1.13810E+05 6.86295E-01 4.88229E+04 4.71277E-01
 -1       306-3.97804E+00 3.43033E+04 1.66670E+05 4.78368E+00 7.55675E+04 2.71433E+00
 -1       307-4.64891E+00 3.43063E+04 1.66673E+05 2.63886E+00 7.55737E+04 2.38254E+00
 -1       308 1.09599E+00 3.68483E+04 1.98148E+05-3.78545E-01 8.55408E+04-6.76086E-01
 -1       309-1.33677E+00 1.82587E+04 8.24551E+04 3.55035E+00 3.88883E+04 1.09546E+00
 -1       310-2.41775E+00 2.51914E+04 1.08454E+05-3.93134E+00 5.22116E+04 2.26064E+00
 -1       311 1.23687E-01 2.52098E+04 1.08455E+05 6.58728E+00 5.22193E+04 1.27679E+00
 -1       312 2.93237E+00 2.96776E+04 1.37668E+05-4.47316E+00 6.40056E+04-2.20701E+00
 -1       313-4.42552E+00 1.38499E+04 5.33911E+04-4.43554E+00 2.72058E+04 2.23013E+00
 -1       314-1.60818E+01 1.37972E+04 5.32196E+04 3.39582E+01 2.69341E+04 1.12160E+01
 -1       315-2.53366E+01 1.37625E+04 5.32346E+04-3.48223E+00 2.69432E+04 9.68782E+00
 -1       316-6.69897E-01 1.94231E+04 8.10576E+04 8.55969E+00 3.97130E+04 4.22157E-01
 -1       317 2.20597E+00 8.10135E+03 2.59274E+04 2.87197E+01 1.44903E+04 2.43929E+00
 -1       318 8.14222E+01 1.00651E+03 1.42127E+03-1.95343E+02 1.88440E+03-4.84054E+01
 -1       319 1.15507E+02 1.05383E+03 1.36021E+03-6.41873E+01 1.73673E+03-4.99572E+01
 -1       320 1.74671E+01 6.69360E+03 2.72967E+04-4.31239E+01 1.36491E+04-1.35126E+01
 -1       321-1.37476E+00 1.41498E+03-7.41019E+02-1.50943E+02 1.53257E+03-2.90298E+00
 -3
    1PSTEP                         5           3           1          
  100CL  103 1.50000E-01         321                     0    3           1
 -4  DISP        4    1
 -5  D1          1    2    1    0
 -5  D2          1    2    2    0
 -5  D3          1    2    3    0
 -5  ALL         1    2    0    0    1ALL
 -1         1 0.00000E+00 0.00000E+00 0.00000E+00
 -1         2 0.00000E+00 0.00000E+00 0.00000E+00
 -1         3-9.57753E-09 6.43902E-02-2.78331E-03
 -1         4-2.05538E-08 6.37962E-02-1.21050E-02
 -1         5 0.00000E+00 0.00000E+00 0.00000E+00
 -1         6 0.00000E+00 0.00000E+00 0.00000E+00
 -1         7-8.94206E-13 6.43902E-02-2.78329E-03
 -1         8-7.68155E-13 6.37961E-02-1.21050E-02
 -1         9 0.00000E+00 0.00000E+00 0.00000E+00
 -1        10 1.95030E-09 1.64317E-02-3.76284E-04
 -1        11-1.50644E-08 6.40929E-02-7.44315E-03
 -1        12 4.68068E-09 1.62733E-02-5.17747E-03
 -1        13 0.00000E+00 0.00000E+00 0.00000E+00
 -1        14 0.00000E+00 0.00000E+00 0.00000E+00
 -1        15-4.78959E-09 6.43902E-02-2.78330E-03
 -1        16-1.02778E-08 6.37962E-02-1.21050E-02
 -1        17 0.00000E+00 0.00000E+00 0.00000E+00
 -1        18-2.23604E-13 1.64317E-02-3.76288E-04
 -1        19-8.31168E-13 6.40928E-02-7.44313E-03
 -1        20-1.64242E-13 1.62734E-02-5.17748E-03
 -1        21-2.24480E-08 2.46738E-01-2.01054E-02
 -1        22-4.48648E-08 2.44648E-01-3.75297E-02
 -1        23-3.56094E-12 2.46738E-01-2.01054E-02
 -1        24-3.30365E-12 2.44648E-01-3.75297E-02
 -1        25 7.62024E-09 1.41862E-01-8.90483E-03
 -1        26-3.36532E-08 2.45693E-01-2.88168E-02
 -1        27 1.58596E-08 1.40614E-01-2.24259E-02
 -1        28-1.12258E-08 2.46738E-01-2.01054E-02
 -1        29-2.24343E-08 2.44648E-01-3.75297E-02
 -1        30-2.00837E-12 1.41862E-01-8.90484E-03
 -1        31-3.43220E-12 2.45693E-01-2.88168E-02
 -1        32-1.81600E-12 1.40614E-01-2.24259E-02
 -1        33-3.81995E-08 5.30383E-01-6.16029E-02
 -1        34-7.33300E-08 5.26267E-01-8.58971E-02
 -1        35-7.94874E-12 5.30383E-01-6.16029E-02
 -1        36-7.56990E-12 5.26267E-01-8.58970E-02
 -1        37 1.48154E-08 3.76943E-01-3.74193E-02
 -1        38-5.57715E-08 5.28325E-01-7.37492E-02
 -1        39 2.89877E-08 3.73896E-01-5.84262E-02
 -1        40-1.91035E-08 5.30383E-01-6.16029E-02
 -1        41-3.66682E-08 5.26267E-01-8.58970E-02
 -1        42-5.54462E-12 3.76943E-01-3.74194E-02
 -1        43-7.75930E-12 5.28325E-01-7.37492E-02
 -1        44-5.22645E-12 3.73896E-01-5.84262E-02
 -1        45-5.64625E-08 8.98929E-01-1.32310E-01
 -1        46-1.06661E-07 8.92564E-01-1.62290E-01
 -1        47-1.39686E-11 8.98929E-01-1.32310E-01
 -1        48-1.34759E-11 8.92564E-01-1.62290E-01
 -1        49 2.33615E-08 7.05039E-01-9.31455E-02
 -1        50-8.15297E-08 8.95747E-01-1.47300E-01
 -1        51 4.43139E-08 6.99823E-01-1.20425E-01
 -1        52-2.82379E-08 8.98929E-01-1.32310E-01
 -1        53-5.33392E-08 8.92564E-01-1.62290E-01
 -1        54-1.07617E-11 7.05039E-01-9.31455E-02
 -1        55-1.37221E-11 8.95746E-01-1.47300E-01
 -1        56-1.03257E-11 6.99823E-01-1.20425E-01
 -1        57-7.67745E-08 1.33691E+00-2.33550E-01
 -1        58-1.45288E-07 1.32832E+00-2.68117E-01
 -1        59-2.14946E-11 1.33691E+00-2.33550E-01
 -1        60-2.09025E-11 1.32832E+00-2.68117E-01
 -1        61 3.30628E-08 1.11016E+00-1.79151E-01
 -1        62-1.11142E-07 1.33261E+00-2.50833E-01
 -1        63 6.22994E-08 1.10268E+00-2.11559E-01
 -1        64-3.83968E-08 1.33691E+00-2.33550E-01
 -1        65-7.26465E-08 1.32832E+00-2.68117E-01
 -1        66-1.75526E-11 1.11016E+00-1.79151E-01
 -1        67-2.11982E-11 1.33261E+00-2.50833E-01
 -1        68-1.70103E-11 1.10268E+00-2.11559E-01
 -1        69-9.83946E-08 1.83012E+00-3.63781E-01
 -1        70-1.91060E-07 1.81949E+00-4.01934E-01
 -1        71-3.03570E-11 1.83012E+00-3.63780E-01
 -1        72-2.96803E-11 1.81949E+00-4.01934E-01
 -1        73 4.36558E-08 1.57745E+00-2.95227E-01
 -1        74-1.44305E-07 1.82481E+00-3.82857E-01
 -1        75 8.29246E-08 1.56782E+00-3.31713E-01
 -1        76-4.92132E-08 1.83012E+00-3.63781E-01
 -1        77-9.55740E-08 1.81949E+00-4.01934E-01
 -1        78-2.57686E-11 1.57745E+00-2.95227E-01
 -1        79-3.00184E-11 1.82481E+00-3.82857E-01
 -1        80-2.51329E-11 1.56782E+00-3.31713E-01
 -1        81-1.20274E-07 2.36563E+00-5.19337E-01
 -1        82-2.40661E-07 2.35332E+00-5.60169E-01
 -1        83-4.03463E-11 2.36563E+00-5.19337E-01
 -1        84-3.96031E-11 2.35332E+00-5.60169E-01
 -1        85 5.46527E-08 2.09335E+00-4.38686E-01
 -1        86-1.82027E-07 2.35948E+00-5.39752E-01
 -1        87 1.08017E-07 2.08184E+00-4.78297E-01
 -1        88-6.01509E-08 2.36563E+00-5.19337E-01
 -1        89-1.20241E-07 2.35332E+00-5.60169E-01
 -1        90-3.52279E-11 2.09335E+00-4.38686E-01
 -1        91-3.99743E-11 2.35948E+00-5.39752E-01
 -1        92-3.45156E-11 2.08184E+00-4.78297E-01
 -1        93-1.40577E-07 2.93175E+00-6.95040E-01
 -1        94-3.09759E-07 2.91816E+00-7.37722E-01
 -1        95-5.12093E-11 2.93174E+00-6.95040E-01
 -1        96-5.04204E-11 2.91816E+00-7.37722E-01
 -1        97 6.55383E-08 2.64556E+00-6.05036E-01
 -1        98-2.19334E-07 2.92495E+00-7.16381E-01
 -1        99 1.32586E-07 2.63256E+00-6.46906E-01
 -1       100-7.03273E-08 2.93175E+00-6.95040E-01
 -1       101-1.55313E-07 2.91816E+00-7.37722E-01
 -1       102-4.56865E-11 2.64556E+00-6.05036E-01
 -1       103-5.08152E-11 2.92495E+00-7.16381E-01
 -1       104-4.49166E-11 2.63256E+00-6.46906E-01
 -1       105-1.57285E-07 3.51769E+00-8.84690E-01
 -1       106-3.43683E-07 3.50332E+00-9.28455E-01
 -1       107-6.26647E-11 3.51769E+00-8.84690E-01
 -1       108-6.18418E-11 3.50332E+00-9.28455E-01
 -1       109 7.48092E-08 3.22288E+00-7.88534E-01
 -1       110-2.72251E-07 3.51051E+00-9.06572E-01
 -1       111 1.76752E-07 3.20885E+00-8.31869E-01
 -1       112-7.86334E-08 3.51769E+00-8.84690E-01
 -1       113-1.70346E-07 3.50332E+00-9.28455E-01
 -1       114-5.68842E-11 3.22288E+00-7.88534E-01
 -1       115-6.22528E-11 3.51051E+00-9.06572E-01
 -1       116-5.60729E-11 3.20885E+00-8.31869E-01
 -1       117-1.66361E-07 4.11338E+00-1.08146E+00
 -1       118-5.49477E-07 4.09875E+00-1.12558E+00
 -1       119-7.44114E-11 4.11338E+00-1.08146E+00
 -1       120-7.35755E-11 4.09875E+00-1.12558E+00
 -1       121 8.26839E-08 3.81494E+00-9.82621E-01
 -1       122-2.76386E-07 4.10607E+00-1.10352E+00
 -1       123 1.67534E-07 3.80038E+00-1.02668E+00
 -1       124-8.32882E-08 4.11338E+00-1.08146E+00
 -1       125-2.80494E-07 4.09875E+00-1.12558E+00
 -1       126-6.85175E-11 3.81494E+00-9.82621E-01
 -1       127-7.39951E-11 4.10607E+00-1.10352E+00
 -1       128-6.76800E-11 3.80038E+00-1.02668E+00
 -1       129 0.00000E+00 0.00000E+00 0.00000E+00
 -1       130 0.00000E+00 0.00000E+00 0.00000E+00
 -1       131 9.57574E-09 6.43902E-02-2.78331E-03
 -1       132 2.05522E-08 6.37962E-02-1.21050E-02
 -1       133 0.00000E+00 0.00000E+00 0.00000E+00
 -1       134 0.00000E+00 0.00000E+00 0.00000E+00
 -1       135 4.78780E-09 6.43902E-02-2.78330E-03
 -1       136 1.02763E-08 6.37962E-02-1.21050E-02
 -1       137 0.00000E+00 0.00000E+00 0.00000E+00
 -1       138-1.95075E-09 1.64317E-02-3.76284E-04
 -1       139 1.50628E-08 6.40929E-02-7.44315E-03
 -1       140-4.68101E-09 1.62733E-02-5.17747E-03
 -1       141 2.24409E-08 2.46738E-01-2.01054E-02
 -1       142 4.48582E-08 2.44648E-01-3.75297E-02
 -1       143 1.12187E-08 2.46738E-01-2.01054E-02
 -1       144 2.24277E-08 2.44648E-01-3.75297E-02
 -1       145-7.62425E-09 1.41862E-01-8.90483E-03
 -1       146 3.36463E-08 2.45693E-01-2.88168E-02
 -1       147-1.58632E-08 1.40614E-01-2.24259E-02
 -1       148 3.81837E-08 5.30383E-01-6.16029E-02
 -1       149 7.33148E-08 5.26267E-01-8.58971E-02
 -1       150 1.90876E-08 5.30383E-01-6.16029E-02
 -1       151 3.66531E-08 5.26267E-01-8.58970E-02
 -1       152-1.48265E-08 3.76943E-01-3.74193E-02
 -1       153 5.57560E-08 5.28325E-01-7.37492E-02
 -1       154-2.89981E-08 3.73896E-01-5.84262E-02
 -1       155 5.64345E-08 8.98929E-01-1.32310E-01
 -1       156 1.06634E-07 8.92564E-01-1.62290E-01
 -1       157 2.82100E-08 8.98929E-01-1.32310E-01
 -1       158 5.33122E-08 8.92564E-01-1.62290E-01
 -1       159-2.33830E-08 7.05039E-01-9.31455E-02
 -1       160 8.15023E-08 8.95747E-01-1.47300E-01
 -1       161-4.43346E-08 6.99823E-01-1.20425E-01
 -1       162 7.67315E-08 1.33691E+00-2.33550E-01
 -1       163 1.45246E-07 1.32832E+00-2.68117E-01
 -1       164 3.83538E-08 1.33691E+00-2.33550E-01
 -1       165 7.26047E-08 1.32832E+00-2.68117E-01
 -1       166-3.30979E-08 1.11016E+00-1.79151E-01
 -1       167 1.11099E-07 1.33261E+00-2.50833E-01
 -1       168-6.23335E-08 1.10268E+00-2.11559E-01
 -1       169 9.83339E-08 1.83012E+00-3.63781E-01
 -1       170 1.91001E-07 1.81949E+00-4.01934E-01
 -1       171 4.91524E-08 1.83012E+00-3.63781E-01
 -1       172 9.55146E-08 1.81949E+00-4.01934E-01
 -1       173-4.37073E-08 1.57745E+00-2.95227E-01
 -1       174 1.44245E-07 1.82481E+00-3.82857E-01
 -1       175-8.29749E-08 1.56782E+00-3.31713E-01
 -1       176 1.20193E-07 2.36563E+00-5.19337E-01
 -1       177 2.40582E-07 2.35332E+00-5.60169E-01
 -1       178 6.00702E-08 2.36563E+00-5.19337E-01
 -1       179 1.20162E-07 2.35332E+00-5.60169E-01
 -1       180-5.47231E-08 2.09335E+00-4.38686E-01
 -1       181 1.81947E-07 2.35948E+00-5.39752E-01
 -1       182-1.08086E-07 2.08184E+00-4.78297E-01
 -1       183 1.40474E-07 2.93175E+00-6.95040E-01
 -1       184 3.09659E-07 2.91816E+00-7.37722E-01
 -1       185 7.02249E-08 2.93175E+00-6.95040E-01
 -1       186 1.55212E-07 2.91816E+00-7.37722E-01
 -1       187-6.56297E-08 2.64556E+00-6.05036E-01
 -1       188 2.19232E-07 2.92495E+00-7.16381E-01
 -1       189-1.32676E-07 2.63256E+00-6.46906E-01
 -1       190 1.57160E-07 3.51769E+00-8.84690E-01
 -1       191 3.43560E-07 3.50332E+00-9.28455E-01
 -1       192 7.85081E-08 3.51769E+00-8.84690E-01
 -1       193 1.70223E-07 3.50332E+00-9.28455E-01
 -1       194-7.49229E-08 3.22288E+00-7.88534E-01
 -1       195 2.72127E-07 3.51051E+00-9.06572E-01
 -1       196-1.76864E-07 3.20885E+00-8.31869E-01
 -1       197 1.66212E-07 4.11338E+00-1.08146E+00
 -1       198 5.49330E-07 4.09875E+00-1.12558E+00
 -1       199 8.31394E-08 4.11338E+00-1.08146E+00
 -1       200 2.80347E-07 4.09875E+00-1.12558E+00
 -1       201-8.28209E-08 3.81494E+00-9.82621E-01
 -1       202 2.76238E-07 4.10607E+00-1.10352E+00
 -1       203-1.67670E-07 3.80038E+00-1.02668E+00
 -1       204 0.00000E+00 0.00000E+00 0.00000E+00
 -1       205-2.84376E-08 6.49834E-02 6.53466E-03
 -1       206 0.00000E+00 0.00000E+00 0.00000E+00
 -1       207-1.01974E-12 6.49833E-02 6.53471E-03
 -1       208 0.00000E+00 0.00000E+00 0.00000E+00
 -1       209 6.62852E-09 1.65903E-02 4.42621E-03
 -1       210-1.90088E-08 6.46872E-02 1.87469E-03
 -1       211 0.00000E+00 0.00000E+00 0.00000E+00
 -1       212-1.42194E-08 6.49833E-02 6.53468E-03
 -1       213 0.00000E+00 0.00000E+00 0.00000E+00
 -1       214-2.83054E-13 1.65903E-02 4.42620E-03
 -1       215-9.57028E-13 6.46871E-02 1.87472E-03
 -1       216-5.99491E-08 2.48827E-01-2.68589E-03
 -1       217-3.81690E-12 2.48827E-01-2.68581E-03
 -1       218 2.18091E-08 1.43110E-01 4.61848E-03
 -1       219-4.12013E-08 2.47783E-01-1.13964E-02
 -1       220-2.99759E-08 2.48827E-01-2.68585E-03
 -1       221-2.20123E-12 1.43110E-01 4.61845E-03
 -1       222-3.68884E-12 2.47783E-01-1.13963E-02
 -1       223-9.29509E-08 5.34497E-01-3.73133E-02
 -1       224-8.32613E-12 5.34497E-01-3.73132E-02
 -1       225 3.81337E-08 3.79990E-01-1.64101E-02
 -1       226-6.55671E-08 5.32440E-01-4.94589E-02
 -1       227-4.64796E-08 5.34497E-01-3.73132E-02
 -1       228-5.86348E-12 3.79990E-01-1.64102E-02
 -1       229-8.13744E-12 5.32440E-01-4.94588E-02
 -1       230-1.25554E-07 9.05292E-01-1.02333E-01
 -1       231-1.44590E-11 9.05292E-01-1.02333E-01
 -1       232 5.48014E-08 7.10256E-01-6.58643E-02
 -1       233-9.10409E-08 9.02110E-01-1.17322E-01
 -1       234-6.27807E-08 9.05292E-01-1.02333E-01
 -1       235-1.11984E-11 7.10256E-01-6.58644E-02
 -1       236-1.42136E-11 9.02110E-01-1.17322E-01
 -1       237-1.55853E-07 1.34551E+00-1.98983E-01
 -1       238-2.20839E-11 1.34551E+00-1.98983E-01
 -1       239 7.07247E-08 1.11764E+00-1.46742E-01
 -1       240-1.16197E-07 1.34121E+00-2.16267E-01
 -1       241-7.79445E-08 1.34551E+00-1.98983E-01
 -1       242-1.80967E-11 1.11764E+00-1.46742E-01
 -1       243-2.17890E-11 1.34121E+00-2.16267E-01
 -1       244-1.79887E-07 1.84074E+00-3.25626E-01
 -1       245-3.10299E-11 1.84074E+00-3.25626E-01
 -1       246 8.50846E-08 1.58708E+00-2.58741E-01
 -1       247-1.39579E-07 1.83543E+00-3.44704E-01
 -1       248-8.99250E-08 1.84074E+00-3.25626E-01
 -1       249-2.64062E-11 1.58708E+00-2.58741E-01
 -1       250-3.06931E-11 1.83543E+00-3.44704E-01
 -1       251-1.97907E-07 2.37796E+00-4.78501E-01
 -1       252-4.10893E-11 2.37796E+00-4.78501E-01
 -1       253 9.47435E-08 2.10485E+00-3.99076E-01
 -1       254-1.57484E-07 2.37180E+00-4.98920E-01
 -1       255-9.90877E-08 2.37796E+00-4.78501E-01
 -1       256-3.59421E-11 2.10485E+00-3.99076E-01
 -1       257-4.07175E-11 2.37179E+00-4.98920E-01
 -1       258-1.89644E-07 2.94534E+00-6.52350E-01
 -1       259-5.20010E-11 2.94534E+00-6.52350E-01
 -1       260 1.03095E-07 2.65856E+00-5.63169E-01
 -1       261-1.71063E-07 2.93854E+00-6.73696E-01
 -1       262-9.44169E-08 2.94534E+00-6.52350E-01
 -1       263-4.64555E-11 2.65856E+00-5.63169E-01
 -1       264-5.16057E-11 2.93854E+00-6.73696E-01
 -1       265-2.03737E-07 3.53207E+00-8.40911E-01
 -1       266-6.34911E-11 3.53207E+00-8.40911E-01
 -1       267 8.63943E-08 3.23691E+00-7.45204E-01
 -1       268-1.58477E-07 3.52488E+00-8.62801E-01
 -1       269-1.03461E-07 3.53207E+00-8.40911E-01
 -1       270-5.76940E-11 3.23691E+00-7.45204E-01
 -1       271-6.30774E-11 3.52488E+00-8.62801E-01
 -1       272-2.36122E-08 4.12803E+00-1.03732E+00
 -1       273-7.52551E-11 4.12803E+00-1.03732E+00
 -1       274 1.17612E-07 3.82949E+00-9.38573E-01
 -1       275-1.76878E-07 4.12071E+00-1.05939E+00
 -1       276-6.11796E-09 4.12803E+00-1.03732E+00
 -1       277-6.93532E-11 3.82949E+00-9.38573E-01
 -1       278-7.48349E-11 4.12070E+00-1.05939E+00
 -1       279 0.00000E+00 0.00000E+00 0.00000E+00
 -1       280 2.84355E-08 6.49834E-02 6.53466E-03
 -1       281 0.00000E+00 0.00000E+00 0.00000E+00
 -1       282 1.42173E-08 6.49833E-02 6.53468E-03
 -1       283 0.00000E+00 0.00000E+00 0.00000E+00
 -1       284-6.62908E-09 1.65903E-02 4.42621E-03
 -1       285 1.90069E-08 6.46872E-02 1.87469E-03
 -1       286 5.99414E-08 2.48827E-01-2.68589E-03
 -1       287 2.99683E-08 2.48827E-01-2.68585E-03
 -1       288-2.18135E-08 1.43110E-01 4.61848E-03
 -1       289 4.11940E-08 2.47783E-01-1.13964E-02
 -1       290 9.29343E-08 5.34497E-01-3.73133E-02
 -1       291 4.64629E-08 5.34497E-01-3.73132E-02
 -1       292-3.81454E-08 3.79990E-01-1.64101E-02
 -1       293 6.55508E-08 5.32440E-01-4.94589E-02
 -1       294 1.25525E-07 9.05292E-01-1.02333E-01
 -1       295 6.27518E-08 9.05292E-01-1.02333E-01
 -1       296-5.48238E-08 7.10256E-01-6.58643E-02
 -1       297 9.10125E-08 9.02110E-01-1.17322E-01
 -1       298 1.55809E-07 1.34551E+00-1.98983E-01
 -1       299 7.79004E-08 1.34551E+00-1.98983E-01
 -1       300-7.07609E-08 1.11764E+00-1.46742E-01
 -1       301 1.16153E-07 1.34121E+00-2.16267E-01
 -1       302 1.79825E-07 1.84074E+00-3.25626E-01
 -1       303 8.98629E-08 1.84074E+00-3.25626E-01
 -1       304-8.51374E-08 1.58708E+00-2.58741E-01
 -1       305 1.39517E-07 1.83543E+00-3.44704E-01
 -1       306 1.97825E-07 2.37796E+00-4.78501E-01
 -1       307 9.90055E-08 2.37796E+00-4.78501E-01
 -1       308-9.48154E-08 2.10485E+00-3.99076E-01
 -1       309 1.57403E-07 2.37180E+00-4.98920E-01
 -1       310 1.89540E-07 2.94534E+00-6.52350E-01
 -1       311 9.43129E-08 2.94534E+00-6.52350E-01
 -1       312-1.03188E-07 2.65856E+00-5.63169E-01
 -1       313 1.70960E-07 2.93854E+00-6.73696E-01
 -1       314 2.03610E-07 3.53207E+00-8.40911E-01
 -1       315 1.03334E-07 3.53207E+00-8.40911E-01
 -1       316-8.65097E-08 3.23691E+00-7.45204E-01
 -1       317 1.58351E-07 3.52488E+00-8.62801E-01
 -1       318 2.34617E-08 4.12803E+00-1.03732E+00
 -1       319 5.96745E-09 4.12803E+00-1.03732E+00
 -1       320-1.17751E-07 3.82949E+00-9.38573E-01
 -1       321 1.76729E-07 4.12071E+00-1.05939E+00
 -3
    1PSTEP                         6           3           1          
  100CL  103 1.50000E-01         321                     0    3           1
 -4  STRESS      6    1
 -5  SXX         1    4    1    1
 -5  SYY         1    4    2    2
 -5  SZZ         1    4    3    3
 -5  SXY         1    4    1    2
 -5  SYZ         1    4    2    3
 -5  SZX         1    4    3    1
 -1         1 2.01183E+01-5.61025E+03-9.82433E+05-3.66924E+01-2.26335E+02 1.22456E+01
 -1         2 8.99192E+00-8.12246E+03-7.43438E+03-1.26151E+01 2.88206E+03 8.04369E+00
 -1         3 1.09738E+00-3.79710E+03-6.86612E+03-1.17719E-01 5.16980E+03 8.31708E-01
 -1         4 1.25409E+00-1.22508E+04-8.60470E+05 1.76568E-01-1.12194E+05 1.87864E+00
 -1         5 2.01183E+01-5.56986E+03-9.82437E+05-4.70704E-08-2.21724E+02 3.81408E-06
 -1         6 8.99192E+00-8.12121E+03-7.43765E+03 1.36091E-07 2.88923E+03 6.22335E-08
 -1         7 1.09131E+00-3.79635E+03-6.86877E+03 1.25831E-07 5.17118E+03 9.19941E-08
 -1         8 1.24487E+00-1.22472E+04-8.60474E+05 1.00253E-06-1.12188E+05 8.04651E-06
 -1         9 1.45433E+01-6.72065E+03-4.94915E+05-2.21167E+01 1.67555E+03 1.00445E+01
 -1        10-5.89813E-01-3.63665E+03-6.83554E+03 8.07668E-02 3.78193E+03-3.41207E-01
 -1        11 1.17700E+00-8.04238E+03-4.33647E+05 2.31648E-02-5.35871E+04 1.25300E+00
 -1        12-6.08659E-01-6.59963E+03-9.22846E+05-6.62948E-02-5.71070E+04-8.66167E-01
 -1        13 2.01183E+01-5.59006E+03-9.82435E+05-3.86242E+01-2.24030E+02 1.13642E+01
 -1        14 8.99192E+00-8.12183E+03-7.43602E+03-1.19809E+01 2.88564E+03 7.58224E+00
 -1        15 1.09435E+00-3.79673E+03-6.86744E+03-2.69572E-01 5.17049E+03 2.61469E-01
 -1        16 1.24948E+00-1.22490E+04-8.60472E+05-9.79482E-02-1.12191E+05 8.80847E-01
 -1        17 1.45433E+01-6.68081E+03-4.94918E+05 1.04455E-08 1.67737E+03 1.93893E-06
 -1        18-5.92847E-01-3.63680E+03-6.83401E+03 7.68369E-08 3.78124E+03 5.92824E-08
 -1        19 1.16935E+00-8.04013E+03-4.33650E+05 4.61977E-07-5.35832E+04 3.59069E-06
 -1        20-6.13271E-01-6.60050E+03-9.22844E+05 4.86810E-07-5.71103E+04 5.86186E-06
 -1        21 9.58776E-01-9.70137E+02-5.93011E+03-2.88222E-02 3.98627E+03 1.02885E+00
 -1        22 1.38706E+00-4.24759E+04-7.22967E+05 2.60002E-01-1.77218E+05 2.07823E+00
 -1        23 9.58606E-01-9.68418E+02-5.93198E+03 1.38244E-07 3.98779E+03 6.22548E-08
 -1        24 1.38316E+00-4.24688E+04-7.22970E+05 1.69235E-06-1.77212E+05 7.18272E-06
 -1        25-5.08421E-01-2.61746E+03-6.27216E+03 4.06092E-02 4.43238E+03-4.79522E-01
 -1        26 1.17541E+00-2.17523E+04-3.64424E+05 9.15108E-02-8.66595E+04 1.46808E+00
 -1        27-6.50939E-01-2.79259E+04-7.91136E+05-1.10166E-01-1.45303E+05-9.98975E-01
 -1        28 9.58691E-01-9.69278E+02-5.93105E+03-3.91819E-01 3.98703E+03 3.62366E-01
 -1        29 1.38511E+00-4.24724E+04-7.22968E+05-3.30320E-01-1.77215E+05 9.55474E-01
 -1        30-5.11540E-01-2.61806E+03-6.27104E+03 1.18917E-07 4.43168E+03 6.00502E-08
 -1        31 1.17337E+00-2.17477E+04-3.64426E+05 8.29588E-07-8.66558E+04 3.32579E-06
 -1        32-6.57499E-01-2.79286E+04-7.91134E+05 1.35036E-06-1.45307E+05 7.68939E-06
 -1        33 8.35946E-01 4.59066E+02-5.25006E+03 5.98801E-04 3.66936E+03 1.08206E+00
 -1        34 1.60428E+00-7.14801E+04-5.88056E+05 2.55399E-01-2.06419E+05 2.17931E+00
 -1        35 8.39615E-01 4.61937E+02-5.25124E+03 1.43120E-07 3.67130E+03 3.20268E-08
 -1        36 1.61337E+00-7.14697E+04-5.88059E+05 2.37160E-06-2.06413E+05 7.33588E-06
 -1        37-4.50311E-01-5.58472E+02-5.52437E+03-4.53666E-03 3.73839E+03-5.39406E-01
 -1        38 1.21562E+00-3.55443E+04-2.96625E+05 8.82499E-02-1.01393E+05 1.56373E+00
 -1        39-7.41029E-01-5.76282E+04-6.54856E+05-1.44425E-01-1.92065E+05-1.06954E+00
 -1        40 8.37780E-01 4.60501E+02-5.25065E+03-5.70282E-01 3.67033E+03 3.79341E-01
 -1        41 1.60882E+00-7.14749E+04-5.88058E+05-6.30319E-01-2.06416E+05 9.53320E-01
 -1        42-4.48562E-01-5.59593E+02-5.52362E+03 5.59712E-08 3.73755E+03 4.46215E-08
 -1        43 1.22200E+00-3.55373E+04-2.96628E+05 1.20246E-06-1.01389E+05 3.38565E-06
 -1        44-7.38435E-01-5.76326E+04-6.54855E+05 2.24326E-06-1.92068E+05 7.20536E-06
 -1        45 6.81495E-01 1.77720E+03-4.52682E+03 2.34296E-02 3.14462E+03 1.00710E+00
 -1        46 1.81700E+00-9.21323E+04-4.64974E+05 2.58772E-01-2.07732E+05 2.24401E+00
 -1        47 6.86311E-01 1.78145E+03-4.52736E+03-4.16007E-07 3.14722E+03 1.31134E-07
 -1        48 1.78521E+00-9.21188E+04-4.64976E+05 2.68935E-06-2.07726E+05 6.58185E-06
 -1        49-3.84720E-01 7.79025E+02-4.92237E+03 1.43928E-02 3.37134E+03-5.34176E-01
 -1        50 1.27132E+00-4.52096E+04-2.34726E+05 8.88041E-02-1.02299E+05 1.58420E+00
 -1        51-8.67611E-01-8.24056E+04-5.25874E+05-1.02463E-01-2.07043E+05-1.10381E+00
 -1        52 6.83903E-01 1.77933E+03-4.52709E+03-7.98534E-01 3.14592E+03 3.06702E-01
 -1        53 1.80111E+00-9.21255E+04-4.64975E+05-1.06622E+00-2.07729E+05 9.12000E-01
 -1        54-3.80476E-01 7.77252E+02-4.92194E+03-1.69209E-07 3.37021E+03 5.82202E-08
 -1        55 1.25782E+00-4.52002E+04-2.34727E+05 1.09799E-06-1.02295E+05 3.11573E-06
 -1        56-8.78974E-01-8.24117E+04-5.25873E+05 2.18758E-06-2.07046E+05 7.06819E-06
 -1        57 4.35430E-01 2.71912E+03-3.91184E+03-3.76613E-01 2.74998E+03 8.44986E-01
 -1        58 2.16531E+00-1.00633E+05-3.57234E+05-2.48774E-01-1.90128E+05 2.21453E+00
 -1        59 4.54159E-01 2.72528E+03-3.91188E+03-3.70910E-07 2.75357E+03-6.32993E-08
 -1        60 2.29363E+00-1.00615E+05-3.57236E+05 2.68711E-06-1.90121E+05 6.15560E-06
 -1        61-2.96542E-01 1.89119E+03-4.32576E+03-2.31387E-02 2.94557E+03-4.63524E-01
 -1        62 1.22495E+00-4.89874E+04-1.80549E+05-3.83249E-01-9.36889E+04 1.49965E+00
 -1        63-9.57407E-01-9.68654E+04-4.10580E+05-1.43378E-01-1.98701E+05-1.13361E+00
 -1        64 4.44794E-01 2.72220E+03-3.91186E+03-1.24018E+00 2.75177E+03 2.16528E-01
 -1        65 2.22947E+00-1.00624E+05-3.57235E+05-1.51945E+00-1.90125E+05 7.94795E-01
 -1        66-2.84776E-01 1.88867E+03-4.32565E+03-2.67743E-07 2.94405E+03 1.87212E-08
 -1        67 1.29847E+00-4.89749E+04-1.80550E+05 1.25798E-06-9.36837E+04 2.81516E-06
 -1        68-9.09107E-01-9.68729E+04-4.10579E+05 3.42364E-06-1.98704E+05 6.29367E-06
 -1        69 8.44391E-02 3.42752E+03-3.37363E+03 1.40423E-01 2.42524E+03 4.18291E-01
 -1        70 2.04522E+00-9.67838E+04-2.65006E+05 5.96114E-01-1.60530E+05 2.51885E+00
 -1        71 7.41566E-02 3.43537E+03-3.37270E+03-8.65237E-08 2.42994E+03 7.76822E-08
 -1        72 1.57961E+00-9.67640E+04-2.65008E+05 3.58780E-06-1.60520E+05 4.76995E-06
 -1        73-1.34311E-01 2.71106E+03-3.82029E+03 4.15980E-01 2.59800E+03-3.76392E-01
 -1        74 1.35223E+00-4.67174E+04-1.34158E+05 3.06522E-01-7.90537E+04 1.51788E+00
 -1        75-1.20425E+00-9.90471E+04-3.10727E+05 3.99850E-01-1.74979E+05-1.08512E+00
 -1        76 7.92978E-02 3.43144E+03-3.37316E+03-1.43303E+00 2.42759E+03-1.71944E-01
 -1        77 1.81242E+00-9.67739E+04-2.65007E+05-2.53032E+00-1.60525E+05 8.38505E-01
 -1        78-1.30063E-01 2.70736E+03-3.82035E+03 5.95236E-07 2.59587E+03-6.57535E-08
 -1        79 1.11426E+00-4.67023E+04-1.34159E+05 1.63399E-06-7.90466E+04 2.20120E-06
 -1        80-1.37302E+00-9.90570E+04-3.10726E+05 2.50684E-06-1.74983E+05 5.45596E-06
 -1        81-5.21685E-01 3.92774E+03-2.93252E+03-3.50282E+00 2.19833E+03 4.86256E-01
 -1        82 3.57872E+00-8.21822E+04-1.86287E+05-4.39471E+00-1.24018E+05 1.43057E+00
 -1        83-4.20680E-01 3.94008E+03-2.93252E+03-1.90844E-06 2.20524E+03-1.47413E-07
 -1        84 5.32892E+00-8.21530E+04-1.86286E+05 5.66700E-06-1.24009E+05 3.51513E-06
 -1        85 3.90162E-02 3.31171E+03-3.40264E+03-5.28094E-01 2.30699E+03-2.42419E-02
 -1        86 4.73969E-01-3.91592E+04-9.45808E+04-4.13525E+00-6.09091E+04 8.44379E-01
 -1        87-8.88610E-01-8.96686E+04-2.25366E+05-9.55303E-01-1.41854E+05-1.40071E+00
 -1        88-4.71182E-01 3.93391E+03-2.93252E+03-3.16763E+00 2.20178E+03 2.57453E-01
 -1        89 4.45382E+00-8.21676E+04-1.86286E+05-2.24044E+00-1.24013E+05 1.26282E-01
 -1        90 8.42900E-02 3.30748E+03-3.40351E+03-1.11306E-06 2.30433E+03 1.76916E-07
 -1        91 1.39961E+00-3.91385E+04-9.45794E+04 1.32428E-06-6.09019E+04 1.64322E-06
 -1        92-2.45878E-01-8.96784E+04-2.25365E+05 4.18230E-06-1.41860E+05 3.71118E-06
 -1        93-1.21722E+00 4.27587E+03-2.60555E+03 7.17688E+00 2.07518E+03-2.22919E+00
 -1        94-8.78741E-01-5.90808E+04-1.18227E+05 1.18285E+01-8.38337E+04 6.09934E+00
 -1        95-1.43004E+00 4.28434E+03-2.59861E+03-7.95886E-07 2.08228E+03 2.99049E-07
 -1        96-7.41162E+00-5.90649E+04-1.18234E+05-5.70389E-07-8.38080E+04 2.04325E-06
 -1        97 5.31301E-01 3.73027E+03-3.09567E+03 4.04625E+00 2.08139E+03-4.79113E-01
 -1        98 2.88134E+00-2.75117E+04-6.03176E+04 9.73178E+00-4.08996E+04 2.59530E+00
 -1        99-2.55191E+00-7.06460E+04-1.52048E+05 5.26440E+00-1.03462E+05-1.40909E-01
 -1       100-1.32363E+00 4.28010E+03-2.60208E+03-8.60760E-02 2.07873E+03-2.89533E+00
 -1       101-4.14518E+00-5.90728E+04-1.18230E+05-7.57924E+00-8.38209E+04 2.28975E+00
 -1       102 4.75709E-01 3.72213E+03-3.09473E+03-2.32064E-06 2.07710E+03 7.11808E-09
 -1       103-4.91584E-01-2.74939E+04-6.03223E+04-1.19188E-06-4.08821E+04 1.39794E-06
 -1       104-4.94486E+00-7.06657E+04-1.52050E+05 2.51727E-06-1.03465E+05 2.83724E-06
 -1       105-2.42817E+00 4.44827E+03-2.32745E+03-3.62486E+01 2.03115E+03 5.07367E+00
 -1       106 1.65714E+01-3.09641E+04-5.68508E+04-5.26337E+01-4.20352E+04-1.17503E+01
 -1       107-1.78420E+00 4.48619E+03-2.34443E+03-1.95525E-07 2.04839E+03-7.12702E-07
 -1       108 4.10018E+01-3.08760E+04-5.68176E+04-4.97994E-07-4.20556E+04 2.78522E-06
 -1       109 5.10273E-01 3.97050E+03-2.88741E+03-1.11726E+01 1.91179E+03 2.79066E+00
 -1       110-7.52820E+00-1.31574E+04-2.96695E+04-4.60755E+01-1.99773E+04-5.40435E+00
 -1       111 2.88211E+00-4.48453E+04-8.73585E+04-1.66558E+01-6.24282E+04-5.51415E+00
 -1       112-2.10618E+00 4.46723E+03-2.33594E+03-1.55867E+01 2.03977E+03 7.19643E+00
 -1       113 2.87866E+01-3.09201E+04-5.68342E+04 6.88254E+00-4.20454E+04-6.62269E+00
 -1       114 7.24669E-01 3.96991E+03-2.89536E+03 9.33999E-07 1.90882E+03-1.27933E-07
 -1       115 5.00918E+00-1.31089E+04-2.96469E+04 9.35914E-07-1.99840E+04 2.69939E-07
 -1       116 1.18368E+01-4.48403E+04-8.73503E+04-1.11102E-06-6.24509E+04 2.93973E-06
 -1       117-6.23172E+00 3.05881E+03-4.99923E+03 1.59307E+02 1.59766E+02-4.21094E+01
 -1       118-1.25544E+02 2.30289E+03 3.92120E+03 2.34690E+02 2.34736E+03-2.55716E+01
 -1       119-7.35567E+00 2.77353E+03-4.92283E+03 7.53709E-07-3.95933E+00 8.39968E-07
 -1       120-2.17058E+02 1.54385E+03 3.85850E+03 1.58050E-07 2.21005E+03-2.41123E-06
 -1       121 2.59002E+00 4.15453E+03-2.85467E+03 4.75428E+01 1.80307E+03-8.04219E+00
 -1       122-1.14139E+01 2.97487E+03-7.77120E+02 2.05014E+02 1.30839E+03-2.20798E+01
 -1       123-1.75802E+01-1.40048E+04-2.85358E+04 6.76106E+01-2.01061E+04 1.55432E+01
 -1       124-6.79369E+00 2.91617E+03-4.96103E+03 1.01070E+02 7.79032E+01-3.63754E+01
 -1       125-1.71301E+02 1.92337E+03 3.88985E+03 5.01069E+01 2.27871E+03-8.05170E+00
 -1       126 2.35096E+00 4.11771E+03-2.82953E+03-8.31507E-07 1.78868E+03-9.41636E-09
 -1       127-5.77336E+01 2.47161E+03-8.22100E+02-1.36983E-07 1.18397E+03 4.80459E-07
 -1       128-5.11268E+01-1.41031E+04-2.85722E+04 8.97782E-07-2.00635E+04 5.49342E-08
 -1       129 2.01183E+01-5.61025E+03-9.82433E+05 3.66924E+01-2.26335E+02-1.22456E+01
 -1       130 8.99192E+00-8.12246E+03-7.43438E+03 1.26151E+01 2.88206E+03-8.04369E+00
 -1       131 1.09738E+00-3.79710E+03-6.86612E+03 1.17719E-01 5.16980E+03-8.31707E-01
 -1       132 1.25409E+00-1.22508E+04-8.60470E+05-1.76568E-01-1.12194E+05-1.87864E+00
 -1       133 2.01183E+01-5.59006E+03-9.82435E+05 3.86242E+01-2.24030E+02-1.13642E+01
 -1       134 8.99192E+00-8.12183E+03-7.43602E+03 1.19809E+01 2.88564E+03-7.58224E+00
 -1       135 1.09434E+00-3.79673E+03-6.86744E+03 2.69572E-01 5.17049E+03-2.61469E-01
 -1       136 1.24948E+00-1.22490E+04-8.60472E+05 9.79495E-02-1.12191E+05-8.80837E-01
 -1       137 1.45433E+01-6.72065E+03-4.94915E+05 2.21167E+01 1.67555E+03-1.00445E+01
 -1       138-5.89813E-01-3.63665E+03-6.83554E+03-8.07669E-02 3.78193E+03 3.41207E-01
 -1       139 1.17700E+00-8.04238E+03-4.33647E+05-2.31645E-02-5.35871E+04-1.25300E+00
 -1       140-6.08659E-01-6.59963E+03-9.22846E+05 6.62951E-02-5.71070E+04 8.66173E-01
 -1       141 9.58776E-01-9.70137E+02-5.93011E+03 2.88218E-02 3.98627E+03-1.02885E+00
 -1       142 1.38706E+00-4.24759E+04-7.22967E+05-2.60000E-01-1.77218E+05-2.07822E+00
 -1       143 9.58691E-01-9.69278E+02-5.93105E+03 3.91819E-01 3.98703E+03-3.62366E-01
 -1       144 1.38511E+00-4.24724E+04-7.22968E+05 3.30322E-01-1.77215E+05-9.55463E-01
 -1       145-5.08421E-01-2.61746E+03-6.27216E+03-4.06095E-02 4.43238E+03 4.79522E-01
 -1       146 1.17541E+00-2.17523E+04-3.64424E+05-9.15103E-02-8.66595E+04-1.46808E+00
 -1       147-6.50939E-01-2.79259E+04-7.91136E+05 1.10167E-01-1.45303E+05 9.98981E-01
 -1       148 8.35946E-01 4.59066E+02-5.25006E+03-5.99229E-04 3.66936E+03-1.08206E+00
 -1       149 1.60428E+00-7.14801E+04-5.88056E+05-2.55397E-01-2.06419E+05-2.17930E+00
 -1       150 8.37781E-01 4.60501E+02-5.25065E+03 5.70282E-01 3.67033E+03-3.79341E-01
 -1       151 1.60882E+00-7.14749E+04-5.88058E+05 6.30322E-01-2.06416E+05-9.53309E-01
 -1       152-4.50311E-01-5.58472E+02-5.52437E+03 4.53610E-03 3.73839E+03 5.39407E-01
 -1       153 1.21562E+00-3.55443E+04-2.96625E+05-8.82492E-02-1.01393E+05-1.56373E+00
 -1       154-7.41029E-01-5.76282E+04-6.54856E+05 1.44427E-01-1.92065E+05 1.06955E+00
 -1       155 6.81494E-01 1.77720E+03-4.52682E+03-2.34300E-02 3.14462E+03-1.00710E+00
 -1       156 1.81700E+00-9.21323E+04-4.64974E+05-2.58770E-01-2.07732E+05-2.24400E+00
 -1       157 6.83903E-01 1.77933E+03-4.52709E+03 7.98534E-01 3.14592E+03-3.06701E-01
 -1       158 1.80111E+00-9.21255E+04-4.64975E+05 1.06622E+00-2.07729E+05-9.11989E-01
 -1       159-3.84720E-01 7.79025E+02-4.92237E+03-1.43927E-02 3.37134E+03 5.34176E-01
 -1       160 1.27132E+00-4.52096E+04-2.34726E+05-8.88037E-02-1.02299E+05-1.58419E+00
 -1       161-8.67612E-01-8.24056E+04-5.25874E+05 1.02466E-01-2.07043E+05 1.10382E+00
 -1       162 4.35430E-01 2.71912E+03-3.91184E+03 3.76614E-01 2.74998E+03-8.44986E-01
 -1       163 2.16531E+00-1.00633E+05-3.57234E+05 2.48782E-01-1.90128E+05-2.21453E+00
 -1       164 4.44795E-01 2.72220E+03-3.91186E+03 1.24018E+00 2.75177E+03-2.16528E-01
 -1       165 2.22947E+00-1.00624E+05-3.57235E+05 1.51946E+00-1.90125E+05-7.94785E-01
 -1       166-2.96542E-01 1.89119E+03-4.32576E+03 2.31386E-02 2.94557E+03 4.63524E-01
 -1       167 1.22495E+00-4.89874E+04-1.80549E+05 3.83252E-01-9.36889E+04-1.49964E+00
 -1       168-9.57407E-01-9.68654E+04-4.10580E+05 1.43382E-01-1.98701E+05 1.13362E+00
 -1       169 8.44393E-02 3.42752E+03-3.37363E+03-1.40425E-01 2.42524E+03-4.18291E-01
 -1       170 2.04522E+00-9.67838E+04-2.65006E+05-5.96109E-01-1.60530E+05-2.51885E+00
 -1       171 7.92980E-02 3.43144E+03-3.37316E+03 1.43302E+00 2.42759E+03 1.71944E-01
 -1       172 1.81241E+00-9.67739E+04-2.65007E+05 2.53032E+00-1.60525E+05-8.38496E-01
 -1       173-1.34311E-01 2.71106E+03-3.82029E+03-4.15982E-01 2.59800E+03 3.76392E-01
 -1       174 1.35223E+00-4.67174E+04-1.34158E+05-3.06521E-01-7.90537E+04-1.51788E+00
 -1       175-1.20425E+00-9.90471E+04-3.10727E+05-3.99846E-01-1.74979E+05 1.08513E+00
 -1       176-5.21685E-01 3.92774E+03-2.93252E+03 3.50282E+00 2.19833E+03-4.86256E-01
 -1       177 3.57872E+00-8.21822E+04-1.86287E+05 4.39471E+00-1.24018E+05-1.43056E+00
 -1       178-4.71182E-01 3.93391E+03-2.93252E+03 3.16763E+00 2.20178E+03-2.57453E-01
 -1       179 4.45382E+00-8.21676E+04-1.86286E+05 2.24044E+00-1.24013E+05-1.26276E-01
 -1       180 3.90167E-02 3.31171E+03-3.40264E+03 5.28096E-01 2.30699E+03 2.42420E-02
 -1       181 4.73970E-01-3.91592E+04-9.45808E+04 4.13524E+00-6.09091E+04-8.44376E-01
 -1       182-8.88610E-01-8.96686E+04-2.25366E+05 9.55305E-01-1.41854E+05 1.40072E+00
 -1       183-1.21722E+00 4.27587E+03-2.60555E+03-7.17688E+00 2.07518E+03 2.22919E+00
 -1       184-8.78741E-01-5.90808E+04-1.18227E+05-1.18285E+01-8.38337E+04-6.09933E+00
 -1       185-1.32363E+00 4.28010E+03-2.60208E+03 8.60766E-02 2.07873E+03 2.89533E+00
 -1       186-4.14518E+00-5.90728E+04-1.18230E+05 7.57924E+00-8.38209E+04-2.28975E+00
 -1       187 5.31301E-01 3.73027E+03-3.09567E+03-4.04625E+00 2.08139E+03 4.79113E-01
 -1       188 2.88134E+00-2.75117E+04-6.03176E+04-9.73178E+00-4.08996E+04-2.59530E+00
 -1       189-2.55191E+00-7.06460E+04-1.52048E+05-5.26440E+00-1.03462E+05 1.40914E-01
 -1       190-2.42817E+00 4.44827E+03-2.32745E+03 3.62486E+01 2.03115E+03-5.07367E+00
 -1       191 1.65714E+01-3.09641E+04-5.68508E+04 5.26337E+01-4.20352E+04 1.17503E+01
 -1       192-2.10618E+00 4.46723E+03-2.33594E+03 1.55867E+01 2.03977E+03-7.19643E+00
 -1       193 2.87866E+01-3.09201E+04-5.68342E+04-6.88254E+00-4.20454E+04 6.62269E+00
 -1       194 5.10273E-01 3.97050E+03-2.88741E+03 1.11726E+01 1.91179E+03-2.79066E+00
 -1       195-7.52820E+00-1.31574E+04-2.96695E+04 4.60755E+01-1.99773E+04 5.40435E+00
 -1       196 2.88211E+00-4.48453E+04-8.73585E+04 1.66558E+01-6.24282E+04 5.51415E+00
 -1       197-6.23172E+00 3.05881E+03-4.99923E+03-1.59307E+02 1.59766E+02 4.21094E+01
 -1       198-1.25544E+02 2.30289E+03 3.92120E+03-2.34690E+02 2.34736E+03 2.55716E+01
 -1       199-6.79369E+00 2.91617E+03-4.96103E+03-1.01070E+02 7.79032E+01 3.63754E+01
 -1       200-1.71301E+02 1.92337E+03 3.88985E+03-5.01069E+01 2.27871E+03 8.05170E+00
 -1       201 2.59002E+00 4.15453E+03-2.85467E+03-4.75428E+01 1.80307E+03 8.04219E+00
 -1       202-1.14139E+01 2.97487E+03-7.77120E+02-2.05014E+02 1.30839E+03 2.20798E+01
 -1       203-1.75802E+01-1.40048E+04-2.85358E+04-6.76106E+01-2.01061E+04-1.55432E+01
 -1       204 2.75654E+01-1.06720E+04 9.97273E+05-4.45555E+01 6.33525E+03 2.86728E+01
 -1       205 1.02628E+00 1.30592E+04 8.72501E+05-1.99723E-01 1.14580E+05 1.07481E+00
 -1       206 2.75654E+01-1.07077E+04 9.97262E+05 1.86738E-07 6.35603E+03-3.93956E-06
 -1       207 1.02531E+00 1.30625E+04 8.72492E+05-1.01170E-06 1.14586E+05-8.15733E-06
 -1       208 1.82905E+01-9.54296E+03 4.94901E+05-3.11223E+01 4.26096E+03 1.84584E+01
 -1       209-6.38952E-01 3.47310E+03 9.35806E+05 9.89051E-02 6.07151E+04-4.55449E-01
 -1       210 1.06056E+00 4.64946E+03 4.32797E+05-1.52461E-01 5.99494E+04 1.05543E+00
 -1       211 2.75654E+01-1.06899E+04 9.97268E+05-4.14992E+01 6.34564E+03 2.71434E+01
 -1       212 1.02580E+00 1.30608E+04 8.72497E+05-5.85516E-01 1.14583E+05-5.33061E-01
 -1       213 1.82905E+01-9.57919E+03 4.94893E+05 1.95480E-07 4.27901E+03-1.93944E-06
 -1       214-6.39435E-01 3.47223E+03 9.35811E+05-5.08761E-07 6.07117E+04-5.92468E-06
 -1       215 1.05705E+00 4.65143E+03 4.32791E+05-3.40733E-07 5.99534E+04-3.55411E-06
 -1       216 4.98499E-01 4.28221E+04 7.31685E+05-2.28090E-01 1.81556E+05 1.18496E+00
 -1       217 5.06907E-01 4.28286E+04 7.31679E+05-1.89208E-06 1.81562E+05-7.33109E-06
 -1       218-3.84626E-01 2.79597E+04 8.01566E+05 9.77157E-02 1.48150E+05-5.91762E-01
 -1       219 7.26151E-01 2.09553E+04 3.62853E+05-1.04377E-01 9.28148E+04 1.19235E+00
 -1       220 5.02703E-01 4.28254E+04 7.31682E+05-1.02155E+00 1.81559E+05-4.11698E-01
 -1       221-3.80906E-01 2.79572E+04 8.01570E+05-1.40113E-06 1.48147E+05-7.72681E-06
 -1       222 7.30273E-01 2.09591E+04 3.62849E+05-7.91211E-07 9.28189E+04-3.33772E-06
 -1       223-1.06304E-01 7.30888E+04 5.94473E+05-4.32497E-01 2.10287E+05 9.75180E-01
 -1       224-1.05108E-01 7.30984E+04 5.94470E+05-2.25253E-06 2.10294E+05-7.31121E-06
 -1       225-1.12201E-01 5.79552E+04 6.62631E+05 1.37311E-01 1.95932E+05-5.64817E-01
 -1       226 3.69313E-01 3.68077E+04 2.94584E+05-1.76200E-01 1.06996E+05 1.09557E+00
 -1       227-1.05706E-01 7.30936E+04 5.94472E+05-1.52540E+00 2.10290E+05-4.77805E-01
 -1       228-1.07397E-01 5.79511E+04 6.62633E+05-2.00223E-06 1.95929E+05-7.27958E-06
 -1       229 3.71747E-01 3.68136E+04 2.94582E+05-9.99802E-07 1.07001E+05-3.34129E-06
 -1       230-8.15638E-01 9.41824E+04 4.69487E+05-7.82418E-01 2.11275E+05 4.78918E-01
 -1       231-7.60569E-01 9.41958E+04 4.69487E+05-2.90293E-06 2.11284E+05-6.82925E-06
 -1       232 2.20274E-01 8.35750E+04 5.31655E+05 3.11153E-01 2.10767E+05-3.79683E-01
 -1       233-8.91378E-02 4.80119E+04 2.32455E+05-3.27198E-01 1.07215E+05 7.84367E-01
 -1       234-7.88104E-01 9.41891E+04 4.69487E+05-2.19018E+00 2.11279E+05-7.20687E-01
 -1       235 2.48397E-01 8.35693E+04 5.31656E+05-2.75285E-06 2.10763E+05-7.04873E-06
 -1       236-5.91913E-02 4.80201E+04 2.32455E+05-1.62079E-06 1.07221E+05-3.10830E-06
 -1       237-1.84598E+00 1.02986E+05 3.60424E+05-1.81507E+00 1.93099E+05-3.94453E-01
 -1       238-1.95733E+00 1.03002E+05 3.60427E+05-4.17042E-06 1.93111E+05-6.06374E-06
 -1       239 5.97459E-01 9.84818E+04 4.14733E+05 4.91207E-01 2.02199E+05-7.33014E-02
 -1       240-6.29848E-01 5.28830E+04 1.78233E+05-1.02529E+00 9.79244E+04 2.55382E-01
 -1       241-1.90165E+00 1.02994E+05 3.60426E+05-2.93781E+00 1.93105E+05-1.23142E+00
 -1       242 5.69349E-01 9.84740E+04 4.14732E+05-4.04354E-06 2.02194E+05-6.28200E-06
 -1       243-6.76165E-01 5.28936E+04 1.78234E+05-2.37054E-06 9.79322E+04-2.83253E-06
 -1       244-2.82099E+00 9.92018E+04 2.67244E+05-1.82620E+00 1.62970E+05-1.30279E+00
 -1       245-2.28045E+00 9.92253E+04 2.67249E+05-2.27815E-06 1.62983E+05-4.32434E-06
 -1       246 1.25679E+00 1.00974E+05 3.13711E+05 1.36009E+00 1.78102E+05 5.15102E-01
 -1       247-1.65567E+00 5.13539E+04 1.31904E+05-7.81142E-01 8.26987E+04-4.91557E-01
 -1       248-2.55072E+00 9.92136E+04 2.67247E+05-4.27796E+00 1.62977E+05-1.69474E+00
 -1       249 1.47126E+00 1.00966E+05 3.13709E+05-3.27625E-06 1.78096E+05-5.35148E-06
 -1       250-1.39053E+00 5.13683E+04 1.31907E+05-1.06569E-06 8.27081E+04-1.90072E-06
 -1       251-5.65903E+00 8.45511E+04 1.87848E+05-7.60990E+00 1.25990E+05-3.82991E+00
 -1       252-7.47303E+00 8.45677E+04 1.87858E+05 6.26894E-07 1.26009E+05-3.24382E-06
 -1       253 1.55612E+00 9.17662E+04 2.27533E+05 4.67575E-01 1.44623E+05 7.72521E-01
 -1       254-2.03581E+00 4.42714E+04 9.24288E+04-5.36987E+00 6.40935E+04-1.55779E+00
 -1       255-6.56603E+00 8.45594E+04 1.87853E+05-4.61507E+00 1.25999E+05-3.46591E+00
 -1       256 9.19825E-01 9.17515E+04 2.27530E+05-4.07663E-07 1.44615E+05-3.74217E-06
 -1       257-2.89234E+00 4.42859E+04 9.24330E+04-8.57735E-08 6.41072E+04-1.65498E-06
 -1       258-3.92587E+00 6.12845E+04 1.19316E+05 6.24162E+00 8.54297E+04-2.21352E+00
 -1       259 2.96295E+00 6.13471E+04 1.19317E+05-1.87946E-06 8.54463E+04-2.31811E-06
 -1       260 4.19379E+00 7.28380E+04 1.53711E+05 7.28814E+00 1.05936E+05 3.28020E+00
 -1       261-6.50086E+00 3.28894E+04 5.82567E+04 6.48016E+00 4.37727E+04-2.88158E+00
 -1       262-4.81459E-01 6.13158E+04 1.19316E+05-9.86554E+00 8.54380E+04-1.44091E+00
 -1       263 6.72963E+00 7.28354E+04 1.53704E+05 1.60063E-06 1.05924E+05-2.72163E-06
 -1       264-3.16279E+00 3.29193E+04 5.82653E+04-8.28931E-07 4.37835E+04-1.23632E-06
 -1       265-2.25690E+01 3.30783E+04 5.74634E+04-5.60926E+01 4.33888E+04-1.87447E+01
 -1       266-4.75184E+01 3.29920E+04 5.75099E+04 5.71851E-06 4.34379E+04-2.19835E-06
 -1       267-5.82329E-01 4.71324E+04 8.87222E+04-1.38650E+01 6.47313E+04-1.65749E+00
 -1       268 2.10122E+00 1.86628E+04 2.76484E+04-4.45363E+01 2.26852E+04-4.76948E+00
 -1       269-3.50437E+01 3.30352E+04 5.74867E+04 1.18511E+00 4.34134E+04-1.54056E+01
 -1       270-9.60695E+00 4.70745E+04 8.87271E+04 1.15962E-06 6.47274E+04-2.71032E-06
 -1       271-1.00517E+01 1.86531E+04 2.76487E+04 1.47882E-06 2.27236E+04-6.89205E-07
 -1       272 1.06296E+02 3.08315E+03 1.96427E+03 3.05309E+02 3.37806E+03 6.41190E+01
 -1       273 1.97888E+02 3.05164E+03 1.79051E+03 2.54821E-06 2.88804E+03 9.72793E-07
 -1       274 2.46062E+01 1.63040E+04 2.99923E+04 7.12449E+01 2.22753E+04 2.27791E+01
 -1       275-4.44202E+00 2.77696E+03-1.27938E+03 2.24292E+02 1.71408E+03-7.55851E-01
 -1       276 1.52092E+02 3.06740E+03 1.87739E+03 1.11547E+02 3.13305E+03 6.97922E+01
 -1       277 5.79231E+01 1.64406E+04 2.99442E+04 2.95780E-06 2.22286E+04-4.73210E-07
 -1       278 4.07926E+01 2.59967E+03-1.27623E+03 2.24382E-06 1.36112E+03-3.59707E-07
 -1       279 2.75654E+01-1.06720E+04 9.97273E+05 4.45555E+01 6.33525E+03-2.86728E+01
 -1       280 1.02628E+00 1.30592E+04 8.72501E+05 1.99723E-01 1.14580E+05-1.07482E+00
 -1       281 2.75654E+01-1.06899E+04 9.97268E+05 4.14992E+01 6.34564E+03-2.71434E+01
 -1       282 1.02580E+00 1.30608E+04 8.72497E+05 5.85514E-01 1.14583E+05 5.33050E-01
 -1       283 1.82905E+01-9.54296E+03 4.94901E+05 3.11223E+01 4.26096E+03-1.84584E+01
 -1       284-6.38952E-01 3.47310E+03 9.35806E+05-9.89054E-02 6.07151E+04 4.55443E-01
 -1       285 1.06056E+00 4.64946E+03 4.32797E+05 1.52461E-01 5.99494E+04-1.05543E+00
 -1       286 4.98499E-01 4.28221E+04 7.31685E+05 2.28088E-01 1.81556E+05-1.18496E+00
 -1       287 5.02703E-01 4.28254E+04 7.31682E+05 1.02155E+00 1.81559E+05 4.11687E-01
 -1       288-3.84626E-01 2.79597E+04 8.01566E+05-9.77167E-02 1.48150E+05 5.91756E-01
 -1       289 7.26151E-01 2.09553E+04 3.62853E+05 1.04376E-01 9.28148E+04-1.19236E+00
 -1       290-1.06304E-01 7.30888E+04 5.94473E+05 4.32495E-01 2.10287E+05-9.75189E-01
 -1       291-1.05706E-01 7.30936E+04 5.94472E+05 1.52540E+00 2.10290E+05 4.77793E-01
 -1       292-1.12201E-01 5.79552E+04 6.62631E+05-1.37313E-01 1.95932E+05 5.64808E-01
 -1       293 3.69313E-01 3.68077E+04 2.94584E+05 1.76199E-01 1.06996E+05-1.09557E+00
 -1       294-8.15638E-01 9.41824E+04 4.69487E+05 7.82416E-01 2.11275E+05-4.78927E-01
 -1       295-7.88103E-01 9.41891E+04 4.69487E+05 2.19017E+00 2.11279E+05 7.20676E-01
 -1       296 2.20274E-01 8.35750E+04 5.31655E+05-3.11157E-01 2.10767E+05 3.79674E-01
 -1       297-8.91378E-02 4.80119E+04 2.32455E+05 3.27197E-01 1.07215E+05-7.84371E-01
 -1       298-1.84598E+00 1.02986E+05 3.60424E+05 1.81507E+00 1.93099E+05 3.94445E-01
 -1       299-1.90165E+00 1.02994E+05 3.60426E+05 2.93780E+00 1.93105E+05 1.23141E+00
 -1       300 5.97459E-01 9.84818E+04 4.14733E+05-4.91209E-01 2.02199E+05 7.32938E-02
 -1       301-6.29848E-01 5.28830E+04 1.78233E+05 1.02529E+00 9.79244E+04-2.55385E-01
 -1       302-2.82099E+00 9.92018E+04 2.67244E+05 1.82619E+00 1.62970E+05 1.30278E+00
 -1       303-2.55072E+00 9.92136E+04 2.67247E+05 4.27796E+00 1.62977E+05 1.69473E+00
 -1       304 1.25679E+00 1.00974E+05 3.13711E+05-1.36010E+00 1.78102E+05-5.15110E-01
 -1       305-1.65567E+00 5.13539E+04 1.31904E+05 7.81137E-01 8.26987E+04 4.91554E-01
 -1       306-5.65903E+00 8.45511E+04 1.87848E+05 7.60989E+00 1.25990E+05 3.82991E+00
 -1       307-6.56603E+00 8.45594E+04 1.87853E+05 4.61507E+00 1.25999E+05 3.46590E+00
 -1       308 1.55612E+00 9.17662E+04 2.27533E+05-4.67582E-01 1.44623E+05-7.72527E-01
 -1       309-2.03581E+00 4.42714E+04 9.24288E+04 5.36987E+00 6.40935E+04 1.55779E+00
 -1       310-3.92587E+00 6.12845E+04 1.19316E+05-6.24163E+00 8.54297E+04 2.21352E+00
 -1       311-4.81458E-01 6.13158E+04 1.19316E+05 9.86553E+00 8.54380E+04 1.44091E+00
 -1       312 4.19379E+00 7.28380E+04 1.53711E+05-7.28815E+00 1.05936E+05-3.28020E+00
 -1       313-6.50086E+00 3.28894E+04 5.82567E+04-6.48016E+00 4.37727E+04 2.88158E+00
 -1       314-2.25690E+01 3.30783E+04 5.74634E+04 5.60926E+01 4.33888E+04 1.87447E+01
 -1       315-3.50437E+01 3.30352E+04 5.74867E+04-1.18511E+00 4.34134E+04 1.54056E+01
 -1       316-5.82329E-01 4.71324E+04 8.87222E+04 1.38650E+01 6.47313E+04 1.65749E+00
 -1       317 2.10122E+00 1.86628E+04 2.76484E+04 4.45363E+01 2.26852E+04 4.76948E+00
 -1       318 1.06296E+02 3.08315E+03 1.96427E+03-3.05309E+02 3.37806E+03-6.41190E+01
 -1       319 1.52092E+02 3.06740E+03 1.87739E+03-1.11547E+02 3.13305E+03-6.97922E+01
 -1       320 2.46062E+01 1.63040E+04 2.99923E+04-7.12449E+01 2.22753E+04-2.27791E+01
 -1       321-4.44202E+00 2.77696E+03-1.27938E+03-2.24292E+02 1.71408E+03 7.55850E-01
 -3
    1PSTEP                         7           4           1          
  100CL  104 2.00000E-01         321                     0    4           1
 -4  DISP        4    1
 -5  D1          1    2    1    0
 -5  D2          1    2    2    0
 -5  D3          1    2    3    0
 -5  ALL         1    2    0    0    1ALL
 -1         1 0.00000E+00 0.00000E+00 0.00000E+00
 -1         2 0.00000E+00 0.00000E+00 0.00000E+00
 -1         3-1.58975E-08 8.04870E-02-4.35112E-03
 -1         4-3.54493E-08 7.95588E-02-1.59850E-02
 -1         5 0.00000E+00 0.00000E+00 0.00000E+00
 -1         6 0.00000E+00 0.00000E+00 0.00000E+00
 -1         7 7.46239E-15 8.04869E-02-4.35110E-03
 -1         8 4.51130E-15 7.95587E-02-1.59850E-02
 -1         9 0.00000E+00 0.00000E+00 0.00000E+00
 -1        10 3.30423E-09 2.05715E-02-5.89288E-04
 -1        11-2.56713E-08 8.00223E-02-1.01667E-02
 -1        12 8.13346E-09 2.03238E-02-6.59479E-03
 -1        13 0.00000E+00 0.00000E+00 0.00000E+00
 -1        14 0.00000E+00 0.00000E+00 0.00000E+00
 -1        15-7.94922E-09 8.04870E-02-4.35111E-03
 -1        16-1.77255E-08 7.95588E-02-1.59850E-02
 -1        17 0.00000E+00 0.00000E+00 0.00000E+00
 -1        18 2.40098E-15 2.05715E-02-5.89293E-04
 -1        19 5.97448E-15 8.00223E-02-1.01667E-02
 -1        20 8.66284E-16 2.03238E-02-6.59480E-03
 -1        21-3.67753E-08 3.07120E-01-3.12327E-02
 -1        22-7.66677E-08 3.03887E-01-5.28139E-02
 -1        23 2.82784E-14 3.07120E-01-3.12327E-02
 -1        24 2.19666E-14 3.03887E-01-5.28138E-02
 -1        25 1.25882E-08 1.76983E-01-1.38795E-02
 -1        26-5.67174E-08 3.05504E-01-4.20223E-02
 -1        27 2.72996E-08 1.75046E-01-3.06906E-02
 -1        28-1.83877E-08 3.07120E-01-3.12327E-02
 -1        29-3.83340E-08 3.03887E-01-5.28139E-02
 -1        30 1.64240E-14 1.76983E-01-1.38795E-02
 -1        31 2.53460E-14 3.05504E-01-4.20223E-02
 -1        32 1.14803E-14 1.75046E-01-3.06906E-02
 -1        33-6.20137E-08 6.56825E-01-9.50313E-02
 -1        34-1.23849E-07 6.50523E-01-1.24858E-01
 -1        35 6.68113E-14 6.56825E-01-9.50312E-02
 -1        36 5.77110E-14 6.50523E-01-1.24858E-01
 -1        37 2.41854E-08 4.68029E-01-5.79288E-02
 -1        38-9.29394E-08 6.53674E-01-1.09944E-01
 -1        39 4.93591E-08 4.63344E-01-8.38345E-02
 -1        40-3.10065E-08 6.56825E-01-9.50313E-02
 -1        41-6.19237E-08 6.50523E-01-1.24858E-01
 -1        42 4.55224E-14 4.68029E-01-5.79288E-02
 -1        43 6.20069E-14 6.53674E-01-1.09944E-01
 -1        44 3.72976E-14 4.63344E-01-8.38345E-02
 -1        45-9.10470E-08 1.10721E+00-2.02684E-01
 -1        46-1.77588E-07 1.09756E+00-2.39161E-01
 -1        47 1.23561E-13 1.10721E+00-2.02684E-01
 -1        48 1.13629E-13 1.09756E+00-2.39161E-01
 -1        49 3.78309E-08 8.70770E-01-1.43185E-01
 -1        50-1.34279E-07 1.10238E+00-2.20922E-01
 -1        51 7.44857E-08 8.62827E-01-1.76528E-01
 -1        52-4.55230E-08 1.10721E+00-2.02684E-01
 -1        53-8.87958E-08 1.09756E+00-2.39161E-01
 -1        54 9.25276E-14 8.70770E-01-1.43185E-01
 -1        55 1.18651E-13 1.10238E+00-2.20922E-01
 -1        56 8.19761E-14 8.62827E-01-1.76528E-01
 -1        57-1.23161E-07 1.63779E+00-3.55394E-01
 -1        58-2.38062E-07 1.62488E+00-3.97096E-01
 -1        59 1.99885E-13 1.63779E+00-3.55394E-01
 -1        60 1.85928E-13 1.62488E+00-3.97096E-01
 -1        61 5.32226E-08 1.36367E+00-2.73510E-01
 -1        62-1.80743E-07 1.63134E+00-3.76244E-01
 -1        63 1.03096E-07 1.35238E+00-3.12774E-01
 -1        64-6.15784E-08 1.63779E+00-3.55394E-01
 -1        65-1.19021E-07 1.62488E+00-3.97096E-01
 -1        66 1.59501E-13 1.36367E+00-2.73510E-01
 -1        67 1.92682E-13 1.63134E+00-3.76244E-01
 -1        68 1.46136E-13 1.35238E+00-3.12774E-01
 -1        69-1.57211E-07 2.23051E+00-5.50202E-01
 -1        70-3.07015E-07 2.21467E+00-5.95884E-01
 -1        71 2.94296E-13 2.23051E+00-5.50202E-01
 -1        72 2.75116E-13 2.21467E+00-5.95884E-01
 -1        73 6.99526E-08 1.92742E+00-4.47845E-01
 -1        74-2.31610E-07 2.22259E+00-5.73043E-01
 -1        75 1.34972E-07 1.91301E+00-4.91695E-01
 -1        76-7.86066E-08 2.23051E+00-5.50202E-01
 -1        77-1.53540E-07 2.21467E+00-5.95884E-01
 -1        78 2.47673E-13 1.92742E+00-4.47845E-01
 -1        79 2.85465E-13 2.22259E+00-5.73043E-01
 -1        80 2.30674E-13 1.91301E+00-4.91695E-01
 -1        81-1.91577E-07 2.86968E+00-7.81264E-01
 -1        82-3.79782E-07 2.85144E+00-8.29852E-01
 -1        83 4.13310E-13 2.86968E+00-7.81264E-01
 -1        84 3.87438E-13 2.85144E+00-8.29851E-01
 -1        85 8.72672E-08 2.54518E+00-6.61648E-01
 -1        86-2.87522E-07 2.86056E+00-8.05557E-01
 -1        87 1.72002E-07 2.52809E+00-7.08927E-01
 -1        88-9.57778E-08 2.86968E+00-7.81264E-01
 -1        89-1.89763E-07 2.85144E+00-8.29852E-01
 -1        90 3.47567E-13 2.54518E+00-6.61648E-01
 -1        91 4.01344E-13 2.86056E+00-8.05557E-01
 -1        92 3.23531E-13 2.52809E+00-7.08927E-01
 -1        93-2.23420E-07 3.54176E+00-1.04083E+00
 -1        94-4.74016E-07 3.52173E+00-1.09139E+00
 -1        95 5.53152E-13 3.54176E+00-1.04083E+00
 -1        96 5.17865E-13 3.52173E+00-1.09139E+00
 -1        97 1.04371E-07 3.20239E+00-9.08018E-01
 -1        98-3.41833E-07 3.53175E+00-1.06611E+00
 -1        99 2.07892E-07 3.18319E+00-9.57725E-01
 -1       100-1.11731E-07 3.54176E+00-1.04083E+00
 -1       101-2.37483E-07 3.52173E+00-1.09139E+00
 -1       102 4.81068E-13 3.20239E+00-9.08018E-01
 -1       103 5.35442E-13 3.53175E+00-1.06611E+00
 -1       104 4.48460E-13 3.18319E+00-9.57725E-01
 -1       105-2.49609E-07 4.23483E+00-1.31996E+00
 -1       106-5.23750E-07 4.21372E+00-1.37166E+00
 -1       107 7.20765E-13 4.23483E+00-1.31996E+00
 -1       108 6.76969E-13 4.21372E+00-1.37166E+00
 -1       109 1.18930E-07 3.88637E+00-1.17853E+00
 -1       110-4.12322E-07 4.22428E+00-1.34581E+00
 -1       111 2.65702E-07 3.86572E+00-1.22979E+00
 -1       112-1.24740E-07 4.23483E+00-1.31996E+00
 -1       113-2.60084E-07 4.21372E+00-1.37166E+00
 -1       114 6.38452E-13 3.88637E+00-1.17853E+00
 -1       115 6.99121E-13 4.22428E+00-1.34581E+00
 -1       116 5.99800E-13 3.86572E+00-1.22979E+00
 -1       117-2.63849E-07 4.93812E+00-1.60903E+00
 -1       118-7.71602E-07 4.91664E+00-1.66109E+00
 -1       119 9.05744E-13 4.93812E+00-1.60903E+00
 -1       120 8.56045E-13 4.91664E+00-1.66109E+00
 -1       121 1.31309E-07 4.58586E+00-1.46386E+00
 -1       122-4.21648E-07 4.92738E+00-1.63506E+00
 -1       123 2.59289E-07 4.56447E+00-1.51587E+00
 -1       124-1.32035E-07 4.93812E+00-1.60903E+00
 -1       125-3.92540E-07 4.91664E+00-1.66109E+00
 -1       126 8.19471E-13 4.58586E+00-1.46386E+00
 -1       127 8.79656E-13 4.92738E+00-1.63506E+00
 -1       128 7.83367E-13 4.56447E+00-1.51587E+00
 -1       129 0.00000E+00 0.00000E+00 0.00000E+00
 -1       130 0.00000E+00 0.00000E+00 0.00000E+00
 -1       131 1.58975E-08 8.04870E-02-4.35112E-03
 -1       132 3.54493E-08 7.95588E-02-1.59850E-02
 -1       133 0.00000E+00 0.00000E+00 0.00000E+00
 -1       134 0.00000E+00 0.00000E+00 0.00000E+00
 -1       135 7.94923E-09 8.04870E-02-4.35111E-03
 -1       136 1.77255E-08 7.95588E-02-1.59850E-02
 -1       137 0.00000E+00 0.00000E+00 0.00000E+00
 -1       138-3.30423E-09 2.05715E-02-5.89288E-04
 -1       139 2.56713E-08 8.00223E-02-1.01667E-02
 -1       140-8.13346E-09 2.03238E-02-6.59479E-03
 -1       141 3.67754E-08 3.07120E-01-3.12327E-02
 -1       142 7.66677E-08 3.03887E-01-5.28139E-02
 -1       143 1.83877E-08 3.07120E-01-3.12327E-02
 -1       144 3.83341E-08 3.03887E-01-5.28139E-02
 -1       145-1.25882E-08 1.76983E-01-1.38795E-02
 -1       146 5.67174E-08 3.05504E-01-4.20223E-02
 -1       147-2.72996E-08 1.75046E-01-3.06906E-02
 -1       148 6.20139E-08 6.56825E-01-9.50313E-02
 -1       149 1.23849E-07 6.50523E-01-1.24858E-01
 -1       150 3.10066E-08 6.56825E-01-9.50313E-02
 -1       151 6.19238E-08 6.50523E-01-1.24858E-01
 -1       152-2.41853E-08 4.68029E-01-5.79288E-02
 -1       153 9.29395E-08 6.53674E-01-1.09944E-01
 -1       154-4.93590E-08 4.63344E-01-8.38345E-02
 -1       155 9.10472E-08 1.10721E+00-2.02684E-01
 -1       156 1.77588E-07 1.09756E+00-2.39161E-01
 -1       157 4.55232E-08 1.10721E+00-2.02684E-01
 -1       158 8.87960E-08 1.09756E+00-2.39161E-01
 -1       159-3.78307E-08 8.70770E-01-1.43185E-01
 -1       160 1.34279E-07 1.10238E+00-2.20922E-01
 -1       161-7.44855E-08 8.62827E-01-1.76528E-01
 -1       162 1.23161E-07 1.63779E+00-3.55394E-01
 -1       163 2.38062E-07 1.62488E+00-3.97096E-01
 -1       164 6.15788E-08 1.63779E+00-3.55394E-01
 -1       165 1.19022E-07 1.62488E+00-3.97096E-01
 -1       166-5.32223E-08 1.36367E+00-2.73510E-01
 -1       167 1.80743E-07 1.63134E+00-3.76244E-01
 -1       168-1.03096E-07 1.35238E+00-3.12774E-01
 -1       169 1.57212E-07 2.23051E+00-5.50202E-01
 -1       170 3.07015E-07 2.21467E+00-5.95884E-01
 -1       171 7.86071E-08 2.23051E+00-5.50202E-01
 -1       172 1.53541E-07 2.21467E+00-5.95884E-01
 -1       173-6.99521E-08 1.92742E+00-4.47845E-01
 -1       174 2.31611E-07 2.22259E+00-5.73043E-01
 -1       175-1.34971E-07 1.91301E+00-4.91695E-01
 -1       176 1.91577E-07 2.86968E+00-7.81264E-01
 -1       177 3.79783E-07 2.85144E+00-8.29852E-01
 -1       178 9.57787E-08 2.86968E+00-7.81264E-01
 -1       179 1.89764E-07 2.85144E+00-8.29852E-01
 -1       180-8.72665E-08 2.54518E+00-6.61648E-01
 -1       181 2.87523E-07 2.86056E+00-8.05557E-01
 -1       182-1.72001E-07 2.52809E+00-7.08927E-01
 -1       183 2.23422E-07 3.54176E+00-1.04083E+00
 -1       184 4.74017E-07 3.52173E+00-1.09139E+00
 -1       185 1.11732E-07 3.54176E+00-1.04083E+00
 -1       186 2.37484E-07 3.52173E+00-1.09139E+00
 -1       187-1.04371E-07 3.20239E+00-9.08018E-01
 -1       188 3.41834E-07 3.53175E+00-1.06611E+00
 -1       189-2.07891E-07 3.18319E+00-9.57725E-01
 -1       190 2.49610E-07 4.23483E+00-1.31996E+00
 -1       191 5.23752E-07 4.21372E+00-1.37166E+00
 -1       192 1.24741E-07 4.23483E+00-1.31996E+00
 -1       193 2.60085E-07 4.21372E+00-1.37166E+00
 -1       194-1.18929E-07 3.88637E+00-1.17853E+00
 -1       195 4.12324E-07 4.22428E+00-1.34581E+00
 -1       196-2.65701E-07 3.86572E+00-1.22979E+00
 -1       197 2.63851E-07 4.93812E+00-1.60903E+00
 -1       198 7.71604E-07 4.91664E+00-1.66109E+00
 -1       199 1.32037E-07 4.93812E+00-1.60903E+00
 -1       200 3.92541E-07 4.91664E+00-1.66109E+00
 -1       201-1.31307E-07 4.58586E+00-1.46386E+00
 -1       202 4.21650E-07 4.92738E+00-1.63506E+00
 -1       203-2.59287E-07 4.56447E+00-1.51587E+00
 -1       204 0.00000E+00 0.00000E+00 0.00000E+00
 -1       205-4.47053E-08 8.14131E-02 7.27715E-03
 -1       206 0.00000E+00 0.00000E+00 0.00000E+00
 -1       207 1.11709E-14 8.14130E-02 7.27722E-03
 -1       208 0.00000E+00 0.00000E+00 0.00000E+00
 -1       209 1.05622E-08 2.08197E-02 5.41825E-03
 -1       210-3.03035E-08 8.09506E-02 1.46169E-03
 -1       211 0.00000E+00 0.00000E+00 0.00000E+00
 -1       212-2.23525E-08 8.14130E-02 7.27719E-03
 -1       213 0.00000E+00 0.00000E+00 0.00000E+00
 -1       214 3.76074E-15 2.08197E-02 5.41823E-03
 -1       215 9.28762E-15 8.09505E-02 1.46174E-03
 -1       216-9.34853E-08 3.10350E-01-9.65848E-03
 -1       217 3.60139E-14 3.10350E-01-9.65836E-03
 -1       218 3.41500E-08 1.78921E-01 2.93500E-03
 -1       219-6.51336E-08 3.08735E-01-2.04466E-02
 -1       220-4.67419E-08 3.10350E-01-9.65842E-03
 -1       221 2.07023E-14 1.78921E-01 2.93495E-03
 -1       222 3.23320E-14 3.08735E-01-2.04465E-02
 -1       223-1.44523E-07 6.63122E-01-6.52105E-02
 -1       224 7.78203E-14 6.63122E-01-6.52104E-02
 -1       225 5.93430E-08 4.72717E-01-3.20198E-02
 -1       226-1.03258E-07 6.59974E-01-8.01219E-02
 -1       227-7.22612E-08 6.63122E-01-6.52104E-02
 -1       228 5.30773E-14 4.72717E-01-3.20198E-02
 -1       229 7.21271E-14 6.59973E-01-8.01218E-02
 -1       230-1.95528E-07 1.11685E+00-1.66210E-01
 -1       231 1.36228E-13 1.11685E+00-1.66209E-01
 -1       232 8.51919E-08 8.78715E-01-1.09841E-01
 -1       233-1.43327E-07 1.11203E+00-1.84448E-01
 -1       234-9.77597E-08 1.11685E+00-1.66210E-01
 -1       235 1.02603E-13 8.78715E-01-1.09841E-01
 -1       236 1.29947E-13 1.11203E+00-1.84447E-01
 -1       237-2.44114E-07 1.65070E+00-3.13693E-01
 -1       238 2.16809E-13 1.65070E+00-3.13693E-01
 -1       239 1.10357E-07 1.37495E+00-2.34245E-01
 -1       240-1.83495E-07 1.64425E+00-3.34544E-01
 -1       241-1.22065E-07 1.65070E+00-3.13693E-01
 -1       242 1.71264E-13 1.37495E+00-2.34245E-01
 -1       243 2.08486E-13 1.64425E+00-3.34544E-01
 -1       244-2.85306E-07 2.24634E+00-5.04517E-01
 -1       245 3.16487E-13 2.24634E+00-5.04517E-01
 -1       246 1.33786E-07 1.94183E+00-4.03996E-01
 -1       247-2.21784E-07 2.23842E+00-5.27360E-01
 -1       248-1.42612E-07 2.24634E+00-5.04517E-01
 -1       249 2.62404E-13 1.94183E+00-4.03996E-01
 -1       250 3.05896E-13 2.23842E+00-5.27360E-01
 -1       251-3.19038E-07 2.88793E+00-7.32669E-01
 -1       252 4.40925E-13 2.88793E+00-7.32669E-01
 -1       253 1.51568E-07 2.56227E+00-6.14371E-01
 -1       254-2.53390E-07 2.87881E+00-7.56967E-01
 -1       255-1.59654E-07 2.88793E+00-7.32669E-01
 -1       256 3.70293E-13 2.56227E+00-6.14371E-01
 -1       257 4.27881E-13 2.87881E+00-7.56967E-01
 -1       258-3.20503E-07 3.56180E+00-9.90260E-01
 -1       259 5.88193E-13 3.56180E+00-9.90260E-01
 -1       260 1.67540E-07 3.22159E+00-8.58315E-01
 -1       261-2.79031E-07 3.55178E+00-1.01555E+00
 -1       262-1.59738E-07 3.56180E+00-9.90260E-01
 -1       263 5.12765E-13 3.22159E+00-8.58315E-01
 -1       264 5.71634E-13 3.55178E+00-1.01555E+00
 -1       265-3.46264E-07 4.25597E+00-1.26825E+00
 -1       266 7.64576E-13 4.25597E+00-1.26825E+00
 -1       267 1.52959E-07 3.90702E+00-1.12729E+00
 -1       268-2.71874E-07 4.24540E+00-1.29410E+00
 -1       269-1.74977E-07 4.25597E+00-1.26825E+00
 -1       270 6.74929E-13 3.90702E+00-1.12729E+00
 -1       271 7.42233E-13 4.24540E+00-1.29410E+00
 -1       272-1.38784E-07 4.95964E+00-1.55693E+00
 -1       273 9.48914E-13 4.95963E+00-1.55693E+00
 -1       274 1.94030E-07 4.60723E+00-1.41186E+00
 -1       275-2.97951E-07 4.94888E+00-1.58298E+00
 -1       276-6.26411E-08 4.95964E+00-1.55693E+00
 -1       277 8.55251E-13 4.60723E+00-1.41186E+00
 -1       278 9.26377E-13 4.94888E+00-1.58298E+00
 -1       279 0.00000E+00 0.00000E+00 0.00000E+00
 -1       280 4.47053E-08 8.14131E-02 7.27715E-03
 -1       281 0.00000E+00 0.00000E+00 0.00000E+00
 -1       282 2.23525E-08 8.14130E-02 7.27719E-03
 -1       283 0.00000E+00 0.00000E+00 0.00000E+00
 -1       284-1.05622E-08 2.08197E-02 5.41825E-03
 -1       285 3.03036E-08 8.09506E-02 1.46169E-03
 -1       286 9.34853E-08 3.10350E-01-9.65848E-03
 -1       287 4.67419E-08 3.10350E-01-9.65842E-03
 -1       288-3.41500E-08 1.78921E-01 2.93500E-03
 -1       289 6.51336E-08 3.08735E-01-2.04466E-02
 -1       290 1.44523E-07 6.63122E-01-6.52105E-02
 -1       291 7.22614E-08 6.63122E-01-6.52104E-02
 -1       292-5.93429E-08 4.72717E-01-3.20198E-02
 -1       293 1.03258E-07 6.59974E-01-8.01219E-02
 -1       294 1.95528E-07 1.11685E+00-1.66210E-01
 -1       295 9.77599E-08 1.11685E+00-1.66210E-01
 -1       296-8.51917E-08 8.78715E-01-1.09841E-01
 -1       297 1.43327E-07 1.11203E+00-1.84448E-01
 -1       298 2.44115E-07 1.65070E+00-3.13693E-01
 -1       299 1.22066E-07 1.65070E+00-3.13693E-01
 -1       300-1.10356E-07 1.37495E+00-2.34245E-01
 -1       301 1.83496E-07 1.64425E+00-3.34544E-01
 -1       302 2.85307E-07 2.24634E+00-5.04517E-01
 -1       303 1.42613E-07 2.24634E+00-5.04517E-01
 -1       304-1.33786E-07 1.94183E+00-4.03996E-01
 -1       305 2.21785E-07 2.23842E+00-5.27360E-01
 -1       306 3.19039E-07 2.88793E+00-7.32669E-01
 -1       307 1.59655E-07 2.88793E+00-7.32669E-01
 -1       308-1.51567E-07 2.56227E+00-6.14371E-01
 -1       309 2.53391E-07 2.87881E+00-7.56967E-01
 -1       310 3.20504E-07 3.56180E+00-9.90260E-01
 -1       311 1.59739E-07 3.56180E+00-9.90260E-01
 -1       312-1.67539E-07 3.22159E+00-8.58315E-01
 -1       313 2.79032E-07 3.55178E+00-1.01555E+00
 -1       314 3.46266E-07 4.25597E+00-1.26825E+00
 -1       315 1.74979E-07 4.25597E+00-1.26825E+00
 -1       316-1.52958E-07 3.90702E+00-1.12729E+00
 -1       317 2.71875E-07 4.24540E+00-1.29410E+00
 -1       318 1.38786E-07 4.95964E+00-1.55693E+00
 -1       319 6.26430E-08 4.95964E+00-1.55693E+00
 -1       320-1.94028E-07 4.60723E+00-1.41186E+00
 -1       321 2.97953E-07 4.94888E+00-1.58298E+00
 -3
    1PSTEP                         8           4           1          
  100CL  104 2.00000E-01         321                     0    4           1
 -4  STRESS      6    1
 -5  SXX         1    4    1    1
 -5  SYY         1    4    2    2
 -5  SZZ         1    4    3    3
 -5  SXY         1    4    1    2
 -5  SYZ         1    4    2    3
 -5  SZX         1    4    3    1
 -1         1 3.48569E+01-7.86448E+03-1.23005E+06-4.08328E+01-1.23520E+03 1.88191E+01
 -1         2 1.50148E+01-1.28345E+04-1.16673E+04-1.35379E+01 3.93900E+03 1.18313E+01
 -1         3 1.66056E+00-5.74172E+03-1.07413E+04-1.94375E-02 6.77851E+03 1.30216E+00
 -1         4 1.92538E+00-2.38462E+04-1.06055E+06 5.34412E-01-1.73677E+05 2.70968E+00
 -1         5 3.48569E+01-7.81493E+03-1.23005E+06 4.44002E-08-1.23133E+03-1.44355E-07
 -1         6 1.50148E+01-1.28326E+04-1.16721E+04 1.27406E-07 3.94801E+03 4.88687E-08
 -1         7 1.65264E+00-5.74077E+03-1.07451E+04-4.74407E-08 6.77969E+03-5.00349E-09
 -1         8 1.91115E+00-2.38411E+04-1.06055E+06-1.18035E-07-1.73669E+05-1.85133E-07
 -1         9 2.49119E+01-1.00197E+04-6.20844E+05-2.30695E+01 1.87955E+03 1.51206E+01
 -1        10-8.90965E-01-5.63042E+03-1.07014E+04 7.26922E-02 4.87883E+03-5.44616E-01
 -1        11 1.79538E+00-1.48321E+04-5.35610E+05 2.22357E-01-8.35755E+04 1.80377E+00
 -1        12-9.69426E-01-1.22274E+04-1.14789E+06-1.80887E-01-8.91374E+04-1.25512E+00
 -1        13 3.48569E+01-7.83971E+03-1.23005E+06-4.42948E+01-1.23327E+03 1.73439E+01
 -1        14 1.50148E+01-1.28335E+04-1.16697E+04-1.28043E+01 3.94350E+03 1.10652E+01
 -1        15 1.65660E+00-5.74124E+03-1.07432E+04-3.36693E-01 6.77910E+03 3.90141E-01
 -1        16 1.91826E+00-2.38437E+04-1.06055E+06-3.13441E-02-1.73673E+05 1.07383E+00
 -1        17 2.49118E+01-9.97100E+03-6.20849E+05 3.13472E-08 1.88005E+03-4.61055E-08
 -1        18-8.94926E-01-5.63058E+03-1.06992E+04-1.15169E-09 4.87823E+03-1.34266E-08
 -1        19 1.78430E+00-1.48289E+04-5.35614E+05-1.04207E-07-8.35715E+04-7.47470E-08
 -1        20-9.76548E-01-1.22286E+04-1.14788E+06 2.30009E-08-8.91412E+04-1.30316E-07
 -1        21 1.45236E+00-1.24601E+03-9.12914E+03 2.27832E-01 4.88095E+03 1.55523E+00
 -1        22 1.98772E+00-8.03336E+04-8.62888E+05 8.49664E-01-2.66751E+05 2.91297E+00
 -1        23 1.45209E+00-1.24366E+03-9.13164E+03-3.09733E-08 4.88231E+03 2.78326E-08
 -1        24 1.98461E+00-8.03233E+04-8.62892E+05-3.51475E-07-2.66744E+05-6.09610E-08
 -1        25-7.69755E-01-3.92101E+03-9.70555E+03-4.78651E-02 5.55493E+03-7.38893E-01
 -1        26 1.72353E+00-4.08518E+04-4.35960E+05 4.74573E-01-1.31001E+05 2.07023E+00
 -1        27-9.64345E-01-5.32664E+04-9.60392E+05-3.52272E-01-2.21277E+05-1.42822E+00
 -1        28 1.45222E+00-1.24484E+03-9.13039E+03-4.45025E-01 4.88163E+03 5.33582E-01
 -1        29 1.98616E+00-8.03284E+04-8.62890E+05-2.96576E-01-2.66748E+05 1.14918E+00
 -1        30-7.73849E-01-3.92181E+03-9.70400E+03-5.07236E-08 5.55434E+03-1.22076E-08
 -1        31 1.72183E+00-4.08451E+04-4.35963E+05 5.44649E-08-1.30997E+05-7.10548E-08
 -1        32-9.73020E-01-5.32703E+04-9.60389E+05-1.65035E-07-2.21280E+05-1.23131E-07
 -1        33 1.26425E+00 8.97717E+02-7.89332E+03 3.66001E-01 4.17751E+03 1.57205E+00
 -1        34 2.16105E+00-1.31787E+05-6.73621E+05 9.74625E-01-3.00236E+05 2.89946E+00
 -1        35 1.27015E+00 9.01849E+02-7.89473E+03 4.45063E-07 4.17947E+03 2.07430E-08
 -1        36 2.17425E+00-1.31772E+05-6.73625E+05-3.35472E-07-3.00230E+05-4.13045E-07
 -1        37-6.81487E-01-7.17932E+02-8.37697E+03-1.68129E-01 4.37674E+03-8.00101E-01
 -1        38 1.70758E+00-6.55080E+04-3.40710E+05 5.83628E-01-1.48047E+05 2.11203E+00
 -1        39-1.02970E+00-1.07315E+05-7.66879E+05-4.85382E-01-2.83764E+05-1.46548E+00
 -1        40 1.26720E+00 8.99783E+02-7.89402E+03-6.46696E-01 4.17849E+03 5.40763E-01
 -1        41 2.16765E+00-1.31780E+05-6.73623E+05-6.92073E-01-3.00233E+05 1.08188E+00
 -1        42-6.78675E-01-7.19499E+02-8.37602E+03 4.51858E-07 4.37593E+03 2.91843E-08
 -1        43 1.71712E+00-6.54978E+04-3.40712E+05-9.93653E-08-1.48043E+05-1.04347E-07
 -1        44-1.02466E+00-1.07322E+05-7.66878E+05-5.03860E-07-2.83768E+05-2.40759E-07
 -1        45 1.02569E+00 2.77429E+03-6.59357E+03 4.39951E-01 3.25997E+03 1.39626E+00
 -1        46 2.30056E+00-1.65355E+05-5.09087E+05 1.02370E+00-2.91400E+05 2.79130E+00
 -1        47 1.03318E+00 2.78066E+03-6.59407E+03 4.69343E-08 3.26283E+03-7.95977E-08
 -1        48 2.26828E+00-1.65335E+05-5.09089E+05 8.04883E-07-2.91393E+05 9.52013E-08
 -1        49-5.80452E-01 1.25161E+03-7.27644E+03-1.81134E-01 3.67583E+03-7.58817E-01
 -1        50 1.69014E+00-8.13434E+04-2.57804E+05 6.29657E-01-1.44064E+05 2.01814E+00
 -1        51-1.13573E+00-1.49611E+05-5.90165E+05-4.70911E-01-2.95531E+05-1.42167E+00
 -1        52 1.02944E+00 2.77747E+03-6.59382E+03-9.50303E-01 3.26140E+03 4.14546E-01
 -1        53 2.28442E+00-1.65345E+05-5.09088E+05-1.31452E+00-2.91396E+05 9.42009E-01
 -1        54-5.73759E-01 1.24901E+03-7.27596E+03 1.61209E-07 3.67464E+03-2.11294E-08
 -1        55 1.67773E+00-8.13294E+04-2.57805E+05 6.74030E-07-1.44060E+05-6.90970E-08
 -1        56-1.14529E+00-1.49619E+05-5.90164E+05 2.97000E-07-2.95534E+05-2.34744E-07
 -1        57 6.45415E-01 4.02380E+03-5.49041E+03-9.99408E-02 2.59245E+03 1.11028E+00
 -1        58 2.56642E+00-1.76116E+05-3.73705E+05 2.53776E-01-2.57408E+05 2.52450E+00
 -1        59 6.75654E-01 4.03325E+03-5.49025E+03-1.55104E-06 2.59655E+03 6.71303E-07
 -1        60 2.72017E+00-1.76090E+05-3.73706E+05 1.73307E-06-2.57400E+05-9.75584E-07
 -1        61-4.44251E-01 2.80916E+03-6.19843E+03-2.35490E-01 2.94878E+03-6.24096E-01
 -1        62 1.51569E+00-8.60912E+04-1.89567E+05-4.61792E-02-1.27393E+05 1.77383E+00
 -1        63-1.17467E+00-1.71453E+05-4.40555E+05-5.27753E-01-2.73795E+05-1.35862E+00
 -1        64 6.60535E-01 4.02852E+03-5.49033E+03-1.55156E+00 2.59450E+03 2.69550E-01
 -1        65 2.64329E+00-1.76103E+05-3.73706E+05-2.03736E+00-2.57404E+05 6.78981E-01
 -1        66-4.25399E-01 2.80533E+03-6.19839E+03-6.48315E-07 2.94706E+03 2.14293E-07
 -1        67 1.60769E+00-8.60727E+04-1.89568E+05-3.25372E-07-1.27388E+05 2.39930E-08
 -1        68-1.11389E+00-1.71464E+05-4.40554E+05 4.96050E-07-2.73798E+05-6.15440E-07
 -1        69 1.03105E-01 4.91507E+03-4.54774E+03 4.52663E-01 2.08071E+03 4.67775E-01
 -1        70 2.16340E+00-1.65666E+05-2.65676E+05 1.31591E+00-2.10408E+05 2.71192E+00
 -1        71 8.65717E-02 4.92747E+03-4.54640E+03 1.22239E-06 2.08638E+03-4.86859E-07
 -1        72 1.62996E+00-1.65635E+05-2.65677E+05 8.94036E-08-2.10397E+05-1.92794E-07
 -1        73-1.93570E-01 3.89202E+03-5.28889E+03 3.59225E-01 2.38092E+03-4.78642E-01
 -1        74 1.47699E+00-8.04314E+04-1.35069E+05 7.77984E-01-1.04149E+05 1.65544E+00
 -1        75-1.38055E+00-1.71285E+05-3.19180E+05 2.93738E-01-2.33160E+05-1.16751E+00
 -1        76 9.48385E-02 4.92127E+03-4.54707E+03-1.94680E+00 2.08355E+03-2.91663E-01
 -1        77 1.89668E+00-1.65651E+05-2.65677E+05-3.47323E+00-2.10403E+05 6.54447E-01
 -1        78-1.86682E-01 3.88632E+03-5.28906E+03-1.08251E-06 2.37848E+03-2.10863E-08
 -1        79 1.20197E+00-8.04082E+04-1.35070E+05 6.90109E-07-1.04141E+05-5.22865E-07
 -1        80-1.57058E+00-1.71300E+05-3.19180E+05 1.21226E-06-2.33165E+05-2.95672E-08
 -1        81-8.34530E-01 5.52222E+03-3.80175E+03-4.37083E+00 1.74686E+03 5.68411E-01
 -1        82 3.73408E+00-1.38144E+05-1.80000E+05-6.07312E+00-1.58147E+05 9.50088E-01
 -1        83-6.71745E-01 5.54129E+03-3.80155E+03 1.63367E-06 1.75467E+03-3.32258E-07
 -1        84 5.77845E+00-1.38100E+05-1.79997E+05-4.86874E-06-1.58137E+05 8.38929E-07
 -1        85 7.33307E-02 4.64559E+03-4.54724E+03-7.65835E-01 1.93151E+03 3.21735E-02
 -1        86 1.97313E-01-6.63546E+04-9.18618E+04-5.49401E+00-7.81850E+04 6.68260E-01
 -1        87-8.56566E-01-1.52006E+05-2.22581E+05-1.54906E+00-1.83498E+05-1.50629E+00
 -1        88-7.53138E-01 5.53175E+03-3.80165E+03-4.08807E+00 1.75076E+03 3.20930E-01
 -1        89 4.75626E+00-1.38122E+05-1.79999E+05-3.57890E+00-1.58142E+05-5.10507E-01
 -1        90 1.46332E-01 4.63875E+03-4.54839E+03 7.57175E-07 1.92818E+03-2.61732E-07
 -1        91 1.30095E+00-6.63234E+04-9.18591E+04-1.77406E-06-7.81768E+04-1.59009E-07
 -1        92-1.00480E-01-1.52022E+05-2.22580E+05-3.24348E-07-1.83506E+05 2.98912E-07
 -1        93-1.91378E+00 5.93674E+03-3.26165E+03 8.80363E+00 1.57595E+03-3.21424E+00
 -1        94-2.15594E+00-9.80004E+04-1.11064E+05 1.68569E+01-1.04720E+05 7.05098E+00
 -1        95-2.25135E+00 5.95233E+03-3.25310E+03-8.95758E-08 1.58651E+03-1.55344E-07
 -1        96-9.78124E+00-9.79692E+04-1.11071E+05 1.25266E-06-1.04689E+05 2.74993E-07
 -1        97 8.37959E-01 5.13964E+03-3.99863E+03 5.14934E+00 1.59502E+03-6.16580E-01
 -1        98 2.61693E+00-4.61958E+04-5.70115E+04 1.31365E+01-5.15586E+04 2.69459E+00
 -1        99-2.64527E+00-1.17888E+05-1.45425E+05 7.52398E+00-1.30666E+05 4.43053E-01
 -1       100-2.08256E+00 5.94454E+03-3.25737E+03-1.20900E+00 1.58123E+03-4.09066E+00
 -1       101-5.96859E+00-9.79848E+04-1.11068E+05-9.90805E+00-1.04704E+05 2.56382E+00
 -1       102 7.51009E-01 5.12736E+03-3.99758E+03 1.46186E-06 1.59050E+03-1.98010E-08
 -1       103-1.36464E+00-4.61636E+04-5.70184E+04 1.37509E-06-5.15382E+04-3.09668E-07
 -1       104-5.43798E+00-1.17917E+05-1.45428E+05-9.85837E-07-1.30669E+05-4.35885E-07
 -1       105-3.80200E+00 6.18701E+03-2.87519E+03-4.63414E+01 1.54605E+03 6.99213E+00
 -1       106 1.83246E+01-5.09112E+04-5.21196E+04-7.61799E+01-5.16714E+04-1.75775E+01
 -1       107-2.77767E+00 6.24026E+03-2.89560E+03 8.64195E-07 1.55998E+03-3.10511E-08
 -1       108 4.69978E+01-5.07925E+04-5.20789E+04 5.70834E-07-5.16950E+04 1.60991E-06
 -1       109 7.97788E-01 5.41339E+03-3.63999E+03-1.38460E+01 1.35527E+03 3.92327E+00
 -1       110-9.97312E+00-2.22075E+04-2.76255E+04-6.35221E+01-2.50623E+04-7.39059E+00
 -1       111 3.93006E+00-7.39726E+04-8.15503E+04-2.38102E+01-7.74355E+04-7.02872E+00
 -1       112-3.28984E+00 6.21363E+03-2.88540E+03-1.79560E+01 1.55302E+03 1.00126E+01
 -1       113 3.26612E+01-5.08519E+04-5.20992E+04 4.99118E+00-5.16832E+04-1.07038E+01
 -1       114 1.13952E+00 5.40968E+03-3.64967E+03 6.47140E-07 1.34907E+03-4.19515E-07
 -1       115 4.87591E+00-2.21458E+04-2.75913E+04-5.29191E-07-2.50685E+04 5.51867E-08
 -1       116 1.44622E+01-7.39737E+04-8.15414E+04-2.57732E-06-7.74640E+04 1.13764E-06
 -1       117-9.78896E+00 3.20455E+03-6.12766E+03 1.95846E+02-1.47695E+03-5.87968E+01
 -1       118-1.51929E+02 4.29307E+03 5.16318E+03 3.18178E+02 3.96413E+03-1.94408E+01
 -1       119-1.15607E+01 2.78292E+03-6.03451E+03 1.58753E-06-1.64365E+03-1.51004E-07
 -1       120-2.59770E+02 3.20860E+03 5.07033E+03-5.59790E-08 3.81783E+03-2.47862E-06
 -1       121 4.06539E+00 5.57211E+03-3.49801E+03 6.02755E+01 1.17215E+03-1.11264E+01
 -1       122-1.66230E+01 4.18283E+03-8.50403E+02 2.68101E+02 1.21808E+03-2.66315E+01
 -1       123-1.93027E+01-2.29206E+04-2.65378E+04 9.77872E+01-2.47893E+04 2.28511E+01
 -1       124-1.06748E+01 2.99374E+03-6.08108E+03 1.20510E+02-1.56030E+03-5.07166E+01
 -1       125-2.05850E+02 3.75084E+03 5.11675E+03 7.73121E+01 3.89098E+03 3.28673E+00
 -1       126 3.69296E+00 5.52325E+03-3.46750E+03 1.65415E-06 1.16414E+03 1.04117E-07
 -1       127-7.14301E+01 3.47536E+03-9.34698E+02 9.37954E-07 1.07952E+03-3.69904E-07
 -1       128-5.88930E+01-2.30445E+04-2.65821E+04 1.29941E-06-2.47355E+04 5.33179E-08
 -1       129 3.48569E+01-7.86448E+03-1.23005E+06 4.08328E+01-1.23520E+03-1.88191E+01
 -1       130 1.50148E+01-1.28345E+04-1.16673E+04 1.35379E+01 3.93900E+03-1.18313E+01
 -1       131 1.66056E+00-5.74172E+03-1.07413E+04 1.94376E-02 6.77851E+03-1.30216E+00
 -1       132 1.92538E+00-2.38462E+04-1.06055E+06-5.34411E-01-1.73677E+05-2.70968E+00
 -1       133 3.48569E+01-7.83971E+03-1.23005E+06 4.42948E+01-1.23327E+03-1.73439E+01
 -1       134 1.50148E+01-1.28335E+04-1.16697E+04 1.28043E+01 3.94350E+03-1.10652E+01
 -1       135 1.65660E+00-5.74124E+03-1.07432E+04 3.36693E-01 6.77910E+03-3.90141E-01
 -1       136 1.91826E+00-2.38437E+04-1.06055E+06 3.13440E-02-1.73673E+05-1.07383E+00
 -1       137 2.49119E+01-1.00197E+04-6.20844E+05 2.30695E+01 1.87955E+03-1.51206E+01
 -1       138-8.90965E-01-5.63042E+03-1.07014E+04-7.26922E-02 4.87883E+03 5.44616E-01
 -1       139 1.79538E+00-1.48321E+04-5.35610E+05-2.22357E-01-8.35755E+04-1.80377E+00
 -1       140-9.69426E-01-1.22274E+04-1.14789E+06 1.80887E-01-8.91374E+04 1.25512E+00
 -1       141 1.45236E+00-1.24601E+03-9.12914E+03-2.27832E-01 4.88095E+03-1.55523E+00
 -1       142 1.98772E+00-8.03336E+04-8.62888E+05-8.49664E-01-2.66751E+05-2.91297E+00
 -1       143 1.45222E+00-1.24484E+03-9.13039E+03 4.45025E-01 4.88163E+03-5.33582E-01
 -1       144 1.98616E+00-8.03284E+04-8.62890E+05 2.96576E-01-2.66748E+05-1.14918E+00
 -1       145-7.69755E-01-3.92101E+03-9.70555E+03 4.78652E-02 5.55493E+03 7.38893E-01
 -1       146 1.72353E+00-4.08518E+04-4.35960E+05-4.74573E-01-1.31001E+05-2.07023E+00
 -1       147-9.64345E-01-5.32664E+04-9.60392E+05 3.52272E-01-2.21277E+05 1.42822E+00
 -1       148 1.26425E+00 8.97717E+02-7.89332E+03-3.66002E-01 4.17751E+03-1.57205E+00
 -1       149 2.16105E+00-1.31787E+05-6.73621E+05-9.74624E-01-3.00236E+05-2.89946E+00
 -1       150 1.26720E+00 8.99783E+02-7.89402E+03 6.46696E-01 4.17849E+03-5.40763E-01
 -1       151 2.16765E+00-1.31780E+05-6.73623E+05 6.92073E-01-3.00233E+05-1.08188E+00
 -1       152-6.81487E-01-7.17932E+02-8.37697E+03 1.68128E-01 4.37674E+03 8.00101E-01
 -1       153 1.70758E+00-6.55080E+04-3.40710E+05-5.83628E-01-1.48047E+05-2.11203E+00
 -1       154-1.02970E+00-1.07315E+05-7.66879E+05 4.85383E-01-2.83764E+05 1.46548E+00
 -1       155 1.02569E+00 2.77429E+03-6.59357E+03-4.39952E-01 3.25997E+03-1.39626E+00
 -1       156 2.30056E+00-1.65355E+05-5.09087E+05-1.02370E+00-2.91400E+05-2.79129E+00
 -1       157 1.02944E+00 2.77747E+03-6.59382E+03 9.50303E-01 3.26140E+03-4.14546E-01
 -1       158 2.28442E+00-1.65345E+05-5.09088E+05 1.31452E+00-2.91396E+05-9.42008E-01
 -1       159-5.80452E-01 1.25161E+03-7.27644E+03 1.81133E-01 3.67583E+03 7.58817E-01
 -1       160 1.69014E+00-8.13434E+04-2.57804E+05-6.29658E-01-1.44064E+05-2.01814E+00
 -1       161-1.13573E+00-1.49611E+05-5.90165E+05 4.70911E-01-2.95531E+05 1.42167E+00
 -1       162 6.45415E-01 4.02380E+03-5.49041E+03 9.99454E-02 2.59245E+03-1.11028E+00
 -1       163 2.56642E+00-1.76116E+05-3.73705E+05-2.53779E-01-2.57408E+05-2.52450E+00
 -1       164 6.60535E-01 4.02852E+03-5.49033E+03 1.55156E+00 2.59450E+03-2.69550E-01
 -1       165 2.64330E+00-1.76103E+05-3.73706E+05 2.03736E+00-2.57404E+05-6.78982E-01
 -1       166-4.44251E-01 2.80916E+03-6.19843E+03 2.35491E-01 2.94878E+03 6.24096E-01
 -1       167 1.51569E+00-8.60912E+04-1.89567E+05 4.61810E-02-1.27393E+05-1.77384E+00
 -1       168-1.17467E+00-1.71453E+05-4.40555E+05 5.27754E-01-2.73795E+05 1.35862E+00
 -1       169 1.03105E-01 4.91507E+03-4.54774E+03-4.52665E-01 2.08071E+03-4.67775E-01
 -1       170 2.16340E+00-1.65666E+05-2.65676E+05-1.31591E+00-2.10408E+05-2.71192E+00
 -1       171 9.48385E-02 4.92127E+03-4.54707E+03 1.94680E+00 2.08355E+03 2.91662E-01
 -1       172 1.89668E+00-1.65651E+05-2.65677E+05 3.47323E+00-2.10403E+05-6.54447E-01
 -1       173-1.93570E-01 3.89202E+03-5.28889E+03-3.59224E-01 2.38092E+03 4.78642E-01
 -1       174 1.47699E+00-8.04314E+04-1.35069E+05-7.77986E-01-1.04149E+05-1.65544E+00
 -1       175-1.38055E+00-1.71285E+05-3.19180E+05-2.93742E-01-2.33160E+05 1.16751E+00
 -1       176-8.34529E-01 5.52222E+03-3.80175E+03 4.37083E+00 1.74686E+03-5.68411E-01
 -1       177 3.73407E+00-1.38144E+05-1.80000E+05 6.07312E+00-1.58147E+05-9.50088E-01
 -1       178-7.53137E-01 5.53175E+03-3.80165E+03 4.08808E+00 1.75076E+03-3.20930E-01
 -1       179 4.75626E+00-1.38122E+05-1.79999E+05 3.57889E+00-1.58142E+05 5.10508E-01
 -1       180 7.33310E-02 4.64559E+03-4.54724E+03 7.65837E-01 1.93151E+03-3.21735E-02
 -1       181 1.97314E-01-6.63546E+04-9.18618E+04 5.49401E+00-7.81850E+04-6.68261E-01
 -1       182-8.56566E-01-1.52006E+05-2.22581E+05 1.54906E+00-1.83498E+05 1.50629E+00
 -1       183-1.91378E+00 5.93674E+03-3.26165E+03-8.80363E+00 1.57595E+03 3.21424E+00
 -1       184-2.15594E+00-9.80004E+04-1.11064E+05-1.68569E+01-1.04720E+05-7.05098E+00
 -1       185-2.08256E+00 5.94454E+03-3.25737E+03 1.20900E+00 1.58123E+03 4.09066E+00
 -1       186-5.96859E+00-9.79848E+04-1.11068E+05 9.90805E+00-1.04704E+05-2.56382E+00
 -1       187 8.37959E-01 5.13964E+03-3.99863E+03-5.14934E+00 1.59502E+03 6.16580E-01
 -1       188 2.61693E+00-4.61958E+04-5.70115E+04-1.31365E+01-5.15586E+04-2.69459E+00
 -1       189-2.64527E+00-1.17888E+05-1.45425E+05-7.52398E+00-1.30666E+05-4.43054E-01
 -1       190-3.80200E+00 6.18701E+03-2.87519E+03 4.63414E+01 1.54605E+03-6.99213E+00
 -1       191 1.83246E+01-5.09112E+04-5.21196E+04 7.61799E+01-5.16714E+04 1.75775E+01
 -1       192-3.28984E+00 6.21363E+03-2.88540E+03 1.79560E+01 1.55302E+03-1.00126E+01
 -1       193 3.26612E+01-5.08519E+04-5.20992E+04-4.99118E+00-5.16832E+04 1.07038E+01
 -1       194 7.97788E-01 5.41339E+03-3.63999E+03 1.38460E+01 1.35527E+03-3.92327E+00
 -1       195-9.97312E+00-2.22075E+04-2.76255E+04 6.35221E+01-2.50623E+04 7.39059E+00
 -1       196 3.93006E+00-7.39726E+04-8.15503E+04 2.38102E+01-7.74355E+04 7.02871E+00
 -1       197-9.78896E+00 3.20455E+03-6.12766E+03-1.95846E+02-1.47695E+03 5.87968E+01
 -1       198-1.51929E+02 4.29307E+03 5.16318E+03-3.18178E+02 3.96413E+03 1.94408E+01
 -1       199-1.06748E+01 2.99374E+03-6.08108E+03-1.20510E+02-1.56030E+03 5.07166E+01
 -1       200-2.05850E+02 3.75084E+03 5.11675E+03-7.73121E+01 3.89098E+03-3.28673E+00
 -1       201 4.06539E+00 5.57211E+03-3.49801E+03-6.02755E+01 1.17215E+03 1.11264E+01
 -1       202-1.66230E+01 4.18283E+03-8.50403E+02-2.68101E+02 1.21808E+03 2.66315E+01
 -1       203-1.93027E+01-2.29206E+04-2.65378E+04-9.77872E+01-2.47893E+04-2.28511E+01
 -1       204 4.34314E+01-1.78888E+04 1.25331E+06-5.38844E+01 9.82672E+03 4.14781E+01
 -1       205 1.36478E+00 2.54597E+04 1.07895E+06 5.21489E-02 1.78130E+05 1.92020E+00
 -1       206 4.34314E+01-1.79314E+04 1.25329E+06 2.16980E-07 9.85413E+03 2.11297E-08
 -1       207 1.36713E+00 2.54646E+04 1.07894E+06-9.25580E-08 1.78137E+05 1.59400E-07
 -1       208 2.92471E+01-1.56914E+04 6.20808E+05-3.78270E+01 6.35521E+03 2.68592E+01
 -1       209-8.18658E-01 7.37611E+03 1.16811E+06 2.59656E-02 9.43939E+04-8.75925E-01
 -1       210 1.51026E+00 9.89708E+03 5.34071E+05 5.14854E-02 9.25808E+04 1.81333E+00
 -1       211 4.34314E+01-1.79101E+04 1.25330E+06-4.92477E+01 9.84042E+03 3.90080E+01
 -1       212 1.36595E+00 2.54622E+04 1.07894E+06-7.30609E-01 1.78133E+05-5.92010E-01
 -1       213 2.92471E+01-1.57348E+04 6.20797E+05 2.26748E-07 6.37935E+03 3.33614E-08
 -1       214-8.17485E-01 7.37483E+03 1.16811E+06-1.30385E-08 9.43902E+04 1.60188E-07
 -1       215 1.50748E+00 9.89992E+03 5.34063E+05-4.85303E-08 9.25848E+04 5.68767E-08
 -1       216 7.61554E-01 8.15818E+04 8.75591E+05 1.95632E-01 2.73938E+05 1.96310E+00
 -1       217 7.73597E-01 8.15914E+04 8.75584E+05 5.40243E-07 2.73945E+05 8.68961E-08
 -1       218-5.40260E-01 5.36465E+04 9.76236E+05-8.33144E-02 2.26130E+05-1.00652E+00
 -1       219 1.10347E+00 4.02299E+04 4.33182E+05 2.75907E-01 1.39475E+05 1.92303E+00
 -1       220 7.67575E-01 8.15866E+04 8.75588E+05-1.29190E+00 2.73942E+05-4.29237E-01
 -1       221-5.33067E-01 5.36429E+04 9.76241E+05 1.86597E-07 2.26127E+05 1.73790E-07
 -1       222 1.10936E+00 4.02356E+04 4.33177E+05 8.94570E-09 1.39479E+05 1.11855E-07
 -1       223 2.89752E-02 1.35178E+05 6.82511E+05 2.15279E-02 3.06518E+05 1.58501E+00
 -1       224 3.27650E-02 1.35192E+05 6.82509E+05 1.55427E-07 3.06526E+05 2.33437E-07
 -1       225-2.17955E-01 1.08426E+05 7.78194E+05-1.01382E-01 2.90123E+05-9.17122E-01
 -1       226 6.51689E-01 6.81007E+04 3.37262E+05 2.80449E-01 1.55365E+05 1.70225E+00
 -1       227 3.08701E-02 1.35185E+05 6.82510E+05-1.96615E+00 3.06522E+05-5.05475E-01
 -1       228-2.10035E-01 1.08420E+05 7.78196E+05 1.14764E-07 2.90119E+05 2.13098E-07
 -1       229 6.56534E-01 6.81096E+04 3.37260E+05 4.54406E-07 1.55370E+05 3.52865E-08
 -1       230-8.55520E-01 1.69403E+05 5.15044E+05-4.32657E-01 2.96881E+05 8.61427E-01
 -1       231-7.86658E-01 1.69424E+05 5.15045E+05-1.09771E-06 2.96891E+05 2.66313E-07
 -1       232 1.91562E-01 1.52185E+05 5.98189E+05 1.05534E-01 3.01535E+05-6.26090E-01
 -1       233 5.80747E-02 8.61418E+04 2.54189E+05 1.05815E-01 1.50065E+05 1.20447E+00
 -1       234-8.21089E-01 1.69413E+05 5.15045E+05-2.88305E+00 2.96886E+05-8.06021E-01
 -1       235 2.27874E-01 1.52177E+05 5.98189E+05-2.46839E-07 3.01530E+05 2.69192E-07
 -1       236 9.62564E-02 8.61545E+04 2.54189E+05-7.73509E-07 1.50072E+05 1.70257E-07
 -1       237-2.16435E+00 1.80499E+05 3.77786E+05-1.92656E+00 2.61809E+05-3.19103E-01
 -1       238-2.29395E+00 1.80525E+05 3.77790E+05 3.32206E-06 2.61823E+05-2.68530E-07
 -1       239 6.66558E-01 1.74753E+05 4.46033E+05 3.58894E-01 2.79241E+05-2.00215E-01
 -1       240-6.69238E-01 9.23067E+04 1.86117E+05-8.90153E-01 1.32186E+05 4.39146E-01
 -1       241-2.22915E+00 1.80512E+05 3.77788E+05-3.97777E+00 2.61816E+05-1.45274E+00
 -1       242 6.36239E-01 1.74741E+05 4.46032E+05 1.05224E-06 2.79235E+05 2.56923E-07
 -1       243-7.18925E-01 9.23235E+04 1.86119E+05 1.30189E-06 1.32196E+05 2.52536E-08
 -1       244-3.45500E+00 1.69983E+05 2.68512E+05-2.03983E+00 2.13882E+05-1.41936E+00
 -1       245-2.80374E+00 1.70019E+05 2.68517E+05-1.20472E-06 2.13898E+05 1.25184E-07
 -1       246 1.50815E+00 1.75022E+05 3.22932E+05 1.62558E+00 2.37864E+05 5.78201E-01
 -1       247-2.01969E+00 8.75048E+04 1.31939E+05-6.87279E-01 1.07966E+05-5.41379E-01
 -1       248-3.12937E+00 1.70001E+05 2.68515E+05-5.83047E+00 2.13890E+05-2.00390E+00
 -1       249 1.76880E+00 1.75008E+05 3.22929E+05 1.35694E-06 2.37856E+05-1.75982E-08
 -1       250-1.70229E+00 8.75276E+04 1.31943E+05-2.53768E-08 1.07978E+05 2.20159E-09
 -1       251-7.04708E+00 1.42222E+05 1.82016E+05-1.04731E+01 1.60860E+05-4.75449E+00
 -1       252-9.20116E+00 1.42252E+05 1.82028E+05-1.72464E-07 1.60886E+05 9.84794E-07
 -1       253 1.93356E+00 1.55931E+05 2.25199E+05 4.16922E-01 1.87542E+05 8.31055E-01
 -1       254-2.68835E+00 7.39159E+04 8.90681E+04-7.14994E+00 8.12887E+04-2.00205E+00
 -1       255-8.12412E+00 1.42237E+05 1.82022E+05-6.76691E+00 1.60873E+05-4.31000E+00
 -1       256 1.18277E+00 1.55909E+05 2.25196E+05 3.14511E-07 1.87533E+05 1.66944E-07
 -1       257-3.68406E+00 7.39410E+04 8.90729E+04 8.87127E-07 8.13060E+04 7.38612E-07
 -1       258-5.41707E+00 1.01720E+05 1.12512E+05 9.10906E+00 1.06866E+05-1.89468E+00
 -1       259 2.77647E+00 1.01808E+05 1.12513E+05 1.60698E-06 1.06881E+05-2.40687E-06
 -1       260 5.24661E+00 1.21895E+05 1.47381E+05 1.02834E+01 1.34196E+05 4.17306E+00
 -1       261-8.31721E+00 5.39923E+04 5.44740E+04 8.65014E+00 5.42077E+04-3.33068E+00
 -1       262-1.32030E+00 1.01764E+05 1.12513E+05-1.29604E+01 1.06874E+05-1.45419E+00
 -1       263 8.26411E+00 1.21886E+05 1.47373E+05-6.91166E-07 1.34179E+05-6.91580E-07
 -1       264-4.38910E+00 5.40354E+04 5.44862E+04-3.48432E-08 5.42208E+04-9.11613E-07
 -1       265-2.77413E+01 5.43223E+04 5.30397E+04-8.06462E+01 5.34112E+04-2.52395E+01
 -1       266-5.72525E+01 5.42345E+04 5.30959E+04 9.40037E-07 5.34962E+04-1.83222E-07
 -1       267-3.20235E-01 7.80563E+04 8.31560E+04-1.98998E+01 8.06614E+04-2.90333E+00
 -1       268 1.46276E+00 3.01001E+04 2.52104E+04-6.12323E+01 2.74783E+04-7.02579E+00
 -1       269-4.24969E+01 5.42784E+04 5.30678E+04-2.78848E+00 5.34537E+04-2.00819E+01
 -1       270-1.09712E+01 7.79795E+04 8.31624E+04 9.02638E-07 8.06639E+04-1.13041E-06
 -1       271-1.27810E+01 3.01071E+04 2.52042E+04 2.14882E-06 2.75291E+04 6.27106E-07
 -1       272 1.21630E+02 5.93225E+03 2.07498E+03 4.16613E+02 4.65845E+03 7.27015E+01
 -1       273 2.29605E+02 5.69035E+03 1.87424E+03 2.97787E-06 3.97900E+03 2.55698E-06
 -1       274 3.03562E+01 2.70982E+04 2.82314E+04 1.02493E+02 2.78526E+04 3.07392E+01
 -1       275-8.31576E+00 4.13438E+03-1.65818E+03 2.95140E+02 1.61626E+03-5.53496E+00
 -1       276 1.75618E+02 5.81130E+03 1.97461E+03 1.62446E+02 4.31872E+03 8.27218E+01
 -1       277 6.95823E+01 2.72528E+04 2.81723E+04 2.61807E-06 2.77650E+04 8.85911E-07
 -1       278 4.47869E+01 3.75704E+03-1.62752E+03 2.11052E-06 1.17524E+03 2.58083E-07
 -1       279 4.34314E+01-1.78888E+04 1.25331E+06 5.38844E+01 9.82672E+03-4.14781E+01
 -1       280 1.36478E+00 2.54597E+04 1.07895E+06-5.21491E-02 1.78130E+05-1.92020E+00
 -1       281 4.34314E+01-1.79101E+04 1.25330E+06 4.92477E+01 9.84042E+03-3.90080E+01
 -1       282 1.36595E+00 2.54622E+04 1.07894E+06 7.30609E-01 1.78133E+05 5.92010E-01
 -1       283 2.92471E+01-1.56914E+04 6.20808E+05 3.78270E+01 6.35521E+03-2.68592E+01
 -1       284-8.18658E-01 7.37611E+03 1.16811E+06-2.59658E-02 9.43939E+04 8.75925E-01
 -1       285 1.51026E+00 9.89708E+03 5.34071E+05-5.14855E-02 9.25808E+04-1.81333E+00
 -1       286 7.61554E-01 8.15818E+04 8.75591E+05-1.95633E-01 2.73938E+05-1.96310E+00
 -1       287 7.67575E-01 8.15866E+04 8.75588E+05 1.29190E+00 2.73942E+05 4.29237E-01
 -1       288-5.40260E-01 5.36465E+04 9.76236E+05 8.33142E-02 2.26130E+05 1.00652E+00
 -1       289 1.10347E+00 4.02299E+04 4.33182E+05-2.75907E-01 1.39475E+05-1.92303E+00
 -1       290 2.89752E-02 1.35178E+05 6.82511E+05-2.15273E-02 3.06518E+05-1.58501E+00
 -1       291 3.08701E-02 1.35185E+05 6.82510E+05 1.96615E+00 3.06522E+05 5.05475E-01
 -1       292-2.17955E-01 1.08426E+05 7.78194E+05 1.01381E-01 2.90123E+05 9.17122E-01
 -1       293 6.51689E-01 6.81007E+04 3.37262E+05-2.80449E-01 1.55365E+05-1.70225E+00
 -1       294-8.55520E-01 1.69403E+05 5.15044E+05 4.32659E-01 2.96881E+05-8.61427E-01
 -1       295-8.21089E-01 1.69413E+05 5.15045E+05 2.88305E+00 2.96886E+05 8.06021E-01
 -1       296 1.91562E-01 1.52185E+05 5.98189E+05-1.05532E-01 3.01535E+05 6.26090E-01
 -1       297 5.80747E-02 8.61418E+04 2.54189E+05-1.05815E-01 1.50065E+05-1.20447E+00
 -1       298-2.16435E+00 1.80499E+05 3.77786E+05 1.92655E+00 2.61809E+05 3.19102E-01
 -1       299-2.22915E+00 1.80512E+05 3.77788E+05 3.97777E+00 2.61816E+05 1.45274E+00
 -1       300 6.66558E-01 1.74753E+05 4.46033E+05-3.58896E-01 2.79241E+05 2.00215E-01
 -1       301-6.69238E-01 9.23067E+04 1.86117E+05 8.90152E-01 1.32186E+05-4.39146E-01
 -1       302-3.45500E+00 1.69983E+05 2.68512E+05 2.03983E+00 2.13882E+05 1.41935E+00
 -1       303-3.12937E+00 1.70001E+05 2.68515E+05 5.83047E+00 2.13890E+05 2.00390E+00
 -1       304 1.50815E+00 1.75022E+05 3.22932E+05-1.62559E+00 2.37864E+05-5.78202E-01
 -1       305-2.01969E+00 8.75048E+04 1.31939E+05 6.87279E-01 1.07966E+05 5.41378E-01
 -1       306-7.04708E+00 1.42222E+05 1.82016E+05 1.04731E+01 1.60860E+05 4.75449E+00
 -1       307-8.12412E+00 1.42237E+05 1.82022E+05 6.76691E+00 1.60873E+05 4.31000E+00
 -1       308 1.93356E+00 1.55931E+05 2.25199E+05-4.16921E-01 1.87542E+05-8.31056E-01
 -1       309-2.68835E+00 7.39159E+04 8.90681E+04 7.14994E+00 8.12887E+04 2.00205E+00
 -1       310-5.41707E+00 1.01720E+05 1.12512E+05-9.10905E+00 1.06866E+05 1.89468E+00
 -1       311-1.32030E+00 1.01764E+05 1.12513E+05 1.29604E+01 1.06874E+05 1.45419E+00
 -1       312 5.24661E+00 1.21895E+05 1.47381E+05-1.02834E+01 1.34196E+05-4.17306E+00
 -1       313-8.31721E+00 5.39923E+04 5.44740E+04-8.65014E+00 5.42077E+04 3.33068E+00
 -1       314-2.77413E+01 5.43223E+04 5.30397E+04 8.06462E+01 5.34112E+04 2.52395E+01
 -1       315-4.24969E+01 5.42784E+04 5.30678E+04 2.78849E+00 5.34537E+04 2.00819E+01
 -1       316-3.20235E-01 7.80563E+04 8.31560E+04 1.98998E+01 8.06614E+04 2.90334E+00
 -1       317 1.46276E+00 3.01001E+04 2.52104E+04 6.12323E+01 2.74783E+04 7.02579E+00
 -1       318 1.21630E+02 5.93225E+03 2.07498E+03-4.16613E+02 4.65845E+03-7.27015E+01
 -1       319 1.75618E+02 5.81130E+03 1.97461E+03-1.62446E+02 4.31872E+03-8.27218E+01
 -1       320 3.03562E+01 2.70982E+04 2.82314E+04-1.02493E+02 2.78526E+04-3.07392E+01
 -1       321-8.31576E+00 4.13438E+03-1.65818E+03-2.95140E+02 1.61626E+03 5.53496E+00
 -3
    1PSTEP                         9           5           1          
  100CL  105 2.50000E-01         321                     0    5           1
 -4  DISP        4    1
 -5  D1          1    2    1    0
 -5  D2          1    2    2    0
 -5  D3          1    2    3    0
 -5  ALL         1    2    0    0    1ALL
 -1         1 0.00000E+00 0.00000E+00 0.00000E+00
 -1         2 0.00000E+00 0.00000E+00 0.00000E+00
 -1         3-2.30917E-08 9.43351E-02-5.98043E-03
 -1         4-5.26393E-08 9.30603E-02-1.95936E-02
 -1         5 0.00000E+00 0.00000E+00 0.00000E+00
 -1         6 0.00000E+00 0.00000E+00 0.00000E+00
 -1         7 3.59828E-14 9.43351E-02-5.98040E-03
 -1         8 2.77455E-14 9.30602E-02-1.95936E-02
 -1         9 0.00000E+00 0.00000E+00 0.00000E+00
 -1        10 4.88036E-09 2.41502E-02-8.11462E-04
 -1        11-3.78628E-08 9.36970E-02-1.27853E-02
 -1        12 1.21824E-08 2.38095E-02-7.85528E-03
 -1        13 0.00000E+00 0.00000E+00 0.00000E+00
 -1        14 0.00000E+00 0.00000E+00 0.00000E+00
 -1        15-1.15464E-08 9.43351E-02-5.98041E-03
 -1        16-2.63208E-08 9.30603E-02-1.95936E-02
 -1        17 0.00000E+00 0.00000E+00 0.00000E+00
 -1        18 9.64121E-15 2.41502E-02-8.11469E-04
 -1        19 3.18545E-14 9.36969E-02-1.27853E-02
 -1        20 5.90497E-15 2.38096E-02-7.85530E-03
 -1        21-5.28232E-08 3.58386E-01-4.26445E-02
 -1        22-1.12881E-07 3.53991E-01-6.76981E-02
 -1        23 1.36932E-13 3.58385E-01-4.26445E-02
 -1        24 1.20181E-13 3.53991E-01-6.76980E-02
 -1        25 1.82057E-08 2.07016E-01-1.90172E-02
 -1        26-8.28472E-08 3.56188E-01-5.51701E-02
 -1        27 4.04368E-08 2.04372E-01-3.86114E-02
 -1        28-2.64115E-08 3.58385E-01-4.26445E-02
 -1        29-5.64405E-08 3.53991E-01-6.76981E-02
 -1        30 7.87865E-14 2.07016E-01-1.90172E-02
 -1        31 1.28666E-13 3.56188E-01-5.51700E-02
 -1        32 6.68780E-14 2.04373E-01-3.86115E-02
 -1        33-8.83641E-08 7.62468E-01-1.28814E-01
 -1        34-1.80698E-07 7.53993E-01-1.63130E-01
 -1        35 2.98019E-13 7.62468E-01-1.28813E-01
 -1        36 2.73052E-13 7.53993E-01-1.63130E-01
 -1        37 3.46156E-08 5.44764E-01-7.88101E-02
 -1        38-1.34540E-07 7.58231E-01-1.45971E-01
 -1        39 7.24350E-08 5.38433E-01-1.08752E-01
 -1        40-4.41814E-08 7.62468E-01-1.28814E-01
 -1        41-9.03476E-08 7.53993E-01-1.63130E-01
 -1        42 2.10286E-13 5.44764E-01-7.88102E-02
 -1        43 2.85244E-13 7.58231E-01-1.45971E-01
 -1        44 1.90583E-13 5.38433E-01-1.08752E-01
 -1        45-1.28949E-07 1.27826E+00-2.72759E-01
 -1        46-2.56513E-07 1.26542E+00-3.14350E-01
 -1        47 5.11046E-13 1.27826E+00-2.72759E-01
 -1        48 4.78744E-13 1.26542E+00-3.14350E-01
 -1        49 5.37525E-08 1.00806E+00-1.93380E-01
 -1        50-1.92687E-07 1.27184E+00-2.93554E-01
 -1        51 1.08261E-07 9.97441E-01-2.31571E-01
 -1        52-6.44734E-08 1.27826E+00-2.72759E-01
 -1        53-1.28258E-07 1.26542E+00-3.14350E-01
 -1        54 3.97973E-13 1.00806E+00-1.93380E-01
 -1        55 4.95457E-13 1.27184E+00-2.93553E-01
 -1        56 3.71022E-13 9.97441E-01-2.31571E-01
 -1        57-1.73606E-07 1.88066E+00-4.75022E-01
 -1        58-3.40182E-07 1.86363E+00-5.22173E-01
 -1        59 7.73757E-13 1.88066E+00-4.75022E-01
 -1        60 7.32684E-13 1.86363E+00-5.22173E-01
 -1        61 7.52057E-08 1.57006E+00-3.66797E-01
 -1        62-2.57040E-07 1.87214E+00-4.98596E-01
 -1        63 1.48248E-07 1.55511E+00-4.11379E-01
 -1        64-8.67997E-08 1.88066E+00-4.75022E-01
 -1        65-1.70080E-07 1.86363E+00-5.22173E-01
 -1        66 6.36668E-13 1.57006E+00-3.66797E-01
 -1        67 7.53734E-13 1.87214E+00-4.98596E-01
 -1        68 6.01678E-13 1.55511E+00-4.11379E-01
 -1        69-2.20783E-07 2.54835E+00-7.30877E-01
 -1        70-4.33163E-07 2.52763E+00-7.82153E-01
 -1        71 1.07392E-12 2.54834E+00-7.30877E-01
 -1        72 1.02467E-12 2.52763E+00-7.82153E-01
 -1        73 9.84210E-08 2.20753E+00-5.96693E-01
 -1        74-3.26413E-07 2.53799E+00-7.56514E-01
 -1        75 1.91949E-07 2.18861E+00-6.46092E-01
 -1        76-1.10392E-07 2.54835E+00-7.30877E-01
 -1        77-2.16616E-07 2.52763E+00-7.82153E-01
 -1        78 9.20291E-13 2.20753E+00-5.96693E-01
 -1        79 1.04959E-12 2.53799E+00-7.56514E-01
 -1        80 8.78226E-13 2.18861E+00-6.46092E-01
 -1        81-2.68276E-07 3.26365E+00-1.03222E+00
 -1        82-5.29488E-07 3.23993E+00-1.08644E+00
 -1        83 1.40802E-12 3.26365E+00-1.03222E+00
 -1        84 1.35196E-12 3.23993E+00-1.08644E+00
 -1        85 1.22375E-07 2.90103E+00-8.76458E-01
 -1        86-4.00918E-07 3.25179E+00-1.05933E+00
 -1        87 2.41161E-07 2.87873E+00-9.29368E-01
 -1        88-1.34123E-07 3.26365E+00-1.03222E+00
 -1        89-2.64605E-07 3.23993E+00-1.08644E+00
 -1        90 1.23082E-12 2.90103E+00-8.76458E-01
 -1        91 1.38048E-12 3.25179E+00-1.05933E+00
 -1        92 1.17758E-12 2.87873E+00-9.29369E-01
 -1        93-3.12231E-07 4.01195E+00-1.36892E+00
 -1        94-6.47711E-07 3.98603E+00-1.42509E+00
 -1        95 1.77347E-12 4.01194E+00-1.36892E+00
 -1        96 1.70815E-12 3.98602E+00-1.42509E+00
 -1        97 1.45991E-07 3.63449E+00-1.19683E+00
 -1        98-4.72378E-07 3.99899E+00-1.39701E+00
 -1        99 2.88497E-07 3.60958E+00-1.25218E+00
 -1       100-1.56144E-07 4.01195E+00-1.36892E+00
 -1       101-3.24373E-07 3.98602E+00-1.42509E+00
 -1       102 1.58496E-12 3.63449E+00-1.19683E+00
 -1       103 1.74097E-12 3.99899E+00-1.39701E+00
 -1       104 1.52786E-12 3.60958E+00-1.25218E+00
 -1       105-3.48362E-07 4.78095E+00-1.72967E+00
 -1       106-7.13482E-07 4.75370E+00-1.78696E+00
 -1       107 2.16603E-12 4.78095E+00-1.72967E+00
 -1       108 2.09406E-12 4.75369E+00-1.78696E+00
 -1       109 1.66077E-07 4.39457E+00-1.54701E+00
 -1       110-5.59146E-07 4.76733E+00-1.75831E+00
 -1       111 3.58629E-07 4.36788E+00-1.60389E+00
 -1       112-1.74090E-07 4.78095E+00-1.72967E+00
 -1       113-3.54777E-07 4.75370E+00-1.78696E+00
 -1       114 1.96439E-12 4.39457E+00-1.54701E+00
 -1       115 2.12948E-12 4.76732E+00-1.75831E+00
 -1       116 1.90253E-12 4.36788E+00-1.60389E+00
 -1       117-3.68042E-07 5.55993E+00-2.10257E+00
 -1       118-9.92397E-07 5.53223E+00-2.16022E+00
 -1       119 2.57356E-12 5.55993E+00-2.10257E+00
 -1       120 2.49747E-12 5.53223E+00-2.16022E+00
 -1       121 1.83168E-07 5.16984E+00-1.91535E+00
 -1       122-5.74445E-07 5.54608E+00-2.13139E+00
 -1       123 3.56572E-07 5.14225E+00-1.97296E+00
 -1       124-1.84173E-07 5.55993E+00-2.10257E+00
 -1       125-5.03616E-07 5.53223E+00-2.16022E+00
 -1       126 2.37055E-12 5.16984E+00-1.91535E+00
 -1       127 2.53499E-12 5.54608E+00-2.13139E+00
 -1       128 2.31131E-12 5.14225E+00-1.97296E+00
 -1       129 0.00000E+00 0.00000E+00 0.00000E+00
 -1       130 0.00000E+00 0.00000E+00 0.00000E+00
 -1       131 2.30917E-08 9.43351E-02-5.98043E-03
 -1       132 5.26394E-08 9.30603E-02-1.95936E-02
 -1       133 0.00000E+00 0.00000E+00 0.00000E+00
 -1       134 0.00000E+00 0.00000E+00 0.00000E+00
 -1       135 1.15465E-08 9.43351E-02-5.98041E-03
 -1       136 2.63208E-08 9.30603E-02-1.95936E-02
 -1       137 0.00000E+00 0.00000E+00 0.00000E+00
 -1       138-4.88034E-09 2.41502E-02-8.11462E-04
 -1       139 3.78629E-08 9.36970E-02-1.27853E-02
 -1       140-1.21824E-08 2.38095E-02-7.85528E-03
 -1       141 5.28234E-08 3.58386E-01-4.26445E-02
 -1       142 1.12881E-07 3.53991E-01-6.76981E-02
 -1       143 2.64118E-08 3.58385E-01-4.26445E-02
 -1       144 5.64408E-08 3.53991E-01-6.76981E-02
 -1       145-1.82056E-08 2.07016E-01-1.90172E-02
 -1       146 8.28475E-08 3.56188E-01-5.51701E-02
 -1       147-4.04366E-08 2.04372E-01-3.86114E-02
 -1       148 8.83647E-08 7.62468E-01-1.28814E-01
 -1       149 1.80698E-07 7.53993E-01-1.63130E-01
 -1       150 4.41820E-08 7.62468E-01-1.28814E-01
 -1       151 9.03481E-08 7.53993E-01-1.63130E-01
 -1       152-3.46151E-08 5.44764E-01-7.88101E-02
 -1       153 1.34540E-07 7.58231E-01-1.45971E-01
 -1       154-7.24346E-08 5.38433E-01-1.08752E-01
 -1       155 1.28950E-07 1.27826E+00-2.72759E-01
 -1       156 2.56514E-07 1.26542E+00-3.14350E-01
 -1       157 6.44745E-08 1.27826E+00-2.72759E-01
 -1       158 1.28259E-07 1.26542E+00-3.14350E-01
 -1       159-5.37517E-08 1.00806E+00-1.93380E-01
 -1       160 1.92688E-07 1.27184E+00-2.93554E-01
 -1       161-1.08260E-07 9.97441E-01-2.31571E-01
 -1       162 1.73607E-07 1.88066E+00-4.75022E-01
 -1       163 3.40184E-07 1.86363E+00-5.22173E-01
 -1       164 8.68012E-08 1.88066E+00-4.75022E-01
 -1       165 1.70082E-07 1.86363E+00-5.22173E-01
 -1       166-7.52045E-08 1.57006E+00-3.66797E-01
 -1       167 2.57041E-07 1.87214E+00-4.98596E-01
 -1       168-1.48247E-07 1.55511E+00-4.11379E-01
 -1       169 2.20785E-07 2.54835E+00-7.30877E-01
 -1       170 4.33165E-07 2.52763E+00-7.82153E-01
 -1       171 1.10394E-07 2.54835E+00-7.30877E-01
 -1       172 2.16618E-07 2.52763E+00-7.82153E-01
 -1       173-9.84192E-08 2.20753E+00-5.96693E-01
 -1       174 3.26415E-07 2.53799E+00-7.56514E-01
 -1       175-1.91947E-07 2.18861E+00-6.46092E-01
 -1       176 2.68279E-07 3.26365E+00-1.03222E+00
 -1       177 5.29491E-07 3.23993E+00-1.08644E+00
 -1       178 1.34126E-07 3.26365E+00-1.03222E+00
 -1       179 2.64607E-07 3.23993E+00-1.08644E+00
 -1       180-1.22373E-07 2.90103E+00-8.76458E-01
 -1       181 4.00921E-07 3.25179E+00-1.05933E+00
 -1       182-2.41158E-07 2.87873E+00-9.29368E-01
 -1       183 3.12235E-07 4.01195E+00-1.36892E+00
 -1       184 6.47715E-07 3.98603E+00-1.42509E+00
 -1       185 1.56148E-07 4.01195E+00-1.36892E+00
 -1       186 3.24377E-07 3.98602E+00-1.42509E+00
 -1       187-1.45987E-07 3.63449E+00-1.19683E+00
 -1       188 4.72382E-07 3.99899E+00-1.39701E+00
 -1       189-2.88494E-07 3.60958E+00-1.25218E+00
 -1       190 3.48367E-07 4.78095E+00-1.72967E+00
 -1       191 7.13486E-07 4.75370E+00-1.78696E+00
 -1       192 1.74095E-07 4.78095E+00-1.72967E+00
 -1       193 3.54781E-07 4.75370E+00-1.78696E+00
 -1       194-1.66073E-07 4.39457E+00-1.54701E+00
 -1       195 5.59151E-07 4.76733E+00-1.75831E+00
 -1       196-3.58626E-07 4.36788E+00-1.60389E+00
 -1       197 3.68047E-07 5.55993E+00-2.10257E+00
 -1       198 9.92402E-07 5.53223E+00-2.16022E+00
 -1       199 1.84178E-07 5.55993E+00-2.10257E+00
 -1       200 5.03621E-07 5.53223E+00-2.16022E+00
 -1       201-1.83163E-07 5.16984E+00-1.91535E+00
 -1       202 5.74450E-07 5.54608E+00-2.13139E+00
 -1       203-3.56568E-07 5.14225E+00-1.97296E+00
 -1       204 0.00000E+00 0.00000E+00 0.00000E+00
 -1       205-6.23872E-08 9.56066E-02 7.62533E-03
 -1       206 0.00000E+00 0.00000E+00 0.00000E+00
 -1       207 4.39125E-14 9.56065E-02 7.62541E-03
 -1       208 0.00000E+00 0.00000E+00 0.00000E+00
 -1       209 1.48932E-08 2.44917E-02 6.23515E-03
 -1       210-4.27423E-08 9.49716E-02 8.20781E-04
 -1       211 0.00000E+00 0.00000E+00 0.00000E+00
 -1       212-3.11931E-08 9.56065E-02 7.62537E-03
 -1       213 0.00000E+00 0.00000E+00 0.00000E+00
 -1       214 1.34663E-14 2.44917E-02 6.23513E-03
 -1       215 3.99484E-14 9.49716E-02 8.20838E-04
 -1       216-1.29589E-07 3.62774E-01-1.75996E-02
 -1       217 1.53098E-13 3.62774E-01-1.75994E-02
 -1       218 4.75043E-08 2.09662E-01 5.81379E-04
 -1       219-9.12095E-08 3.60580E-01-3.01233E-02
 -1       220-6.47933E-08 3.62774E-01-1.75995E-02
 -1       221 9.10244E-14 2.09662E-01 5.81316E-04
 -1       222 1.45095E-13 3.60580E-01-3.01232E-02
 -1       223-1.99713E-07 7.70936E-01-9.45034E-02
 -1       224 3.21255E-13 7.70935E-01-9.45032E-02
 -1       225 8.20943E-08 5.51099E-01-4.88647E-02
 -1       226-1.44026E-07 7.66702E-01-1.11660E-01
 -1       227-9.98557E-08 7.70936E-01-9.45033E-02
 -1       228 2.30630E-13 5.51099E-01-4.88648E-02
 -1       229 3.09468E-13 7.66701E-01-1.11660E-01
 -1       230-2.70197E-07 1.29110E+00-2.31170E-01
 -1       231 5.41578E-13 1.29110E+00-2.31170E-01
 -1       232 1.17632E-07 1.01869E+00-1.55187E-01
 -1       233-1.99617E-07 1.28468E+00-2.51965E-01
 -1       234-1.35093E-07 1.29110E+00-2.31170E-01
 -1       235 4.26558E-13 1.01869E+00-1.55188E-01
 -1       236 5.26876E-13 1.28468E+00-2.51965E-01
 -1       237-3.38284E-07 1.89768E+00-4.27869E-01
 -1       238 8.13852E-13 1.89768E+00-4.27869E-01
 -1       239 1.52590E-07 1.58501E+00-3.22214E-01
 -1       240-2.55783E-07 1.88917E+00-4.51446E-01
 -1       241-1.69151E-07 1.89768E+00-4.27869E-01
 -1       242 6.72364E-13 1.58501E+00-3.22214E-01
 -1       243 7.93967E-13 1.88917E+00-4.51446E-01
 -1       244-3.98166E-07 2.56907E+00-6.79595E-01
 -1       245 1.12301E-12 2.56906E+00-6.79594E-01
 -1       246 1.85727E-07 2.22645E+00-5.47296E-01
 -1       247-3.10064E-07 2.55870E+00-7.05236E-01
 -1       248-1.99037E-07 2.56907E+00-6.79595E-01
 -1       249 9.62012E-13 2.22645E+00-5.47296E-01
 -1       250 1.09918E-12 2.55870E+00-7.05236E-01
 -1       251-4.49392E-07 3.28738E+00-9.77995E-01
 -1       252 1.46159E-12 3.28737E+00-9.77995E-01
 -1       253 2.12501E-07 2.92332E+00-8.23551E-01
 -1       254-3.56695E-07 3.27551E+00-1.00511E+00
 -1       255-2.24845E-07 3.28737E+00-9.77995E-01
 -1       256 1.28370E-12 2.92332E+00-8.23551E-01
 -1       257 1.43531E-12 3.27551E+00-1.00511E+00
 -1       258-4.63617E-07 4.03788E+00-1.31273E+00
 -1       259 1.83135E-12 4.03788E+00-1.31273E+00
 -1       260 2.36974E-07 3.65939E+00-1.14150E+00
 -1       261-3.95768E-07 4.02491E+00-1.34083E+00
 -1       262-2.31237E-07 4.03788E+00-1.31273E+00
 -1       263 1.64530E-12 3.65940E+00-1.14150E+00
 -1       264 1.80247E-12 4.02491E+00-1.34083E+00
 -1       265-5.02297E-07 4.80824E+00-1.67236E+00
 -1       266 2.22888E-12 4.80824E+00-1.67236E+00
 -1       267 2.26637E-07 4.42125E+00-1.49015E+00
 -1       268-3.96526E-07 4.79460E+00-1.70101E+00
 -1       269-2.53188E-07 4.80824E+00-1.67236E+00
 -1       270 2.02873E-12 4.42125E+00-1.49015E+00
 -1       271 2.19755E-12 4.79459E+00-1.70101E+00
 -1       272-2.79279E-07 5.58768E+00-2.04489E+00
 -1       273 2.63342E-12 5.58767E+00-2.04489E+00
 -1       274 2.76663E-07 5.19742E+00-1.85775E+00
 -1       275-4.30197E-07 5.57380E+00-2.07373E+00
 -1       276-1.32203E-07 5.58767E+00-2.04489E+00
 -1       277 2.43501E-12 5.19742E+00-1.85775E+00
 -1       278 2.60221E-12 5.57380E+00-2.07373E+00
 -1       279 0.00000E+00 0.00000E+00 0.00000E+00
 -1       280 6.23873E-08 9.56066E-02 7.62533E-03
 -1       281 0.00000E+00 0.00000E+00 0.00000E+00
 -1       282 3.11932E-08 9.56065E-02 7.62537E-03
 -1       283 0.00000E+00 0.00000E+00 0.00000E+00
 -1       284-1.48932E-08 2.44917E-02 6.23515E-03
 -1       285 4.27424E-08 9.49716E-02 8.20781E-04
 -1       286 1.29589E-07 3.62774E-01-1.75996E-02
 -1       287 6.47936E-08 3.62774E-01-1.75995E-02
 -1       288-4.75041E-08 2.09662E-01 5.81379E-04
 -1       289 9.12098E-08 3.60580E-01-3.01233E-02
 -1       290 1.99713E-07 7.70936E-01-9.45034E-02
 -1       291 9.98563E-08 7.70936E-01-9.45033E-02
 -1       292-8.20938E-08 5.51099E-01-4.88647E-02
 -1       293 1.44027E-07 7.66702E-01-1.11660E-01
 -1       294 2.70198E-07 1.29110E+00-2.31170E-01
 -1       295 1.35094E-07 1.29110E+00-2.31170E-01
 -1       296-1.17631E-07 1.01869E+00-1.55187E-01
 -1       297 1.99618E-07 1.28468E+00-2.51965E-01
 -1       298 3.38286E-07 1.89768E+00-4.27869E-01
 -1       299 1.69152E-07 1.89768E+00-4.27869E-01
 -1       300-1.52588E-07 1.58501E+00-3.22214E-01
 -1       301 2.55785E-07 1.88917E+00-4.51446E-01
 -1       302 3.98169E-07 2.56907E+00-6.79595E-01
 -1       303 1.99039E-07 2.56907E+00-6.79595E-01
 -1       304-1.85725E-07 2.22645E+00-5.47296E-01
 -1       305 3.10066E-07 2.55870E+00-7.05236E-01
 -1       306 4.49395E-07 3.28738E+00-9.77995E-01
 -1       307 2.24848E-07 3.28737E+00-9.77995E-01
 -1       308-2.12498E-07 2.92332E+00-8.23551E-01
 -1       309 3.56698E-07 3.27551E+00-1.00511E+00
 -1       310 4.63621E-07 4.03788E+00-1.31273E+00
 -1       311 2.31241E-07 4.03788E+00-1.31273E+00
 -1       312-2.36970E-07 3.65939E+00-1.14150E+00
 -1       313 3.95771E-07 4.02491E+00-1.34083E+00
 -1       314 5.02302E-07 4.80824E+00-1.67236E+00
 -1       315 2.53192E-07 4.80824E+00-1.67236E+00
 -1       316-2.26633E-07 4.42125E+00-1.49015E+00
 -1       317 3.96530E-07 4.79460E+00-1.70101E+00
 -1       318 2.79284E-07 5.58768E+00-2.04489E+00
 -1       319 1.32208E-07 5.58767E+00-2.04489E+00
 -1       320-2.76658E-07 5.19742E+00-1.85775E+00
 -1       321 4.30202E-07 5.57380E+00-2.07373E+00
 -3
    1PSTEP                        10           5           1          
  100CL  105 2.50000E-01         321                     0    5           1
 -4  STRESS      6    1
 -5  SXX         1    4    1    1
 -5  SYY         1    4    2    2
 -5  SZZ         1    4    3    3
 -5  SXY         1    4    1    2
 -5  SYZ         1    4    2    3
 -5  SZX         1    4    3    1
 -1         1 5.20003E+01-9.80911E+03-1.44462E+06-4.24005E+01-2.54097E+03 2.44120E+01
 -1         2 2.19164E+01-1.78331E+04-1.61028E+04-1.33755E+01 5.04030E+03 1.52951E+01
 -1         3 2.21392E+00-7.60880E+03-1.47761E+04 1.32990E-01 8.33190E+03 1.79179E+00
 -1         4 2.53298E+00-3.82286E+04-1.22515E+06 9.75124E-01-2.36326E+05 3.53125E+00
 -1         5 5.20003E+01-9.75191E+03-1.44463E+06 1.77433E-07-2.53777E+03-2.45466E-07
 -1         6 2.19164E+01-1.78307E+04-1.61092E+04 1.01556E-07 5.05105E+03 9.59252E-09
 -1         7 2.20483E+00-7.60778E+03-1.47808E+04-8.10810E-08 8.33271E+03-4.76725E-09
 -1         8 2.51486E+00-3.82220E+04-1.22516E+06 3.36617E-08-2.36318E+05-4.88315E-07
 -1         9 3.69182E+01-1.32570E+04-7.30357E+05-2.20239E+01 1.95372E+03 1.95097E+01
 -1        10-1.18667E+00-7.65963E+03-1.47304E+04 5.09323E-02 5.90379E+03-7.63524E-01
 -1        11 2.37719E+00-2.29868E+04-6.19911E+05 4.69414E-01-1.14183E+05 2.33246E+00
 -1        12-1.29856E+00-1.90495E+04-1.33893E+06-3.15176E-01-1.22122E+05-1.65513E+00
 -1        13 5.20003E+01-9.78051E+03-1.44462E+06-4.76704E+01-2.53937E+03 2.22771E+01
 -1        14 2.19164E+01-1.78319E+04-1.61060E+04-1.26261E+01 5.04567E+03 1.41851E+01
 -1        15 2.20938E+00-7.60829E+03-1.47784E+04-3.95086E-01 8.33230E+03 5.13459E-01
 -1        16 2.52392E+00-3.82253E+04-1.22515E+06 3.69236E-02-2.36322E+05 1.21434E+00
 -1        17 3.69182E+01-1.32010E+04-7.30363E+05 1.76228E-07 1.95308E+03-1.22332E-07
 -1        18-1.19122E+00-7.65976E+03-1.47275E+04 9.64819E-09 5.90338E+03-1.64634E-09
 -1        19 2.36358E+00-2.29829E+04-6.19916E+05-2.05497E-08-1.14179E+05-2.17332E-07
 -1        20-1.30763E+00-1.90511E+04-1.33892E+06 5.84403E-08-1.22126E+05-3.82459E-07
 -1        21 1.93551E+00-1.32882E+03-1.23432E+04 5.83142E-01 5.58465E+03 2.06390E+00
 -1        22 2.51821E+00-1.25162E+05-9.63979E+05 1.58326E+00-3.52398E+05 3.66188E+00
 -1        23 1.93499E+00-1.32599E+03-1.23461E+04 4.03525E-07 5.58575E+03-3.09424E-08
 -1        24 2.51704E+00-1.25149E+05-9.63984E+05-2.96770E-07-3.52391E+05-3.63319E-07
 -1        25-1.02574E+00-5.14414E+03-1.31961E+04-1.76837E-01 6.52839E+03-1.00040E+00
 -1        26 2.23147E+00-6.33520E+04-4.88080E+05 9.58113E-01-1.73490E+05 2.60475E+00
 -1        27-1.24519E+00-8.37278E+04-1.09216E+06-6.55812E-01-2.95937E+05-1.83595E+00
 -1        28 1.93525E+00-1.32740E+03-1.23447E+04-4.72909E-01 5.58520E+03 6.90689E-01
 -1        29 2.51762E+00-1.25156E+05-9.63981E+05-2.64091E-01-3.52394E+05 1.26541E+00
 -1        30-1.03055E+00-5.14504E+03-1.31942E+04 1.02678E-07 6.52797E+03-1.81845E-08
 -1        31 2.23061E+00-6.33434E+04-4.88084E+05 1.34740E-07-1.73487E+05-1.93605E-07
 -1        32-1.25483E+00-8.37329E+04-1.09216E+06-2.39176E-07-2.95941E+05-4.15895E-07
 -1        33 1.68068E+00 1.48696E+03-1.04096E+04 8.50674E-01 4.41527E+03 1.99864E+00
 -1        34 2.63102E+00-1.99818E+05-7.21272E+05 1.84831E+00-3.82864E+05 3.45052E+00
 -1        35 1.68899E+00 1.49226E+03-1.04111E+04-1.93921E-07 4.41718E+03 3.20763E-08
 -1        36 2.64855E+00-1.99798E+05-7.21274E+05-1.94919E-08-3.82858E+05-6.78485E-07
 -1        37-9.06727E-01-7.64097E+02-1.11503E+04-3.88845E-01 4.78574E+03-1.04021E+00
 -1        38 2.15059E+00-9.92624E+04-3.65773E+05 1.19760E+00-1.89232E+05 2.53660E+00
 -1        39-1.27994E+00-1.64493E+05-8.40308E+05-9.05957E-01-3.67776E+05-1.79681E+00
 -1        40 1.68484E+00 1.48961E+03-1.04104E+04-6.90762E-01 4.41623E+03 6.74587E-01
 -1        41 2.63978E+00-1.99808E+05-7.21273E+05-7.74683E-01-3.82861E+05 1.11324E+00
 -1        42-9.02838E-01-7.66047E+02-1.11492E+04 9.25256E-08 4.78501E+03-2.57274E-08
 -1        43 2.16350E+00-9.92491E+04-3.65775E+05-4.40950E-07-1.89228E+05-1.77317E-07
 -1        44-1.27176E+00-1.64501E+05-8.40306E+05 1.98228E-07-3.67779E+05-4.60335E-07
 -1        45 1.35648E+00 3.82366E+03-8.41360E+03 9.69992E-01 3.08228E+03 1.68427E+00
 -1        46 2.66995E+00-2.43876E+05-5.20321E+05 1.90976E+00-3.58034E+05 3.10235E+00
 -1        47 1.36685E+00 3.83214E+03-8.41392E+03-4.18292E-07 3.08533E+03 1.20865E-07
 -1        48 2.64008E+00-2.43849E+05-5.20323E+05-1.97283E-06-3.58027E+05 3.54336E-07
 -1        49-7.69545E-01 1.78312E+03-9.43519E+03-4.37621E-01 3.71594E+03-9.40639E-01
 -1        50 2.04427E+00-1.20098E+05-2.64323E+05 1.27343E+00-1.77451E+05 2.28181E+00
 -1        51-1.35429E+00-2.23329E+05-6.19002E+05-9.10842E-01-3.69710E+05-1.63577E+00
 -1        52 1.36166E+00 3.82790E+03-8.41376E+03-1.07609E+00 3.08380E+03 4.85705E-01
 -1        53 2.65501E+00-2.43862E+05-5.20322E+05-1.61779E+00-3.58031E+05 8.66754E-01
 -1        54-7.60204E-01 1.77972E+03-9.43476E+03-7.67576E-08 3.71471E+03 2.05209E-07
 -1        55 2.03451E+00-1.20079E+05-2.64325E+05-9.21846E-07-1.77446E+05-1.07623E-07
 -1        56-1.36048E+00-2.23340E+05-6.19001E+05-8.66988E-07-3.69713E+05-3.78662E-07
 -1        57 8.40101E-01 5.26732E+03-6.74464E+03 2.70597E-01 2.16531E+03 1.25590E+00
 -1        58 2.80966E+00-2.53188E+05-3.64446E+05 7.94626E-01-3.05006E+05 2.56405E+00
 -1        59 8.83187E-01 5.28014E+03-6.74420E+03 9.92343E-07 2.16978E+03 9.31093E-08
 -1        60 2.98091E+00-2.53153E+05-3.64446E+05-2.49294E-06-3.04997E+05-4.24135E-07
 -1        61-5.84733E-01 3.69914E+03-7.78779E+03-4.99261E-01 2.69254E+03-7.27106E-01
 -1        62 1.72395E+00-1.24014E+05-1.85565E+05 3.47986E-01-1.51386E+05 1.85646E+00
 -1        63-1.32639E+00-2.49385E+05-4.41293E+05-9.58603E-01-3.30379E+05-1.45266E+00
 -1        64 8.61644E-01 5.27373E+03-6.74442E+03-1.84584E+00 2.16754E+03 2.83382E-01
 -1        65 2.89528E+00-2.53170E+05-3.64446E+05-2.66633E+00-3.05001E+05 4.66849E-01
 -1        66-5.58017E-01 3.69396E+03-7.78787E+03 5.87819E-07 2.69066E+03-6.42349E-08
 -1        67 1.83113E+00-1.23989E+05-1.85565E+05 7.85230E-07-1.51380E+05-2.27794E-07
 -1        68-1.25564E+00-2.49400E+05-4.41293E+05-1.41712E-06-3.30383E+05 1.91305E-07
 -1        69 1.03671E-01 6.24249E+03-5.35994E+03 8.05315E-01 1.51124E+03 4.12340E-01
 -1        70 2.07876E+00-2.32923E+05-2.47937E+05 2.00120E+00-2.41198E+05 2.61087E+00
 -1        71 8.06062E-02 6.25974E+03-5.35827E+03-1.59648E-06 1.51764E+03 5.01957E-07
 -1        72 1.50844E+00-2.32881E+05-2.47937E+05 1.01725E-06-2.41186E+05-3.67239E-07
 -1        73-2.44363E-01 4.95487E+03-6.42009E+03 2.60795E-01 1.93683E+03-5.18877E-01
 -1        74 1.47577E+00-1.13405E+05-1.26603E+05 1.24600E+00-1.19808E+05 1.59749E+00
 -1        75-1.46206E+00-2.43365E+05-3.05692E+05 1.99671E-01-2.71883E+05-1.11252E+00
 -1        76 9.21384E-02 6.25111E+03-5.35910E+03-2.48618E+00 1.51444E+03-4.26508E-01
 -1        77 1.79360E+00-2.32902E+05-2.47937E+05-4.56756E+00-2.41192E+05 3.85683E-01
 -1        78-2.34308E-01 4.94710E+03-6.42040E+03 1.52146E-07 1.93418E+03 1.23308E-07
 -1        79 1.17903E+00-1.13373E+05-1.26603E+05-1.43381E-06-1.19799E+05-1.11851E-07
 -1        80-1.66181E+00-2.43385E+05-3.05692E+05-1.72618E-06-2.71887E+05-3.20110E-07
 -1        81-1.17217E+00 6.88506E+03-4.30281E+03-5.18782E+00 1.11662E+03 5.46389E-01
 -1        82 3.55365E+00-1.90740E+05-1.61647E+05-8.04180E+00-1.76253E+05 2.89274E-01
 -1        83-9.41608E-01 6.91106E+03-4.30234E+03-4.89299E-07 1.12490E+03-1.94231E-07
 -1        84 5.78154E+00-1.90680E+05-1.61643E+05-1.57082E-07-1.76242E+05 8.71985E-08
 -1        85 1.16875E-01 5.78480E+03-5.32836E+03-1.00129E+00 1.37177E+03 1.28319E-01
 -1        86-1.99686E-01-9.19758E+04-8.29326E+04-6.96311E+00-8.75360E+04 3.68559E-01
 -1        87-7.18149E-01-2.11712E+05-2.04698E+05-2.11946E+00-2.07582E+05-1.45771E+00
 -1        88-1.05689E+00 6.89806E+03-4.30257E+03-4.98396E+00 1.12076E+03 3.40955E-01
 -1        89 4.66759E+00-1.90710E+05-1.61645E+05-5.23240E+00-1.76248E+05-1.15404E+00
 -1        90 2.20468E-01 5.77512E+03-5.32968E+03-1.35165E-06 1.36792E+03 1.05988E-07
 -1        91 1.02964E+00-9.19338E+04-8.29289E+04-1.66625E-07-8.75272E+04 1.43703E-07
 -1        92 1.11398E-01-2.11734E+05-2.04698E+05 5.79906E-07-2.07590E+05-9.64415E-08
 -1        93-2.64576E+00 7.31854E+03-3.55718E+03 1.02091E+01 9.37242E+02-4.06884E+00
 -1        94-3.64565E+00-1.33506E+05-9.68316E+04 2.18611E+01-1.14253E+05 7.50481E+00
 -1        95-3.11626E+00 7.34260E+03-3.54800E+03 1.16353E-07 9.50737E+02-1.26412E-06
 -1        96-1.19561E+01-1.33458E+05-9.68378E+04-6.41325E-06-1.14217E+05 5.24108E-07
 -1        97 1.16182E+00 6.29382E+03-4.52699E+03 6.20059E+00 9.67493E+02-6.84029E-01
 -1        98 2.00068E+00-6.32984E+04-5.00028E+04 1.63915E+01-5.65949E+04 2.58638E+00
 -1        99-2.49895E+00-1.61627E+05-1.29359E+05 1.00619E+01-1.44226E+05 1.05395E+00
 -1       100-2.88101E+00 7.33057E+03-3.55259E+03-2.62867E+00 9.43990E+02-5.06893E+00
 -1       101-7.80089E+00-1.33482E+05-9.68347E+04-1.23286E+01-1.14235E+05 2.68368E+00
 -1       102 1.04239E+00 6.27741E+03-4.52602E+03 1.56110E-07 9.63010E+02 3.43802E-07
 -1       103-2.39000E+00-6.32507E+04-5.00117E+04-3.19508E-06-5.65733E+04-1.09994E-07
 -1       104-5.54298E+00-1.61665E+05-1.29363E+05-1.88336E-06-1.44229E+05-6.56244E-07
 -1       105-5.23679E+00 7.64318E+03-3.09463E+03-5.59643E+01 9.28293E+02 8.44253E+00
 -1       106 1.88227E+01-6.87061E+04-4.42088E+04-1.01556E+02-5.53718E+04-2.23591E+01
 -1       107-3.80469E+00 7.70976E+03-3.11592E+03-1.36349E-06 9.38020E+02 4.72062E-07
 -1       108 5.02533E+01-6.85546E+04-4.41661E+04 1.17965E-05-5.54011E+04-1.07321E-07
 -1       109 1.09696E+00 6.56542E+03-4.01976E+03-1.62451E+01 6.85889E+02 4.83793E+00
 -1       110-1.22154E+01-3.03321E+04-2.38184E+04-8.14998E+01-2.72616E+04-8.92337E+00
 -1       111 4.92855E+00-1.00232E+05-7.07192E+04-3.12508E+01-8.38757E+04-8.09151E+00
 -1       112-4.52074E+00 7.67647E+03-3.10528E+03-1.96109E+01 9.33157E+02 1.22082E+01
 -1       113 3.45380E+01-6.86304E+04-4.41875E+04 1.71246E+00-5.53864E+04-1.41458E+01
 -1       114 1.57575E+00 6.55722E+03-4.03003E+03-4.22635E-07 6.76739E+02-2.76777E-07
 -1       115 4.21638E+00-3.02563E+04-2.37748E+04 5.30523E-06-2.72654E+04 5.76056E-07
 -1       116 1.64986E+01-1.00241E+05-7.07106E+04 1.71495E-06-8.39100E+04 4.06631E-07
 -1       117-1.35256E+01 2.70544E+03-6.56959E+03 2.28087E+02-3.07451E+03-7.19513E+01
 -1       118-1.71765E+02 6.83894E+03 5.89105E+03 4.06375E+02 5.53849E+03-1.15774E+01
 -1       119-1.59820E+01 2.15195E+03-6.47043E+03 5.21673E-06-3.23540E+03 1.83416E-07
 -1       120-2.90485E+02 5.41555E+03 5.78125E+03-9.81580E-06 5.40109E+03-2.41265E-06
 -1       121 5.61316E+00 6.65245E+03-3.74307E+03 7.22619E+01 4.67318E+02-1.34927E+01
 -1       122-2.18766E+01 5.31031E+03-8.04928E+02 3.30666E+02 1.08770E+03-2.93426E+01
 -1       123-1.96560E+01-3.07107E+04-2.29946E+04 1.30218E+02-2.67153E+04 2.87573E+01
 -1       124-1.47538E+01 2.42869E+03-6.52001E+03 1.36304E+02-3.15495E+03-6.19774E+01
 -1       125-2.31125E+02 6.12724E+03 5.83615E+03 1.10344E+02 5.46979E+03 1.50195E+01
 -1       126 5.10261E+00 6.59485E+03-3.71085E+03 7.78918E-07 4.66299E+02-5.69225E-07
 -1       127-8.24658E+01 4.39266E+03-9.23912E+02-2.80462E-06 9.37724E+02-8.28458E-07
 -1       128-6.33085E+01-3.08603E+04-2.30412E+04 2.57098E-07-2.66481E+04-6.80021E-07
 -1       129 5.20003E+01-9.80911E+03-1.44462E+06 4.24005E+01-2.54097E+03-2.44120E+01
 -1       130 2.19164E+01-1.78331E+04-1.61028E+04 1.33755E+01 5.04030E+03-1.52951E+01
 -1       131 2.21392E+00-7.60880E+03-1.47761E+04-1.32990E-01 8.33190E+03-1.79179E+00
 -1       132 2.53298E+00-3.82286E+04-1.22515E+06-9.75124E-01-2.36326E+05-3.53125E+00
 -1       133 5.20003E+01-9.78051E+03-1.44462E+06 4.76704E+01-2.53937E+03-2.22771E+01
 -1       134 2.19164E+01-1.78319E+04-1.61060E+04 1.26261E+01 5.04567E+03-1.41851E+01
 -1       135 2.20938E+00-7.60829E+03-1.47784E+04 3.95086E-01 8.33230E+03-5.13459E-01
 -1       136 2.52392E+00-3.82253E+04-1.22515E+06-3.69236E-02-2.36322E+05-1.21434E+00
 -1       137 3.69182E+01-1.32570E+04-7.30357E+05 2.20239E+01 1.95372E+03-1.95097E+01
 -1       138-1.18667E+00-7.65963E+03-1.47304E+04-5.09324E-02 5.90379E+03 7.63524E-01
 -1       139 2.37719E+00-2.29868E+04-6.19911E+05-4.69414E-01-1.14183E+05-2.33246E+00
 -1       140-1.29856E+00-1.90495E+04-1.33893E+06 3.15176E-01-1.22122E+05 1.65513E+00
 -1       141 1.93551E+00-1.32882E+03-1.23432E+04-5.83142E-01 5.58465E+03-2.06390E+00
 -1       142 2.51821E+00-1.25162E+05-9.63979E+05-1.58326E+00-3.52398E+05-3.66188E+00
 -1       143 1.93525E+00-1.32740E+03-1.23447E+04 4.72909E-01 5.58520E+03-6.90689E-01
 -1       144 2.51762E+00-1.25156E+05-9.63981E+05 2.64091E-01-3.52394E+05-1.26541E+00
 -1       145-1.02574E+00-5.14414E+03-1.31961E+04 1.76837E-01 6.52839E+03 1.00040E+00
 -1       146 2.23147E+00-6.33520E+04-4.88080E+05-9.58113E-01-1.73490E+05-2.60475E+00
 -1       147-1.24519E+00-8.37278E+04-1.09216E+06 6.55812E-01-2.95937E+05 1.83595E+00
 -1       148 1.68068E+00 1.48696E+03-1.04096E+04-8.50673E-01 4.41527E+03-1.99864E+00
 -1       149 2.63102E+00-1.99818E+05-7.21272E+05-1.84831E+00-3.82864E+05-3.45052E+00
 -1       150 1.68484E+00 1.48961E+03-1.04104E+04 6.90762E-01 4.41623E+03-6.74587E-01
 -1       151 2.63978E+00-1.99808E+05-7.21273E+05 7.74682E-01-3.82861E+05-1.11324E+00
 -1       152-9.06727E-01-7.64097E+02-1.11503E+04 3.88845E-01 4.78574E+03 1.04021E+00
 -1       153 2.15059E+00-9.92624E+04-3.65773E+05-1.19760E+00-1.89232E+05-2.53660E+00
 -1       154-1.27994E+00-1.64493E+05-8.40308E+05 9.05956E-01-3.67776E+05 1.79681E+00
 -1       155 1.35648E+00 3.82366E+03-8.41360E+03-9.69990E-01 3.08228E+03-1.68427E+00
 -1       156 2.66995E+00-2.43876E+05-5.20321E+05-1.90976E+00-3.58034E+05-3.10235E+00
 -1       157 1.36166E+00 3.82790E+03-8.41376E+03 1.07609E+00 3.08380E+03-4.85705E-01
 -1       158 2.65501E+00-2.43862E+05-5.20322E+05 1.61778E+00-3.58031E+05-8.66754E-01
 -1       159-7.69545E-01 1.78312E+03-9.43519E+03 4.37622E-01 3.71594E+03 9.40639E-01
 -1       160 2.04427E+00-1.20098E+05-2.64323E+05-1.27343E+00-1.77451E+05-2.28181E+00
 -1       161-1.35429E+00-2.23329E+05-6.19002E+05 9.10840E-01-3.69710E+05 1.63577E+00
 -1       162 8.40101E-01 5.26732E+03-6.74464E+03-2.70599E-01 2.16531E+03-1.25590E+00
 -1       163 2.80966E+00-2.53188E+05-3.64446E+05-7.94621E-01-3.05006E+05-2.56405E+00
 -1       164 8.61644E-01 5.27373E+03-6.74442E+03 1.84584E+00 2.16754E+03-2.83382E-01
 -1       165 2.89528E+00-2.53170E+05-3.64446E+05 2.66633E+00-3.05001E+05-4.66849E-01
 -1       166-5.84733E-01 3.69914E+03-7.78779E+03 4.99262E-01 2.69254E+03 7.27106E-01
 -1       167 1.72395E+00-1.24014E+05-1.85565E+05-3.47986E-01-1.51386E+05-1.85646E+00
 -1       168-1.32639E+00-2.49385E+05-4.41293E+05 9.58606E-01-3.30379E+05 1.45266E+00
 -1       169 1.03670E-01 6.24249E+03-5.35994E+03-8.05312E-01 1.51124E+03-4.12340E-01
 -1       170 2.07876E+00-2.32923E+05-2.47937E+05-2.00120E+00-2.41198E+05-2.61087E+00
 -1       171 9.21382E-02 6.25111E+03-5.35910E+03 2.48618E+00 1.51444E+03 4.26509E-01
 -1       172 1.79360E+00-2.32902E+05-2.47937E+05 4.56756E+00-2.41192E+05-3.85684E-01
 -1       173-2.44363E-01 4.95487E+03-6.42009E+03-2.60795E-01 1.93683E+03 5.18877E-01
 -1       174 1.47577E+00-1.13405E+05-1.26603E+05-1.24600E+00-1.19808E+05-1.59749E+00
 -1       175-1.46206E+00-2.43365E+05-3.05692E+05-1.99668E-01-2.71883E+05 1.11252E+00
 -1       176-1.17217E+00 6.88506E+03-4.30281E+03 5.18783E+00 1.11662E+03-5.46389E-01
 -1       177 3.55365E+00-1.90740E+05-1.61647E+05 8.04180E+00-1.76253E+05-2.89271E-01
 -1       178-1.05689E+00 6.89806E+03-4.30257E+03 4.98396E+00 1.12076E+03-3.40955E-01
 -1       179 4.66759E+00-1.90710E+05-1.61645E+05 5.23240E+00-1.76248E+05 1.15404E+00
 -1       180 1.16875E-01 5.78480E+03-5.32836E+03 1.00129E+00 1.37177E+03-1.28319E-01
 -1       181-1.99686E-01-9.19758E+04-8.29326E+04 6.96312E+00-8.75360E+04-3.68559E-01
 -1       182-7.18150E-01-2.11712E+05-2.04698E+05 2.11946E+00-2.07582E+05 1.45770E+00
 -1       183-2.64576E+00 7.31854E+03-3.55718E+03-1.02091E+01 9.37242E+02 4.06884E+00
 -1       184-3.64565E+00-1.33506E+05-9.68316E+04-2.18610E+01-1.14253E+05-7.50481E+00
 -1       185-2.88101E+00 7.33057E+03-3.55259E+03 2.62867E+00 9.43990E+02 5.06893E+00
 -1       186-7.80089E+00-1.33482E+05-9.68347E+04 1.23286E+01-1.14235E+05-2.68368E+00
 -1       187 1.16182E+00 6.29382E+03-4.52699E+03-6.20059E+00 9.67493E+02 6.84029E-01
 -1       188 2.00068E+00-6.32984E+04-5.00028E+04-1.63915E+01-5.65949E+04-2.58638E+00
 -1       189-2.49895E+00-1.61627E+05-1.29359E+05-1.00619E+01-1.44226E+05-1.05395E+00
 -1       190-5.23679E+00 7.64318E+03-3.09463E+03 5.59643E+01 9.28293E+02-8.44254E+00
 -1       191 1.88227E+01-6.87061E+04-4.42088E+04 1.01556E+02-5.53718E+04 2.23591E+01
 -1       192-4.52074E+00 7.67647E+03-3.10528E+03 1.96109E+01 9.33157E+02-1.22082E+01
 -1       193 3.45380E+01-6.86304E+04-4.41875E+04-1.71245E+00-5.53864E+04 1.41458E+01
 -1       194 1.09696E+00 6.56542E+03-4.01976E+03 1.62451E+01 6.85889E+02-4.83793E+00
 -1       195-1.22154E+01-3.03321E+04-2.38184E+04 8.14998E+01-2.72616E+04 8.92337E+00
 -1       196 4.92855E+00-1.00232E+05-7.07192E+04 3.12508E+01-8.38757E+04 8.09151E+00
 -1       197-1.35256E+01 2.70544E+03-6.56959E+03-2.28087E+02-3.07451E+03 7.19513E+01
 -1       198-1.71765E+02 6.83894E+03 5.89105E+03-4.06375E+02 5.53849E+03 1.15774E+01
 -1       199-1.47538E+01 2.42869E+03-6.52001E+03-1.36304E+02-3.15495E+03 6.19774E+01
 -1       200-2.31125E+02 6.12724E+03 5.83615E+03-1.10344E+02 5.46979E+03-1.50195E+01
 -1       201 5.61316E+00 6.65245E+03-3.74307E+03-7.22619E+01 4.67318E+02 1.34927E+01
 -1       202-2.18766E+01 5.31031E+03-8.04928E+02-3.30666E+02 1.08770E+03 2.93426E+01
 -1       203-1.96560E+01-3.07107E+04-2.29946E+04-1.30218E+02-2.67153E+04-2.87573E+01
 -1       204 6.07027E+01-2.60100E+04 1.47668E+06-6.13428E+01 1.38099E+04 5.36962E+01
 -1       205 1.61975E+00 4.09418E+04 1.24988E+06 4.51027E-01 2.43291E+05 2.84122E+00
 -1       206 6.07027E+01-2.60580E+04 1.47666E+06-9.15427E-09 1.38432E+04 2.54539E-07
 -1       207 1.62697E+00 4.09481E+04 1.24986E+06 1.69200E-07 2.43298E+05 5.23896E-07
 -1       208 4.13497E+01-2.24856E+04 7.30286E+05-4.32233E+01 8.72106E+03 3.48395E+01
 -1       209-9.40685E-01 1.24325E+04 1.36666E+06-9.94452E-02 1.29193E+05-1.35827E+00
 -1       210 1.91310E+00 1.67346E+04 6.17498E+05 3.76651E-01 1.25998E+05 2.64556E+00
 -1       211 6.07027E+01-2.60340E+04 1.47667E+06-5.50628E+01 1.38266E+04 5.01750E+01
 -1       212 1.62336E+00 4.09450E+04 1.24987E+06-8.42971E-01 2.43295E+05-6.34874E-01
 -1       213 4.13497E+01-2.25347E+04 7.30271E+05 9.46791E-09 8.75070E+03 1.36461E-07
 -1       214-9.37075E-01 1.24308E+04 1.36667E+06 4.89679E-08 1.29189E+05 3.68310E-07
 -1       215 1.91216E+00 1.67382E+04 6.17488E+05 4.08995E-08 1.26002E+05 2.30355E-07
 -1       216 9.93707E-01 1.27817E+05 9.80190E+05 8.24817E-01 3.62748E+05 2.72877E+00
 -1       217 1.00964E+00 1.27829E+05 9.80182E+05 1.56729E-07 3.62754E+05 4.29875E-07
 -1       218-6.68887E-01 8.46975E+04 1.11330E+06-3.58624E-01 3.03118E+05-1.43551E+00
 -1       219 1.46000E+00 6.33504E+04 4.83842E+05 8.29069E-01 1.84250E+05 2.65447E+00
 -1       220 1.00168E+00 1.27823E+05 9.80186E+05-1.52024E+00 3.62751E+05-4.43882E-01
 -1       221-6.57309E-01 8.46928E+04 1.11331E+06-4.45563E-09 3.03115E+05 4.43714E-07
 -1       222 1.46772E+00 6.33577E+04 4.83837E+05 1.98765E-07 1.84254E+05 1.95941E-07
 -1       223 1.75260E-01 2.05554E+05 7.32044E+05 6.97231E-01 3.91620E+05 2.11578E+00
 -1       224 1.82062E-01 2.05574E+05 7.32042E+05 2.82439E-07 3.91629E+05 6.66742E-07
 -1       225-3.18807E-01 1.66795E+05 8.54747E+05-4.51133E-01 3.76870E+05-1.24298E+00
 -1       226 9.33234E-01 1.03618E+05 3.60750E+05 9.25838E-01 1.98025E+05 2.24519E+00
 -1       227 1.78661E-01 2.05564E+05 7.32043E+05-2.35974E+00 3.91624E+05-5.30248E-01
 -1       228-3.07432E-01 1.66787E+05 8.54749E+05 4.91205E-07 3.76866E+05 4.90320E-07
 -1       229 9.40792E-01 1.03629E+05 3.60748E+05 3.78503E-07 1.98031E+05 2.03522E-07
 -1       230-8.44939E-01 2.50401E+05 5.27202E+05 1.31671E-01 3.65339E+05 1.13327E+00
 -1       231-7.64925E-01 2.50429E+05 5.27204E+05 1.18640E-06 3.65351E+05-1.50397E-07
 -1       232 1.47747E-01 2.27779E+05 6.28753E+05-2.10368E-01 3.78073E+05-8.20547E-01
 -1       233 2.24714E-01 1.27184E+05 2.59350E+05 7.17281E-01 1.84186E+05 1.52027E+00
 -1       234-8.04932E-01 2.50415E+05 5.27203E+05-3.52646E+00 3.65345E+05-8.77114E-01
 -1       235 1.91136E-01 2.27767E+05 6.28753E+05 7.08648E-07 3.78068E+05 2.08396E-07
 -1       236 2.69918E-01 1.27202E+05 2.59352E+05 1.10336E-07 1.84194E+05 3.30457E-07
 -1       237-2.38643E+00 2.59965E+05 3.69036E+05-1.85609E+00 3.10650E+05-3.40143E-01
 -1       238-2.52810E+00 2.60001E+05 3.69041E+05 5.83759E-07 3.10666E+05-2.71849E-07
 -1       239 7.01091E-01 2.54815E+05 4.47602E+05 1.22660E-01 3.37720E+05-2.69124E-01
 -1       240-6.72239E-01 1.32670E+05 1.81115E+05-6.08121E-01 1.56374E+05 5.11400E-01
 -1       241-2.45727E+00 2.59983E+05 3.69039E+05-4.97858E+00 3.10658E+05-1.63023E+00
 -1       242 6.70328E-01 2.54798E+05 4.47600E+05 1.11361E-06 3.37714E+05 2.91843E-07
 -1       243-7.21544E-01 1.32693E+05 1.81118E+05-7.47478E-07 1.56384E+05-2.70892E-08
 -1       244-3.95919E+00 2.39408E+05 2.51120E+05-2.06433E+00 2.45525E+05-1.58511E+00
 -1       245-3.22635E+00 2.39458E+05 2.51127E+05-1.24884E-06 2.45543E+05-2.91379E-08
 -1       246 1.69804E+00 2.49304E+05 3.09797E+05 1.81317E+00 2.78033E+05 6.76449E-01
 -1       247-2.31231E+00 1.22890E+05 1.22834E+05-4.72248E-01 1.23482E+05-6.72270E-01
 -1       248-3.59277E+00 2.39433E+05 2.51124E+05-7.33757E+00 2.45534E+05-2.23805E+00
 -1       249 1.99339E+00 2.49285E+05 3.09794E+05-1.75394E-06 2.78024E+05-2.13716E-07
 -1       250-1.95738E+00 1.22922E+05 1.22840E+05-2.78467E-07 1.23495E+05 4.15619E-07
 -1       251-8.18946E+00 1.96738E+05 1.63968E+05-1.33056E+01 1.79570E+05-5.54846E+00
 -1       252-1.05816E+01 1.96783E+05 1.63981E+05 2.90062E-06 1.79600E+05-4.63758E-07
 -1       253 2.24330E+00 2.17806E+05 2.07438E+05 2.57106E-01 2.12737E+05 9.06456E-01
 -1       254-3.29039E+00 1.01860E+05 7.97902E+04-8.89843E+00 9.03110E+04-2.45176E+00
 -1       255-9.38555E+00 1.96760E+05 1.63974E+05-8.96607E+00 1.79585E+05-4.94916E+00
 -1       256 1.41441E+00 2.17775E+05 2.07435E+05 2.72224E-06 2.12728E+05-3.28087E-07
 -1       257-4.37130E+00 1.01897E+05 7.97952E+04 1.04910E-06 9.03312E+04-5.26213E-07
 -1       258-6.85065E+00 1.38929E+05 9.85443E+04 1.24394E+01 1.16852E+05-1.55990E+00
 -1       259 2.25660E+00 1.39042E+05 9.85451E+04-2.58281E-06 1.16863E+05 8.36802E-07
 -1       260 6.12175E+00 1.67762E+05 1.31345E+05 1.33502E+01 1.48645E+05 4.89827E+00
 -1       261-9.89459E+00 7.33286E+04 4.73020E+04 1.09678E+01 5.88320E+04-3.68277E+00
 -1       262-2.29703E+00 1.38985E+05 9.85447E+04-1.58849E+01 1.16858E+05-1.42559E+00
 -1       263 9.47654E+00 1.67745E+05 1.31336E+05-8.00772E-07 1.48623E+05-6.87419E-08
 -1       264-5.57603E+00 7.33855E+04 4.73173E+04-1.18660E-06 5.88473E+04-4.73671E-07
 -1       265-3.18273E+01 7.35526E+04 4.54121E+04-1.06530E+02 5.74627E+04-3.03444E+01
 -1       266-6.44458E+01 7.34751E+04 4.54721E+04 4.96957E-06 5.75837E+04 1.81596E-06
 -1       267 5.51130E-02 1.06400E+05 7.23537E+04-2.64378E+01 8.78704E+04-3.94490E+00
 -1       268 4.76306E-01 4.03985E+04 2.13254E+04-7.85075E+01 2.92354E+04-8.98585E+00
 -1       269-4.81365E+01 7.35138E+04 4.54421E+04-7.58050E+00 5.75232E+04-2.35728E+01
 -1       270-1.16909E+01 1.06307E+05 7.23607E+04 2.41194E-06 8.78808E+04 5.40394E-07
 -1       271-1.51173E+01 4.04263E+04 2.13119E+04 1.71430E-06 2.92948E+04 7.50326E-07
 -1       272 1.29815E+02 9.15078E+03 1.91096E+03 5.26678E+02 5.57459E+03 7.60821E+01
 -1       273 2.48738E+02 8.64485E+03 1.70275E+03-5.94060E-06 4.72342E+03-3.80558E-06
 -1       274 3.49511E+01 3.70866E+04 2.46939E+04 1.35470E+02 3.04915E+04 3.69204E+01
 -1       275-1.26238E+01 5.38999E+03-1.86365E+03 3.63947E+02 1.39433E+03-1.03564E+01
 -1       276 1.89277E+02 8.89781E+03 1.80686E+03 2.13689E+02 5.14900E+03 8.99876E+01
 -1       277 7.80956E+01 3.72459E+04 2.46298E+04-1.49524E-06 3.03619E+04-1.49815E-07
 -1       278 4.56102E+01 4.78949E+03-1.80452E+03 1.43154E-07 8.89135E+02-2.09724E-06
 -1       279 6.07027E+01-2.60100E+04 1.47668E+06 6.13428E+01 1.38099E+04-5.36962E+01
 -1       280 1.61975E+00 4.09418E+04 1.24988E+06-4.51027E-01 2.43291E+05-2.84122E+00
 -1       281 6.07027E+01-2.60340E+04 1.47667E+06 5.50628E+01 1.38266E+04-5.01750E+01
 -1       282 1.62336E+00 4.09450E+04 1.24987E+06 8.42971E-01 2.43295E+05 6.34874E-01
 -1       283 4.13497E+01-2.24856E+04 7.30286E+05 4.32233E+01 8.72106E+03-3.48395E+01
 -1       284-9.40685E-01 1.24325E+04 1.36666E+06 9.94452E-02 1.29193E+05 1.35827E+00
 -1       285 1.91310E+00 1.67346E+04 6.17498E+05-3.76651E-01 1.25998E+05-2.64556E+00
 -1       286 9.93707E-01 1.27817E+05 9.80190E+05-8.24816E-01 3.62748E+05-2.72877E+00
 -1       287 1.00168E+00 1.27823E+05 9.80186E+05 1.52024E+00 3.62751E+05 4.43883E-01
 -1       288-6.68887E-01 8.46975E+04 1.11330E+06 3.58625E-01 3.03118E+05 1.43551E+00
 -1       289 1.46000E+00 6.33504E+04 4.83842E+05-8.29069E-01 1.84250E+05-2.65447E+00
 -1       290 1.75260E-01 2.05554E+05 7.32044E+05-6.97231E-01 3.91620E+05-2.11578E+00
 -1       291 1.78661E-01 2.05564E+05 7.32043E+05 2.35974E+00 3.91624E+05 5.30249E-01
 -1       292-3.18807E-01 1.66795E+05 8.54747E+05 4.51133E-01 3.76870E+05 1.24298E+00
 -1       293 9.33234E-01 1.03618E+05 3.60750E+05-9.25838E-01 1.98025E+05-2.24519E+00
 -1       294-8.44939E-01 2.50401E+05 5.27202E+05-1.31669E-01 3.65339E+05-1.13327E+00
 -1       295-8.04932E-01 2.50415E+05 5.27203E+05 3.52646E+00 3.65345E+05 8.77114E-01
 -1       296 1.47747E-01 2.27779E+05 6.28753E+05 2.10370E-01 3.78073E+05 8.20548E-01
 -1       297 2.24714E-01 1.27184E+05 2.59350E+05-7.17279E-01 1.84186E+05-1.52027E+00
 -1       298-2.38643E+00 2.59965E+05 3.69036E+05 1.85608E+00 3.10650E+05 3.40144E-01
 -1       299-2.45727E+00 2.59983E+05 3.69039E+05 4.97858E+00 3.10658E+05 1.63023E+00
 -1       300 7.01092E-01 2.54815E+05 4.47602E+05-1.22663E-01 3.37720E+05 2.69125E-01
 -1       301-6.72239E-01 1.32670E+05 1.81115E+05 6.08119E-01 1.56374E+05-5.11400E-01
 -1       302-3.95919E+00 2.39408E+05 2.51120E+05 2.06433E+00 2.45525E+05 1.58511E+00
 -1       303-3.59277E+00 2.39433E+05 2.51124E+05 7.33757E+00 2.45534E+05 2.23805E+00
 -1       304 1.69804E+00 2.49304E+05 3.09797E+05-1.81316E+00 2.78033E+05-6.76448E-01
 -1       305-2.31231E+00 1.22890E+05 1.22834E+05 4.72253E-01 1.23482E+05 6.72270E-01
 -1       306-8.18946E+00 1.96738E+05 1.63968E+05 1.33056E+01 1.79570E+05 5.54846E+00
 -1       307-9.38555E+00 1.96760E+05 1.63974E+05 8.96607E+00 1.79585E+05 4.94915E+00
 -1       308 2.24330E+00 2.17806E+05 2.07438E+05-2.57106E-01 2.12737E+05-9.06457E-01
 -1       309-3.29039E+00 1.01860E+05 7.97902E+04 8.89843E+00 9.03110E+04 2.45176E+00
 -1       310-6.85065E+00 1.38929E+05 9.85443E+04-1.24393E+01 1.16852E+05 1.55990E+00
 -1       311-2.29702E+00 1.38985E+05 9.85447E+04 1.58849E+01 1.16858E+05 1.42559E+00
 -1       312 6.12175E+00 1.67762E+05 1.31345E+05-1.33502E+01 1.48645E+05-4.89827E+00
 -1       313-9.89459E+00 7.33286E+04 4.73020E+04-1.09678E+01 5.88320E+04 3.68277E+00
 -1       314-3.18273E+01 7.35526E+04 4.54121E+04 1.06530E+02 5.74627E+04 3.03444E+01
 -1       315-4.81365E+01 7.35138E+04 4.54421E+04 7.58051E+00 5.75232E+04 2.35728E+01
 -1       316 5.51130E-02 1.06400E+05 7.23537E+04 2.64378E+01 8.78704E+04 3.94490E+00
 -1       317 4.76306E-01 4.03985E+04 2.13254E+04 7.85075E+01 2.92354E+04 8.98585E+00
 -1       318 1.29815E+02 9.15078E+03 1.91096E+03-5.26678E+02 5.57459E+03-7.60821E+01
 -1       319 1.89277E+02 8.89781E+03 1.80686E+03-2.13689E+02 5.14900E+03-8.99876E+01
 -1       320 3.49511E+01 3.70866E+04 2.46939E+04-1.35470E+02 3.04915E+04-3.69204E+01
 -1       321-1.26238E+01 5.38999E+03-1.86365E+03-3.63947E+02 1.39433E+03 1.03564E+01
 -3
    1PSTEP                        11           6           1          
  100CL  106 3.00000E-01         321                     0    6           1
 -4  DISP        4    1
 -5  D1          1    2    1    0
 -5  D2          1    2    2    0
 -5  D3          1    2    3    0
 -5  ALL         1    2    0    0    1ALL
 -1         1 0.00000E+00 0.00000E+00 0.00000E+00
 -1         2 0.00000E+00 0.00000E+00 0.00000E+00
 -1         3-3.08845E-08 1.06417E-01-7.61455E-03
 -1         4-7.14702E-08 1.04795E-01-2.29458E-02
 -1         5 0.00000E+00 0.00000E+00 0.00000E+00
 -1         6 0.00000E+00 0.00000E+00 0.00000E+00
 -1         7-2.37424E-14 1.06417E-01-7.61452E-03
 -1         8-1.91301E-14 1.04795E-01-2.29458E-02
 -1         9 0.00000E+00 0.00000E+00 0.00000E+00
 -1        10 6.61521E-09 2.72880E-02-1.03514E-03
 -1        11-5.11744E-08 1.05605E-01-1.52781E-02
 -1        12 1.66803E-08 2.68540E-02-8.98686E-03
 -1        13 0.00000E+00 0.00000E+00 0.00000E+00
 -1        14 0.00000E+00 0.00000E+00 0.00000E+00
 -1        15-1.54429E-08 1.06417E-01-7.61453E-03
 -1        16-3.57364E-08 1.04795E-01-2.29458E-02
 -1        17 0.00000E+00 0.00000E+00 0.00000E+00
 -1        18-5.78069E-15 2.72880E-02-1.03514E-03
 -1        19-2.14554E-14 1.05605E-01-1.52781E-02
 -1        20-3.74594E-15 2.68540E-02-8.98687E-03
 -1        21-6.99962E-08 4.02515E-01-5.39353E-02
 -1        22-1.52094E-07 3.96983E-01-8.19281E-02
 -1        23-9.30852E-14 4.02515E-01-5.39353E-02
 -1        24-8.40681E-14 3.96983E-01-8.19280E-02
 -1        25 2.42632E-08 2.33058E-01-2.41373E-02
 -1        26-1.11039E-07 3.99749E-01-6.79302E-02
 -1        27 5.47673E-08 2.29717E-01-4.61181E-02
 -1        28-3.49982E-08 4.02515E-01-5.39353E-02
 -1        29-7.60468E-08 3.96983E-01-8.19280E-02
 -1        30-5.28486E-14 2.33058E-01-2.41373E-02
 -1        31-8.84330E-14 3.99749E-01-6.79301E-02
 -1        32-4.61473E-14 2.29717E-01-4.61182E-02
 -1        33-1.16291E-07 8.51945E-01-1.61736E-01
 -1        34-2.41646E-07 8.41389E-01-1.99743E-01
 -1        35-1.99931E-13 8.51945E-01-1.61736E-01
 -1        36-1.86795E-13 8.41389E-01-1.99743E-01
 -1        37 4.57298E-08 6.10300E-01-9.93162E-02
 -1        38-1.78977E-07 8.46667E-01-1.80738E-01
 -1        39 9.73173E-08 6.02376E-01-1.32626E-01
 -1        40-5.81448E-08 8.51945E-01-1.61736E-01
 -1        41-1.20822E-07 8.41389E-01-1.99743E-01
 -1        42-1.42561E-13 6.10300E-01-9.93163E-02
 -1        43-1.93437E-13 8.46667E-01-1.80738E-01
 -1        44-1.32194E-13 6.02376E-01-1.32626E-01
 -1        45-1.68802E-07 1.42067E+00-3.40028E-01
 -1        46-3.40369E-07 1.40483E+00-3.85693E-01
 -1        47-3.41663E-13 1.42067E+00-3.40028E-01
 -1        48-3.22330E-13 1.40483E+00-3.85693E-01
 -1        49 7.05639E-08 1.12336E+00-2.41928E-01
 -1        50-2.54537E-07 1.41275E+00-3.62859E-01
 -1        51 1.44328E-07 1.11020E+00-2.84044E-01
 -1        52-8.44002E-08 1.42067E+00-3.40028E-01
 -1        53-1.70186E-07 1.40483E+00-3.85693E-01
 -1        54-2.67767E-13 1.12336E+00-2.41928E-01
 -1        55-3.31805E-13 1.41275E+00-3.62859E-01
 -1        56-2.53050E-13 1.11020E+00-2.84044E-01
 -1        57-2.26305E-07 2.07940E+00-5.88226E-01
 -1        58-4.47771E-07 2.05860E+00-6.39586E-01
 -1        59-5.08750E-13 2.07940E+00-5.88226E-01
 -1        60-4.89662E-13 2.05859E+00-6.39586E-01
 -1        61 9.82468E-08 1.74041E+00-4.55697E-01
 -1        62-3.37194E-07 2.06900E+00-6.13905E-01
 -1        63 1.96036E-07 1.72206E+00-5.04453E-01
 -1        64-1.13149E-07 2.07940E+00-5.88226E-01
 -1        65-2.23874E-07 2.05859E+00-6.39586E-01
 -1        66-4.22847E-13 1.74041E+00-4.55697E-01
 -1        67-4.98530E-13 2.06900E+00-6.13905E-01
 -1        68-4.04454E-13 1.72206E+00-5.04453E-01
 -1        69-2.86851E-07 2.80420E+00-8.99629E-01
 -1        70-5.64918E-07 2.77907E+00-9.55104E-01
 -1        71-6.90975E-13 2.80420E+00-8.99629E-01
 -1        72-6.73864E-13 2.77907E+00-9.55104E-01
 -1        73 1.28081E-07 2.43485E+00-7.36607E-01
 -1        74-4.25285E-07 2.79164E+00-9.27366E-01
 -1        75 2.51754E-07 2.41182E+00-7.90233E-01
 -1        76-1.43428E-07 2.80420E+00-8.99629E-01
 -1        77-2.82496E-07 2.77907E+00-9.55104E-01
 -1        78-5.95089E-13 2.43485E+00-7.36607E-01
 -1        79-6.82021E-13 2.79164E+00-9.27366E-01
 -1        80-5.79266E-13 2.41182E+00-7.90233E-01
 -1        81-3.47662E-07 3.57597E+00-1.26393E+00
 -1        82-6.84616E-07 3.54738E+00-1.32227E+00
 -1        83-8.86570E-13 3.57597E+00-1.26393E+00
 -1        84-8.70048E-13 3.54738E+00-1.32227E+00
 -1        85 1.58780E-07 3.18525E+00-1.07590E+00
 -1        86-5.18302E-07 3.56168E+00-1.29310E+00
 -1        87 3.13090E-07 3.15830E+00-1.13299E+00
 -1        88-1.73812E-07 3.57597E+00-1.26393E+00
 -1        89-3.42163E-07 3.54738E+00-1.32227E+00
 -1        90-7.92532E-13 3.18525E+00-1.07590E+00
 -1        91-8.76667E-13 3.56168E+00-1.29310E+00
 -1        92-7.78320E-13 3.15830E+00-1.13299E+00
 -1        93-4.03883E-07 4.37961E+00-1.66887E+00
 -1        94-8.25562E-07 4.34850E+00-1.72908E+00
 -1        95-1.07342E-12 4.37961E+00-1.66887E+00
 -1        96-1.06427E-12 4.34850E+00-1.72908E+00
 -1        97 1.88991E-07 3.97464E+00-1.46213E+00
 -1        98-6.06674E-07 4.36406E+00-1.69898E+00
 -1        99 3.71746E-07 3.94468E+00-1.52156E+00
 -1       100-2.01980E-07 4.37961E+00-1.66887E+00
 -1       101-4.13324E-07 4.34850E+00-1.72908E+00
 -1       102-9.75506E-13 3.97464E+00-1.46213E+00
 -1       103-1.06950E-12 4.36406E+00-1.69898E+00
 -1       104-9.63943E-13 3.94468E+00-1.52156E+00
 -1       105-4.50080E-07 5.20291E+00-2.10124E+00
 -1       106-9.07215E-07 5.17028E+00-2.16250E+00
 -1       107-1.25214E-12 5.20291E+00-2.10124E+00
 -1       108-1.24260E-12 5.17028E+00-2.16250E+00
 -1       109 2.14671E-07 4.78949E+00-1.88247E+00
 -1       110-7.08507E-07 5.18660E+00-2.13187E+00
 -1       111 4.53052E-07 4.75750E+00-1.94335E+00
 -1       112-2.24925E-07 5.20291E+00-2.10124E+00
 -1       113-4.51541E-07 5.17028E+00-2.16250E+00
 -1       114-1.16453E-12 4.78949E+00-1.88247E+00
 -1       115-1.24692E-12 5.18659E+00-2.13187E+00
 -1       116-1.15346E-12 4.75750E+00-1.94335E+00
 -1       117-4.75280E-07 6.03557E+00-2.54740E+00
 -1       118-1.20899E-06 6.00245E+00-2.60899E+00
 -1       119-1.43615E-12 6.03557E+00-2.54740E+00
 -1       120-1.44035E-12 6.00244E+00-2.60899E+00
 -1       121 2.36537E-07 5.61868E+00-2.32344E+00
 -1       122-7.30204E-07 6.01901E+00-2.57819E+00
 -1       123 4.56355E-07 5.58567E+00-2.38502E+00
 -1       124-2.37838E-07 6.03557E+00-2.54740E+00
 -1       125-6.12345E-07 6.00244E+00-2.60899E+00
 -1       126-1.33567E-12 5.61868E+00-2.32344E+00
 -1       127-1.43942E-12 6.01901E+00-2.57819E+00
 -1       128-1.32704E-12 5.58567E+00-2.38502E+00
 -1       129 0.00000E+00 0.00000E+00 0.00000E+00
 -1       130 0.00000E+00 0.00000E+00 0.00000E+00
 -1       131 3.08845E-08 1.06417E-01-7.61455E-03
 -1       132 7.14702E-08 1.04795E-01-2.29458E-02
 -1       133 0.00000E+00 0.00000E+00 0.00000E+00
 -1       134 0.00000E+00 0.00000E+00 0.00000E+00
 -1       135 1.54429E-08 1.06417E-01-7.61453E-03
 -1       136 3.57363E-08 1.04795E-01-2.29458E-02
 -1       137 0.00000E+00 0.00000E+00 0.00000E+00
 -1       138-6.61522E-09 2.72880E-02-1.03514E-03
 -1       139 5.11743E-08 1.05605E-01-1.52781E-02
 -1       140-1.66803E-08 2.68540E-02-8.98686E-03
 -1       141 6.99960E-08 4.02515E-01-5.39353E-02
 -1       142 1.52094E-07 3.96983E-01-8.19281E-02
 -1       143 3.49980E-08 4.02515E-01-5.39353E-02
 -1       144 7.60467E-08 3.96983E-01-8.19280E-02
 -1       145-2.42633E-08 2.33058E-01-2.41373E-02
 -1       146 1.11039E-07 3.99749E-01-6.79302E-02
 -1       147-5.47674E-08 2.29717E-01-4.61181E-02
 -1       148 1.16290E-07 8.51945E-01-1.61736E-01
 -1       149 2.41646E-07 8.41389E-01-1.99743E-01
 -1       150 5.81444E-08 8.51945E-01-1.61736E-01
 -1       151 1.20821E-07 8.41389E-01-1.99743E-01
 -1       152-4.57301E-08 6.10300E-01-9.93162E-02
 -1       153 1.78977E-07 8.46667E-01-1.80738E-01
 -1       154-9.73176E-08 6.02376E-01-1.32626E-01
 -1       155 1.68801E-07 1.42067E+00-3.40028E-01
 -1       156 3.40368E-07 1.40483E+00-3.85693E-01
 -1       157 8.43995E-08 1.42067E+00-3.40028E-01
 -1       158 1.70185E-07 1.40483E+00-3.85693E-01
 -1       159-7.05644E-08 1.12336E+00-2.41928E-01
 -1       160 2.54537E-07 1.41275E+00-3.62859E-01
 -1       161-1.44328E-07 1.11020E+00-2.84044E-01
 -1       162 2.26304E-07 2.07940E+00-5.88226E-01
 -1       163 4.47770E-07 2.05860E+00-6.39586E-01
 -1       164 1.13148E-07 2.07940E+00-5.88226E-01
 -1       165 2.23873E-07 2.05859E+00-6.39586E-01
 -1       166-9.82476E-08 1.74041E+00-4.55697E-01
 -1       167 3.37193E-07 2.06900E+00-6.13905E-01
 -1       168-1.96036E-07 1.72206E+00-5.04453E-01
 -1       169 2.86849E-07 2.80420E+00-8.99629E-01
 -1       170 5.64917E-07 2.77907E+00-9.55104E-01
 -1       171 1.43426E-07 2.80420E+00-8.99629E-01
 -1       172 2.82495E-07 2.77907E+00-9.55104E-01
 -1       173-1.28082E-07 2.43485E+00-7.36607E-01
 -1       174 4.25284E-07 2.79164E+00-9.27366E-01
 -1       175-2.51755E-07 2.41182E+00-7.90233E-01
 -1       176 3.47660E-07 3.57597E+00-1.26393E+00
 -1       177 6.84614E-07 3.54738E+00-1.32227E+00
 -1       178 1.73811E-07 3.57597E+00-1.26393E+00
 -1       179 3.42162E-07 3.54738E+00-1.32227E+00
 -1       180-1.58782E-07 3.18525E+00-1.07590E+00
 -1       181 5.18300E-07 3.56168E+00-1.29310E+00
 -1       182-3.13092E-07 3.15830E+00-1.13299E+00
 -1       183 4.03881E-07 4.37961E+00-1.66887E+00
 -1       184 8.25560E-07 4.34850E+00-1.72908E+00
 -1       185 2.01978E-07 4.37961E+00-1.66887E+00
 -1       186 4.13322E-07 4.34850E+00-1.72908E+00
 -1       187-1.88993E-07 3.97464E+00-1.46213E+00
 -1       188 6.06672E-07 4.36406E+00-1.69898E+00
 -1       189-3.71748E-07 3.94468E+00-1.52156E+00
 -1       190 4.50078E-07 5.20291E+00-2.10124E+00
 -1       191 9.07213E-07 5.17028E+00-2.16250E+00
 -1       192 2.24922E-07 5.20291E+00-2.10124E+00
 -1       193 4.51538E-07 5.17028E+00-2.16250E+00
 -1       194-2.14673E-07 4.78949E+00-1.88247E+00
 -1       195 7.08504E-07 5.18660E+00-2.13187E+00
 -1       196-4.53054E-07 4.75750E+00-1.94335E+00
 -1       197 4.75277E-07 6.03557E+00-2.54740E+00
 -1       198 1.20899E-06 6.00245E+00-2.60899E+00
 -1       199 2.37835E-07 6.03557E+00-2.54740E+00
 -1       200 6.12342E-07 6.00244E+00-2.60899E+00
 -1       201-2.36540E-07 5.61868E+00-2.32344E+00
 -1       202 7.30201E-07 6.01901E+00-2.57819E+00
 -1       203-4.56357E-07 5.58567E+00-2.38502E+00
 -1       204 0.00000E+00 0.00000E+00 0.00000E+00
 -1       205-8.08786E-08 1.08034E-01 7.70755E-03
 -1       206 0.00000E+00 0.00000E+00 0.00000E+00
 -1       207-2.77233E-14 1.08034E-01 7.70765E-03
 -1       208 0.00000E+00 0.00000E+00 0.00000E+00
 -1       209 1.94639E-08 2.77232E-02 6.92014E-03
 -1       210-5.58848E-08 1.07227E-01 4.44836E-05
 -1       211 0.00000E+00 0.00000E+00 0.00000E+00
 -1       212-4.04385E-08 1.08034E-01 7.70760E-03
 -1       213 0.00000E+00 0.00000E+00 0.00000E+00
 -1       214-7.93112E-15 2.77232E-02 6.92011E-03
 -1       215-2.57485E-14 1.07227E-01 4.45509E-05
 -1       216-1.67081E-07 4.08038E-01-2.59524E-02
 -1       217-1.01035E-13 4.08038E-01-2.59522E-02
 -1       218 6.14275E-08 2.36403E-01-2.15130E-03
 -1       219-1.18542E-07 4.05277E-01-3.99453E-02
 -1       220-8.35394E-08 4.08038E-01-2.59523E-02
 -1       221-5.98389E-14 2.36404E-01-2.15137E-03
 -1       222-9.69306E-14 4.05277E-01-3.99452E-02
 -1       223-2.56762E-07 8.62491E-01-1.23736E-01
 -1       224-2.11728E-13 8.62491E-01-1.23736E-01
 -1       225 1.05664E-07 6.18228E-01-6.60024E-02
 -1       226-1.86512E-07 8.57218E-01-1.42738E-01
 -1       227-1.28381E-07 8.62491E-01-1.23736E-01
 -1       228-1.53581E-13 6.18228E-01-6.60025E-02
 -1       229-2.05739E-13 8.57217E-01-1.42738E-01
 -1       230-3.47192E-07 1.43650E+00-2.94364E-01
 -1       231-3.58729E-13 1.43650E+00-2.94364E-01
 -1       232 1.51111E-07 1.13653E+00-1.99810E-01
 -1       233-2.58045E-07 1.42858E+00-3.17197E-01
 -1       234-1.73590E-07 1.43650E+00-2.94364E-01
 -1       235-2.82455E-13 1.13653E+00-1.99810E-01
 -1       236-3.49986E-13 1.42858E+00-3.17197E-01
 -1       237-4.35324E-07 2.10021E+00-5.36862E-01
 -1       238-5.25517E-13 2.10021E+00-5.36862E-01
 -1       239 1.96104E-07 1.75876E+00-4.06942E-01
 -1       240-3.30638E-07 2.08981E+00-5.62545E-01
 -1       241-2.17671E-07 2.10021E+00-5.36862E-01
 -1       242-4.42349E-13 1.75876E+00-4.06943E-01
 -1       243-5.16438E-13 2.08981E+00-5.62545E-01
 -1       244-5.14666E-07 2.82933E+00-8.44143E-01
 -1       245-7.04859E-13 2.82933E+00-8.44143E-01
 -1       246 2.39249E-07 2.45788E+00-6.82984E-01
 -1       247-4.01394E-07 2.81676E+00-8.71887E-01
 -1       248-2.57283E-07 2.82933E+00-8.44143E-01
 -1       249-6.12711E-13 2.45788E+00-6.82984E-01
 -1       250-6.97290E-13 2.81676E+00-8.71887E-01
 -1       251-5.84335E-07 3.60458E+00-1.20557E+00
 -1       252-9.01751E-13 3.60458E+00-1.20557E+00
 -1       253 2.75483E-07 3.21219E+00-1.01881E+00
 -1       254-4.63704E-07 3.59028E+00-1.23475E+00
 -1       255-2.92328E-07 3.60458E+00-1.20557E+00
 -1       256-8.07867E-13 3.21219E+00-1.01881E+00
 -1       257-8.92162E-13 3.59028E+00-1.23475E+00
 -1       258-6.13216E-07 4.41074E+00-1.60864E+00
 -1       259-1.08685E-12 4.41074E+00-1.60864E+00
 -1       260 3.08934E-07 4.00459E+00-1.40270E+00
 -1       261-5.16917E-07 4.39518E+00-1.63876E+00
 -1       262-3.05999E-07 4.41074E+00-1.60864E+00
 -1       263-9.86487E-13 4.00459E+00-1.40270E+00
 -1       264-1.08019E-12 4.39517E+00-1.63876E+00
 -1       265-6.65452E-07 5.23557E+00-2.03995E+00
 -1       266-1.25811E-12 5.23557E+00-2.03995E+00
 -1       267 3.04257E-07 4.82147E+00-1.82159E+00
 -1       268-5.27166E-07 5.21924E+00-2.07060E+00
 -1       269-3.34895E-07 5.23557E+00-2.03995E+00
 -1       270-1.17575E-12 4.82147E+00-1.82159E+00
 -1       271-1.25555E-12 5.21924E+00-2.07060E+00
 -1       272-4.35380E-07 6.06876E+00-2.48576E+00
 -1       273-1.43652E-12 6.06875E+00-2.48576E+00
 -1       274 3.62464E-07 5.65167E+00-2.26188E+00
 -1       275-5.68229E-07 6.05216E+00-2.51658E+00
 -1       276-2.09819E-07 6.06876E+00-2.48576E+00
 -1       277-1.34672E-12 5.65167E+00-2.26188E+00
 -1       278-1.43769E-12 6.05216E+00-2.51658E+00
 -1       279 0.00000E+00 0.00000E+00 0.00000E+00
 -1       280 8.08785E-08 1.08034E-01 7.70755E-03
 -1       281 0.00000E+00 0.00000E+00 0.00000E+00
 -1       282 4.04384E-08 1.08034E-01 7.70760E-03
 -1       283 0.00000E+00 0.00000E+00 0.00000E+00
 -1       284-1.94640E-08 2.77232E-02 6.92014E-03
 -1       285 5.58847E-08 1.07227E-01 4.44836E-05
 -1       286 1.67081E-07 4.08038E-01-2.59524E-02
 -1       287 8.35392E-08 4.08038E-01-2.59523E-02
 -1       288-6.14276E-08 2.36403E-01-2.15130E-03
 -1       289 1.18542E-07 4.05277E-01-3.99453E-02
 -1       290 2.56762E-07 8.62491E-01-1.23736E-01
 -1       291 1.28380E-07 8.62491E-01-1.23736E-01
 -1       292-1.05664E-07 6.18228E-01-6.60024E-02
 -1       293 1.86512E-07 8.57218E-01-1.42738E-01
 -1       294 3.47191E-07 1.43650E+00-2.94364E-01
 -1       295 1.73590E-07 1.43650E+00-2.94364E-01
 -1       296-1.51112E-07 1.13653E+00-1.99810E-01
 -1       297 2.58044E-07 1.42858E+00-3.17197E-01
 -1       298 4.35323E-07 2.10021E+00-5.36862E-01
 -1       299 2.17670E-07 2.10021E+00-5.36862E-01
 -1       300-1.96105E-07 1.75876E+00-4.06942E-01
 -1       301 3.30637E-07 2.08981E+00-5.62545E-01
 -1       302 5.14664E-07 2.82933E+00-8.44143E-01
 -1       303 2.57282E-07 2.82933E+00-8.44143E-01
 -1       304-2.39250E-07 2.45788E+00-6.82984E-01
 -1       305 4.01393E-07 2.81676E+00-8.71887E-01
 -1       306 5.84333E-07 3.60458E+00-1.20557E+00
 -1       307 2.92326E-07 3.60458E+00-1.20557E+00
 -1       308-2.75485E-07 3.21219E+00-1.01881E+00
 -1       309 4.63702E-07 3.59028E+00-1.23475E+00
 -1       310 6.13214E-07 4.41074E+00-1.60864E+00
 -1       311 3.05997E-07 4.41074E+00-1.60864E+00
 -1       312-3.08936E-07 4.00459E+00-1.40270E+00
 -1       313 5.16915E-07 4.39518E+00-1.63876E+00
 -1       314 6.65450E-07 5.23557E+00-2.03995E+00
 -1       315 3.34893E-07 5.23557E+00-2.03995E+00
 -1       316-3.04260E-07 4.82147E+00-1.82159E+00
 -1       317 5.27163E-07 5.21924E+00-2.07060E+00
 -1       318 4.35377E-07 6.06876E+00-2.48576E+00
 -1       319 2.09816E-07 6.06876E+00-2.48576E+00
 -1       320-3.62467E-07 5.65167E+00-2.26188E+00
 -1       321 5.68226E-07 6.05216E+00-2.51658E+00
 -3
    1PSTEP                        12           6           1          
  100CL  106 3.00000E-01         321                     0    6           1
 -4  STRESS      6    1
 -5  SXX         1    4    1    1
 -5  SYY         1    4    2    2
 -5  SZZ         1    4    3    3
 -5  SXY         1    4    1    2
 -5  SYZ         1    4    2    3
 -5  SZX         1    4    3    1
 -1         1 7.09106E+01-1.14400E+04-1.63329E+06-4.22940E+01-4.08542E+03 2.88334E+01
 -1         2 2.94282E+01-2.29465E+04-2.05903E+04-1.25025E+01 6.17933E+03 1.83535E+01
 -1         3 2.74343E+00-9.32157E+03-1.88315E+04 3.26681E-01 9.83539E+03 2.28298E+00
 -1         4 3.04138E+00-5.46222E+04-1.36221E+06 1.46834E+00-2.97910E+05 4.32597E+00
 -1         5 7.09105E+01-1.13761E+04-1.63330E+06-6.37149E-09-4.08258E+03 8.53212E-08
 -1         6 2.94282E+01-2.29436E+04-2.05979E+04 6.71559E-08 6.19180E+03 4.10126E-08
 -1         7 2.73362E+00-9.32058E+03-1.88371E+04-2.68854E-08 9.83577E+03 1.30624E-08
 -1         8 3.02090E+00-5.46142E+04-1.36222E+06 1.71302E-07-2.97903E+05 2.63184E-07
 -1         9 5.01096E+01-1.63583E+04-8.26945E+05-1.96765E+01 1.91790E+03 2.30797E+01
 -1        10-1.47017E+00-9.65084E+03-1.87825E+04 1.87301E-02 6.86914E+03-9.89992E-01
 -1        11 2.89762E+00-3.20809E+04-6.90442E+05 7.43244E-01-1.44289E+05 2.82774E+00
 -1        12-1.57411E+00-2.67288E+04-1.50343E+06-4.59523E-01-1.54889E+05-2.05856E+00
 -1        13 7.09106E+01-1.14081E+04-1.63329E+06-4.95846E+01-4.08400E+03 2.60005E+01
 -1        14 2.94282E+01-2.29450E+04-2.05941E+04-1.18177E+01 6.18556E+03 1.68752E+01
 -1        15 2.73853E+00-9.32108E+03-1.88343E+04-4.46612E-01 9.83558E+03 6.29061E-01
 -1        16 3.03114E+00-5.46182E+04-1.36221E+06 9.47619E-02-2.97906E+05 1.31466E+00
 -1        17 5.01096E+01-1.62958E+04-8.26952E+05-7.68440E-09 1.91649E+03 6.35457E-08
 -1        18-1.47507E+00-9.65091E+03-1.87790E+04 3.20229E-08 6.86896E+03 1.16726E-09
 -1        19 2.88246E+00-3.20762E+04-6.90448E+05 7.29547E-08-1.44285E+05 1.32733E-07
 -1        20-1.58436E+00-2.67307E+04-1.50343E+06 1.35106E-07-1.54894E+05 2.08694E-07
 -1        21 2.39380E+00-1.20898E+03-1.54524E+04 1.00940E+00 6.13048E+03 2.53663E+00
 -1        22 2.95808E+00-1.73886E+05-1.03637E+06 2.40570E+00-4.31152E+05 4.31234E+00
 -1        23 2.39278E+00-1.20577E+03-1.54555E+04-3.20386E-07 6.13131E+03 6.55386E-08
 -1        24 2.95985E+00-1.73870E+05-1.03638E+06-2.72191E-07-4.31145E+05 2.16041E-07
 -1        25-1.26905E+00-6.23734E+03-1.66169E+04-3.36661E-01 7.38282E+03-1.25455E+00
 -1        26 2.68182E+00-8.77080E+04-5.25792E+05 1.50263E+00-2.12606E+05 3.06254E+00
 -1        27-1.47979E+00-1.17365E+05-1.19550E+06-9.99880E-01-3.66611E+05-2.21342E+00
 -1        28 2.39329E+00-1.20738E+03-1.54540E+04-4.83905E-01 6.13090E+03 8.29847E-01
 -1        29 2.95896E+00-1.73878E+05-1.03637E+06-2.51797E-01-4.31149E+05 1.32073E+00
 -1        30-1.27446E+00-6.23830E+03-1.66148E+04-1.73262E-07 7.38260E+03-3.62463E-09
 -1        31 2.68217E+00-8.76976E+04-5.25796E+05-2.62100E-07-2.12603E+05 1.07998E-07
 -1        32-1.48914E+00-1.17371E+05-1.19550E+06-2.64228E-07-3.66614E+05 2.87857E-07
 -1        33 2.07205E+00 2.20776E+03-1.27063E+04 1.41127E+00 4.45553E+03 2.34897E+00
 -1        34 3.00790E+00-2.70073E+05-7.43377E+05 2.79955E+00-4.52258E+05 3.83797E+00
 -1        35 2.08289E+00 2.21415E+03-1.27076E+04 6.00707E-07 4.45739E+03-4.22335E-08
 -1        36 3.02981E+00-2.70049E+05-7.43380E+05-1.63641E-07-4.52252E+05 2.24378E-07
 -1        37-1.11893E+00-6.90030E+02-1.37428E+04-6.48692E-01 5.02693E+03-1.25132E+00
 -1        38 2.53486E+00-1.34065E+05-3.77955E+05 1.87320E+00-2.23890E+05 2.83906E+00
 -1        39-1.48493E+00-2.24815E+05-8.86459E+05-1.37230E+00-4.41543E+05-2.06039E+00
 -1        40 2.07747E+00 2.21096E+03-1.27070E+04-7.16740E-01 4.45646E+03 7.78343E-01
 -1        41 3.01886E+00-2.70061E+05-7.43378E+05-8.98620E-01-4.52255E+05 1.07430E+00
 -1        42-1.11403E+00-6.92310E+02-1.37418E+04 3.40051E-07 5.02627E+03 1.47621E-08
 -1        43 2.55122E+00-1.34048E+05-3.77957E+05 4.48029E-07-2.23887E+05 8.28671E-09
 -1        44-1.47309E+00-2.24825E+05-8.86457E+05-9.59414E-08-4.41547E+05 1.98951E-07
 -1        45 1.66357E+00 4.89805E+03-9.93621E+03 1.56008E+00 2.72358E+03 1.86912E+00
 -1        46 2.93546E+00-3.20752E+05-5.12118E+05 2.82967E+00-4.07681E+05 3.21066E+00
 -1        47 1.67708E+00 4.90864E+03-9.93627E+03 7.54222E-07 2.72680E+03 3.14126E-08
 -1        48 2.90973E+00-3.20719E+05-5.12118E+05 9.86661E-07-4.07673E+05 3.03215E-07
 -1        49-9.45973E-01 2.36496E+03-1.13316E+04-7.29975E-01 3.58766E+03-1.07548E+00
 -1        50 2.33396E+00-1.58012E+05-2.60983E+05 1.95353E+00-2.02429E+05 2.39463E+00
 -1        51-1.52387E+00-2.97276E+05-6.25367E+05-1.37993E+00-4.28598E+05-1.75527E+00
 -1        52 1.67032E+00 4.90335E+03-9.93624E+03-1.19202E+00 2.72519E+03 5.21479E-01
 -1        53 2.92259E+00-3.20736E+05-5.12118E+05-1.99026E+00-4.07677E+05 7.25991E-01
 -1        54-9.33795E-01 2.36078E+03-1.13313E+04 2.28950E-07 3.58639E+03-2.35998E-07
 -1        55 2.32784E+00-1.57989E+05-2.60984E+05 9.43520E-07-2.02424E+05 1.25979E-07
 -1        56-1.52580E+00-2.97290E+05-6.25366E+05 7.74888E-07-4.28601E+05 2.05394E-07
 -1        57 1.01417E+00 6.43705E+03-7.67129E+03 6.79331E-01 1.60864E+03 1.29135E+00
 -1        58 2.92687E+00-3.24805E+05-3.42401E+05 1.29726E+00-3.35134E+05 2.39966E+00
 -1        59 1.07117E+00 6.45329E+03-7.67056E+03 1.28979E-06 1.61339E+03 3.55890E-07
 -1        60 3.10936E+00-3.24761E+05-3.42401E+05-2.54679E-06-3.35125E+05-2.81516E-07
 -1        61-7.13798E-01 4.55572E+03-9.06978E+03-7.86548E-01 2.30199E+03-7.74763E-01
 -1        62 1.86198E+00-1.59238E+05-1.75014E+05 7.36838E-01-1.66707E+05 1.78686E+00
 -1        63-1.42228E+00-3.23634E+05-4.26034E+05-1.39186E+00-3.69638E+05-1.44033E+00
 -1        64 1.04267E+00 6.44517E+03-7.67093E+03-2.13846E+00 1.61102E+03 2.63060E-01
 -1        65 3.01812E+00-3.24783E+05-3.42401E+05-3.40244E+00-3.35129E+05 2.11666E-01
 -1        66-6.78557E-01 4.54918E+03-9.06999E+03 1.34866E-06 2.29998E+03 2.21798E-07
 -1        67 1.98175E+00-1.59207E+05-1.75014E+05-5.16760E-07-1.66701E+05-2.03067E-07
 -1        68-1.34383E+00-3.23652E+05-4.26035E+05-7.58823E-07-3.69642E+05-1.34957E-07
 -1        69 8.75999E-02 7.42175E+03-5.85089E+03 1.15857E+00 8.71173E+02 2.71662E-01
 -1        70 1.84919E+00-2.92463E+05-2.22946E+05 2.58932E+00-2.56538E+05 2.31279E+00
 -1        71 5.81821E-02 7.44398E+03-5.84899E+03-8.03060E-07 8.78096E+02 2.51489E-07
 -1        72 1.26386E+00-2.92409E+05-2.22945E+05 2.60189E-06-2.56525E+05 4.66315E-07
 -1        73-2.85707E-01 5.91219E+03-7.23335E+03 1.48262E-01 1.40950E+03-5.04388E-01
 -1        74 1.38220E+00-1.42586E+05-1.14358E+05 1.66264E+00-1.27776E+05 1.40310E+00
 -1        75-1.47149E+00-3.08723E+05-2.82321E+05 1.48744E-01-2.94134E+05-9.62396E-01
 -1        76 7.28910E-02 7.43286E+03-5.84994E+03-3.04957E+00 8.74635E+02-5.67871E-01
 -1        77 1.55653E+00-2.92436E+05-2.22946E+05-5.79320E+00-2.56531E+05 9.46074E-02
 -1        78-2.71865E-01 5.90232E+03-7.23380E+03-1.99276E-07 1.40670E+03 4.56790E-07
 -1        79 1.07477E+00-1.42545E+05-1.14358E+05 1.04012E-06-1.27768E+05 3.61299E-08
 -1        80-1.67316E+00-3.08748E+05-2.82322E+05-8.92989E-07-2.94139E+05 4.35699E-07
 -1        81-1.52210E+00 8.05242E+03-4.50953E+03-5.99646E+00 4.64893E+02 4.40536E-01
 -1        82 3.14232E+00-2.35375E+05-1.39840E+05-1.02639E+01-1.82320E+05-4.27303E-01
 -1        83-1.22005E+00 8.08538E+03-4.50878E+03-2.33525E-06 4.73380E+02 3.83029E-08
 -1        84 5.47286E+00-2.35299E+05-1.39835E+05 1.24901E-07-1.82308E+05 1.28072E-07
 -1        85 1.67405E-01 6.76554E+03-5.80335E+03-1.22343E+00 7.79794E+02 2.52564E-01
 -1        86-6.73919E-01-1.13708E+05-7.21349E+04-8.54367E+00-9.08786E+04 1.03350E-02
 -1        87-5.07344E-01-2.63476E+05-1.81577E+05-2.63539E+00-2.17969E+05-1.30926E+00
 -1        88-1.37107E+00 8.06890E+03-4.50915E+03-5.87427E+00 4.69137E+02 3.24869E-01
 -1        89 4.30759E+00-2.35337E+05-1.39838E+05-7.11269E+00-1.82314E+05-1.72666E+00
 -1        90 3.03541E-01 6.75291E+03-5.80475E+03-2.32720E-06 7.75576E+02 1.24024E-07
 -1        91 6.42502E-01-1.13655E+05-7.21304E+04 5.20717E-07-9.08696E+04-1.01174E-06
 -1        92 3.66120E-01-2.63504E+05-1.81578E+05 2.38517E-06-2.17978E+05 4.13792E-07
 -1        93-3.38811E+00 8.47717E+03-3.58880E+03 1.14874E+01 3.13903E+02-4.77901E+00
 -1        94-5.25045E+00-1.62628E+05-8.12884E+04 2.67309E+01-1.15719E+05 7.62558E+00
 -1        95-3.99496E+00 8.51047E+03-3.57967E+03 1.42629E-06 3.29640E+02-3.00278E-07
 -1        96-1.39506E+01-1.62562E+05-8.12934E+04-4.33523E-06-1.15678E+05-7.11167E-07
 -1        97 1.49159E+00 7.25330E+03-4.76866E+03 7.23318E+00 3.52617E+02-6.91724E-01
 -1        98 1.15398E+00-7.73060E+04-4.22206E+04 1.94920E+01-5.75843E+04 2.37366E+00
 -1        99-2.18897E+00-1.98130E+05-1.10993E+05 1.28066E+01-1.47811E+05 1.61817E+00
 -1       100-3.69154E+00 8.49382E+03-3.58424E+03-4.20781E+00 3.21771E+02-5.82707E+00
 -1       101-9.60055E+00-1.62595E+05-8.12909E+04-1.48508E+01-1.15698E+05 2.72018E+00
 -1       102 1.33982E+00 7.23287E+03-4.76788E+03 1.00840E-06 3.48302E+02 4.23264E-07
 -1       103-3.49978E+00-7.72424E+04-4.22311E+04-2.32238E-06-5.75626E+04 3.72777E-07
 -1       104-5.37685E+00-1.98178E+05-1.10997E+05-1.64366E-06-1.47814E+05-7.32500E-07
 -1       105-6.68499E+00 8.87201E+03-3.08305E+03-6.53750E+01 3.25644E+02 9.45551E+00
 -1       106 1.84442E+01-8.29033E+04-3.60057E+04-1.27980E+02-5.50147E+04-2.59915E+01
 -1       107-4.83188E+00 8.95036E+03-3.10351E+03-3.60610E-06 3.31385E+02-1.76399E-06
 -1       108 5.15504E+01-8.27182E+04-3.59648E+04 7.04042E-06-5.50530E+04 9.11979E-07
 -1       109 1.39769E+00 7.50312E+03-4.13229E+03-1.85028E+01 5.53907E+01 5.53600E+00
 -1       110-1.42723E+01-3.67836E+04-1.97375E+04-9.97536E+01-2.74325E+04-1.00197E+01
 -1       111 5.87049E+00-1.21473E+05-5.91374E+04-3.87896E+01-8.43444E+04-8.78028E+00
 -1       112-5.75844E+00 8.91119E+03-3.09328E+03-2.09124E+01 3.28515E+02 1.38060E+01
 -1       113 3.49973E+01-8.28107E+04-3.59852E+04-2.38825E+00-5.50338E+04-1.68199E+01
 -1       114 2.01858E+00 7.48960E+03-4.14238E+03-1.45146E-06 4.38758E+01-1.49642E-06
 -1       115 3.20787E+00-3.66925E+04-1.96871E+04 4.14118E-06-2.74334E+04-3.67758E-07
 -1       116 1.80847E+01-1.21490E+05-5.91297E+04-7.43428E-07-8.43845E+04-4.47199E-07
 -1       117-1.73172E+01 1.82216E+03-6.55262E+03 2.58132E+02-4.42021E+03-8.16595E+01
 -1       118-1.86693E+02 9.72935E+03 6.21334E+03 4.98219E+02 6.90903E+03-3.62232E+00
 -1       119-2.04717E+01 1.14185E+03-6.45464E+03 2.68969E-06-4.57254E+03 5.20237E-08
 -1       120-3.12314E+02 7.96197E+03 6.09747E+03-5.33356E-06 6.79781E+03-4.32558E-06
 -1       121 7.18188E+00 7.49689E+03-3.72012E+03 8.39038E+01-1.57043E+02-1.51816E+01
 -1       122-2.70644E+01 6.37886E+03-6.96149E+02 3.93265E+02 9.67620E+02-3.06672E+01
 -1       123-1.90539E+01-3.67428E+04-1.92795E+04 1.63913E+02-2.67754E+04 3.31735E+01
 -1       124-1.88945E+01 1.48201E+03-6.50363E+03 1.50262E+02-4.49638E+03-7.02505E+01
 -1       125-2.49503E+02 8.84566E+03 6.15540E+03 1.47529E+02 6.85342E+03 2.56729E+01
 -1       126 6.53293E+00 7.43290E+03-3.68861E+03-4.49126E-07-1.51856E+02-8.10052E-07
 -1       127-9.14537E+01 5.24678E+03-8.42294E+02-2.13016E-06 8.09409E+02-1.36461E-06
 -1       128-6.53202E+01-3.69171E+04-1.93245E+04 2.04126E-06-2.66917E+04-1.03536E-06
 -1       129 7.09106E+01-1.14400E+04-1.63329E+06 4.22940E+01-4.08542E+03-2.88334E+01
 -1       130 2.94282E+01-2.29465E+04-2.05903E+04 1.25025E+01 6.17933E+03-1.83535E+01
 -1       131 2.74343E+00-9.32157E+03-1.88315E+04-3.26681E-01 9.83539E+03-2.28298E+00
 -1       132 3.04138E+00-5.46222E+04-1.36221E+06-1.46834E+00-2.97910E+05-4.32597E+00
 -1       133 7.09106E+01-1.14081E+04-1.63329E+06 4.95846E+01-4.08400E+03-2.60005E+01
 -1       134 2.94282E+01-2.29450E+04-2.05941E+04 1.18177E+01 6.18556E+03-1.68752E+01
 -1       135 2.73853E+00-9.32108E+03-1.88343E+04 4.46612E-01 9.83558E+03-6.29061E-01
 -1       136 3.03114E+00-5.46182E+04-1.36221E+06-9.47617E-02-2.97906E+05-1.31466E+00
 -1       137 5.01096E+01-1.63583E+04-8.26945E+05 1.96765E+01 1.91790E+03-2.30797E+01
 -1       138-1.47017E+00-9.65084E+03-1.87825E+04-1.87302E-02 6.86914E+03 9.89992E-01
 -1       139 2.89762E+00-3.20809E+04-6.90442E+05-7.43244E-01-1.44289E+05-2.82774E+00
 -1       140-1.57411E+00-2.67288E+04-1.50343E+06 4.59524E-01-1.54889E+05 2.05856E+00
 -1       141 2.39380E+00-1.20898E+03-1.54524E+04-1.00940E+00 6.13048E+03-2.53663E+00
 -1       142 2.95808E+00-1.73886E+05-1.03637E+06-2.40569E+00-4.31152E+05-4.31234E+00
 -1       143 2.39329E+00-1.20738E+03-1.54540E+04 4.83905E-01 6.13090E+03-8.29847E-01
 -1       144 2.95896E+00-1.73878E+05-1.03637E+06 2.51797E-01-4.31149E+05-1.32073E+00
 -1       145-1.26905E+00-6.23734E+03-1.66169E+04 3.36661E-01 7.38282E+03 1.25455E+00
 -1       146 2.68182E+00-8.77080E+04-5.25792E+05-1.50263E+00-2.12606E+05-3.06254E+00
 -1       147-1.47979E+00-1.17365E+05-1.19550E+06 9.99881E-01-3.66611E+05 2.21342E+00
 -1       148 2.07205E+00 2.20776E+03-1.27063E+04-1.41127E+00 4.45553E+03-2.34897E+00
 -1       149 3.00790E+00-2.70073E+05-7.43377E+05-2.79955E+00-4.52258E+05-3.83797E+00
 -1       150 2.07747E+00 2.21096E+03-1.27070E+04 7.16739E-01 4.45646E+03-7.78342E-01
 -1       151 3.01886E+00-2.70061E+05-7.43378E+05 8.98622E-01-4.52255E+05-1.07430E+00
 -1       152-1.11893E+00-6.90030E+02-1.37428E+04 6.48690E-01 5.02693E+03 1.25132E+00
 -1       153 2.53486E+00-1.34065E+05-3.77955E+05-1.87320E+00-2.23890E+05-2.83906E+00
 -1       154-1.48493E+00-2.24815E+05-8.86459E+05 1.37231E+00-4.41543E+05 2.06039E+00
 -1       155 1.66357E+00 4.89805E+03-9.93621E+03-1.56008E+00 2.72358E+03-1.86912E+00
 -1       156 2.93546E+00-3.20752E+05-5.12118E+05-2.82968E+00-4.07681E+05-3.21066E+00
 -1       157 1.67032E+00 4.90335E+03-9.93624E+03 1.19202E+00 2.72519E+03-5.21479E-01
 -1       158 2.92259E+00-3.20736E+05-5.12118E+05 1.99025E+00-4.07677E+05-7.25990E-01
 -1       159-9.45973E-01 2.36496E+03-1.13316E+04 7.29973E-01 3.58766E+03 1.07548E+00
 -1       160 2.33396E+00-1.58012E+05-2.60983E+05-1.95353E+00-2.02429E+05-2.39463E+00
 -1       161-1.52387E+00-2.97276E+05-6.25367E+05 1.37993E+00-4.28598E+05 1.75527E+00
 -1       162 1.01417E+00 6.43705E+03-7.67129E+03-6.79335E-01 1.60864E+03-1.29135E+00
 -1       163 2.92687E+00-3.24805E+05-3.42401E+05-1.29725E+00-3.35134E+05-2.39966E+00
 -1       164 1.04267E+00 6.44517E+03-7.67093E+03 2.13846E+00 1.61102E+03-2.63060E-01
 -1       165 3.01812E+00-3.24783E+05-3.42401E+05 3.40244E+00-3.35129E+05-2.11666E-01
 -1       166-7.13798E-01 4.55572E+03-9.06978E+03 7.86546E-01 2.30199E+03 7.74763E-01
 -1       167 1.86198E+00-1.59238E+05-1.75014E+05-7.36837E-01-1.66707E+05-1.78686E+00
 -1       168-1.42228E+00-3.23634E+05-4.26034E+05 1.39187E+00-3.69638E+05 1.44033E+00
 -1       169 8.75999E-02 7.42175E+03-5.85089E+03-1.15857E+00 8.71173E+02-2.71661E-01
 -1       170 1.84919E+00-2.92463E+05-2.22946E+05-2.58932E+00-2.56538E+05-2.31279E+00
 -1       171 7.28910E-02 7.43286E+03-5.84994E+03 3.04957E+00 8.74635E+02 5.67871E-01
 -1       172 1.55653E+00-2.92436E+05-2.22946E+05 5.79320E+00-2.56531E+05-9.46080E-02
 -1       173-2.85707E-01 5.91219E+03-7.23335E+03-1.48263E-01 1.40950E+03 5.04388E-01
 -1       174 1.38220E+00-1.42586E+05-1.14358E+05-1.66264E+00-1.27776E+05-1.40310E+00
 -1       175-1.47149E+00-3.08723E+05-2.82321E+05-1.48740E-01-2.94134E+05 9.62397E-01
 -1       176-1.52210E+00 8.05242E+03-4.50953E+03 5.99646E+00 4.64893E+02-4.40536E-01
 -1       177 3.14232E+00-2.35375E+05-1.39840E+05 1.02639E+01-1.82320E+05 4.27305E-01
 -1       178-1.37107E+00 8.06890E+03-4.50915E+03 5.87427E+00 4.69137E+02-3.24869E-01
 -1       179 4.30759E+00-2.35337E+05-1.39838E+05 7.11269E+00-1.82314E+05 1.72667E+00
 -1       180 1.67405E-01 6.76554E+03-5.80335E+03 1.22344E+00 7.79794E+02-2.52564E-01
 -1       181-6.73919E-01-1.13708E+05-7.21349E+04 8.54367E+00-9.08786E+04-1.03340E-02
 -1       182-5.07345E-01-2.63476E+05-1.81577E+05 2.63539E+00-2.17969E+05 1.30926E+00
 -1       183-3.38811E+00 8.47717E+03-3.58880E+03-1.14874E+01 3.13903E+02 4.77901E+00
 -1       184-5.25045E+00-1.62628E+05-8.12884E+04-2.67309E+01-1.15719E+05-7.62558E+00
 -1       185-3.69154E+00 8.49382E+03-3.58424E+03 4.20781E+00 3.21771E+02 5.82707E+00
 -1       186-9.60054E+00-1.62595E+05-8.12909E+04 1.48508E+01-1.15698E+05-2.72018E+00
 -1       187 1.49159E+00 7.25330E+03-4.76866E+03-7.23318E+00 3.52617E+02 6.91723E-01
 -1       188 1.15398E+00-7.73060E+04-4.22206E+04-1.94920E+01-5.75843E+04-2.37366E+00
 -1       189-2.18897E+00-1.98130E+05-1.10993E+05-1.28066E+01-1.47811E+05-1.61817E+00
 -1       190-6.68499E+00 8.87201E+03-3.08305E+03 6.53750E+01 3.25644E+02-9.45551E+00
 -1       191 1.84442E+01-8.29033E+04-3.60057E+04 1.27980E+02-5.50147E+04 2.59915E+01
 -1       192-5.75844E+00 8.91119E+03-3.09328E+03 2.09124E+01 3.28515E+02-1.38060E+01
 -1       193 3.49973E+01-8.28107E+04-3.59852E+04 2.38825E+00-5.50338E+04 1.68199E+01
 -1       194 1.39769E+00 7.50312E+03-4.13229E+03 1.85028E+01 5.53907E+01-5.53600E+00
 -1       195-1.42723E+01-3.67836E+04-1.97375E+04 9.97536E+01-2.74325E+04 1.00197E+01
 -1       196 5.87049E+00-1.21473E+05-5.91374E+04 3.87896E+01-8.43444E+04 8.78028E+00
 -1       197-1.73172E+01 1.82216E+03-6.55262E+03-2.58132E+02-4.42021E+03 8.16595E+01
 -1       198-1.86693E+02 9.72935E+03 6.21334E+03-4.98219E+02 6.90903E+03 3.62231E+00
 -1       199-1.88945E+01 1.48201E+03-6.50363E+03-1.50262E+02-4.49638E+03 7.02505E+01
 -1       200-2.49503E+02 8.84566E+03 6.15540E+03-1.47529E+02 6.85342E+03-2.56729E+01
 -1       201 7.18188E+00 7.49689E+03-3.72012E+03-8.39038E+01-1.57043E+02 1.51816E+01
 -1       202-2.70644E+01 6.37886E+03-6.96149E+02-3.93265E+02 9.67620E+02 3.06672E+01
 -1       203-1.90539E+01-3.67428E+04-1.92795E+04-1.63913E+02-2.67754E+04-3.31735E+01
 -1       204 7.87771E+01-3.46945E+04 1.67423E+06-6.75910E+01 1.81923E+04 6.50939E+01
 -1       205 1.80256E+00 5.87031E+04 1.39297E+06 9.64048E-01 3.07688E+05 3.78814E+00
 -1       206 7.87771E+01-3.47470E+04 1.67420E+06 9.44741E-08 1.82309E+04-1.79889E-07
 -1       207 1.81574E+00 5.87106E+04 1.39295E+06 6.23542E-10 3.07694E+05-2.97476E-07
 -1       208 5.41625E+01-2.96554E+04 8.26824E+05-4.77685E+01 1.13149E+04 4.22375E+01
 -1       209-1.01442E+00 1.83673E+04 1.53867E+06-2.66966E-01 1.63897E+05-1.87572E+00
 -1       210 2.26778E+00 2.47997E+04 6.86992E+05 7.99634E-01 1.59013E+05 3.51230E+00
 -1       211 7.87771E+01-3.47208E+04 1.67421E+06-5.96576E+01 1.82116E+04 6.04497E+01
 -1       212 1.80915E+00 5.87069E+04 1.39296E+06-9.32024E-01 3.07691E+05-6.75458E-01
 -1       213 5.41625E+01-2.97094E+04 8.26806E+05 1.18892E-07 1.13495E+04-6.98169E-08
 -1       214-1.00783E+00 1.83653E+04 1.53868E+06-6.85151E-08 1.63893E+05-1.84959E-07
 -1       215 2.26948E+00 2.48038E+04 6.86979E+05-1.38772E-08 1.59016E+05-1.36816E-07
 -1       216 1.19384E+00 1.78376E+05 1.05551E+06 1.60245E+00 4.44765E+05 3.44125E+00
 -1       217 1.21384E+00 1.78391E+05 1.05550E+06-5.17052E-08 4.44771E+05-3.41979E-07
 -1       218-7.72471E-01 1.19145E+05 1.22162E+06-7.05676E-01 3.76306E+05-1.85567E+00
 -1       219 1.78795E+00 8.87439E+04 5.19910E+05 1.51084E+00 2.25543E+05 3.35088E+00
 -1       220 1.20384E+00 1.78383E+05 1.05551E+06-1.72012E+00 4.44768E+05-4.67391E-01
 -1       221-7.55883E-01 1.19139E+05 1.22163E+06-1.20011E-07 3.76303E+05-2.75228E-07
 -1       222 1.79745E+00 8.87526E+04 5.19904E+05-2.20234E-07 2.25547E+05-1.05428E-07
 -1       223 3.21900E-01 2.78553E+05 7.55465E+05 1.51887E+00 4.63348E+05 2.53836E+00
 -1       224 3.31822E-01 2.78577E+05 7.55463E+05-5.96652E-07 4.63357E+05-2.25340E-07
 -1       225-4.11530E-01 2.28639E+05 9.03528E+05-8.77864E-01 4.53435E+05-1.52462E+00
 -1       226 1.20210E+00 1.40512E+05 3.71293E+05 1.69728E+00 2.33891E+05 2.69808E+00
 -1       227 3.26861E-01 2.78565E+05 7.55464E+05-2.72048E+00 4.63353E+05-5.64552E-01
 -1       228-3.96564E-01 2.28629E+05 9.03531E+05-9.56286E-09 4.53431E+05-2.16267E-07
 -1       229 1.21248E+00 1.40527E+05 3.71292E+05-2.27468E-07 2.33897E+05-5.10016E-08
 -1       230-8.03177E-01 3.30025E+05 5.19500E+05 8.26131E-01 4.16554E+05 1.27510E+00
 -1       231-7.14276E-01 3.30060E+05 5.19502E+05-1.02586E-06 4.16566E+05-5.78450E-07
 -1       232 9.64931E-02 3.03929E+05 6.36346E+05-5.95560E-01 4.39227E+05-9.51438E-01
 -1       233 3.95747E-01 1.67547E+05 2.54738E+05 1.43445E+00 2.09588E+05 1.71737E+00
 -1       234-7.58727E-01 3.30043E+05 5.19501E+05-4.13233E+00 4.16560E+05-9.50267E-01
 -1       235 1.45881E-01 3.03914E+05 6.36346E+05-8.63855E-07 4.39222E+05-2.68057E-07
 -1       236 4.46971E-01 1.67569E+05 2.54740E+05-2.08900E-07 2.09597E+05-2.32184E-07
 -1       237-2.54093E+00 3.34134E+05 3.47232E+05-1.68023E+00 3.41758E+05-4.73037E-01
 -1       238-2.69057E+00 3.34181E+05 3.47238E+05 1.82121E-07 3.41775E+05-1.17915E-06
 -1       239 7.12927E-01 3.31463E+05 4.32760E+05-1.74764E-01 3.78684E+05-2.72011E-01
 -1       240-6.54835E-01 1.70340E+05 1.69758E+05-2.48993E-01 1.71628E+05 4.67801E-01
 -1       241-2.61575E+00 3.34158E+05 3.47235E+05-5.94258E+00 3.41766E+05-1.78751E+00
 -1       242 6.82633E-01 3.31442E+05 4.32758E+05-5.74791E-07 3.78677E+05-4.99051E-07
 -1       243-7.01179E-01 1.70370E+05 1.69762E+05 6.24214E-07 1.71640E+05-1.71374E-07
 -1       244-4.36798E+00 3.01220E+05 2.26318E+05-1.96958E+00 2.61504E+05-1.82877E+00
 -1       245-3.57550E+00 3.01284E+05 2.26325E+05-5.19368E-07 2.61523E+05 8.83719E-07
 -1       246 1.84365E+00 3.17073E+05 2.86467E+05 1.95540E+00 3.01507E+05 8.18244E-01
 -1       247-2.55399E+00 1.54386E+05 1.10193E+05-1.94201E-01 1.31131E+05-8.89432E-01
 -1       248-3.97174E+00 3.01252E+05 2.26321E+05-8.79624E+00 2.61513E+05-2.43219E+00
 -1       249 2.16480E+00 3.17048E+05 2.86463E+05-5.07868E-07 3.01497E+05-4.37174E-07
 -1       250-2.17240E+00 1.54427E+05 1.10199E+05-8.01919E-07 1.31145E+05 8.90376E-07
 -1       251-9.14377E+00 2.43379E+05 1.42370E+05-1.60926E+01 1.86091E+05-6.25883E+00
 -1       252-1.16998E+01 2.43441E+05 1.42383E+05 3.70520E-06 1.86126E+05-2.42358E-06
 -1       253 2.50271E+00 2.71907E+05 1.84212E+05 2.51921E-02 2.24016E+05 1.01789E+00
 -1       254-3.84890E+00 1.25763E+05 6.88903E+04-1.06310E+01 9.32294E+04-2.91286E+00
 -1       255-1.04218E+01 2.43410E+05 1.42376E+05-1.11533E+01 1.86108E+05-5.43769E+00
 -1       256 1.62184E+00 2.71868E+05 1.84209E+05 1.12029E-06 2.24007E+05-1.02984E-06
 -1       257-4.97603E+00 1.25811E+05 6.88953E+04-9.40912E-07 9.32517E+04-9.77105E-08
 -1       258-8.22428E+00 1.69852E+05 8.31982E+04 1.60972E+01 1.18668E+05-1.31970E+00
 -1       259 1.50908E+00 1.69988E+05 8.31992E+04-1.42667E-06 1.18674E+05 8.92976E-08
 -1       260 6.85957E+00 2.06543E+05 1.12836E+05 1.64328E+01 1.52913E+05 5.49107E+00
 -1       261-1.12795E+01 8.93952E+04 3.95867E+04 1.34095E+01 5.93731E+04-3.99973E+00
 -1       262-3.35760E+00 1.69920E+05 8.31987E+04-1.86818E+01 1.18671E+05-1.41071E+00
 -1       263 1.04451E+01 2.06518E+05 1.12827E+05 1.89470E-06 1.52887E+05-1.11693E-06
 -1       264-6.71595E+00 8.94661E+04 3.96044E+04 8.67725E-07 5.93903E+04-9.83990E-07
 -1       265-3.50855E+01 8.92774E+04 3.74556E+04-1.33032E+02 5.74203E+04-3.41790E+01
 -1       266-6.97472E+01 8.92181E+04 3.75154E+04 3.07370E-07 5.75748E+04 2.06936E-06
 -1       267 5.04740E-01 1.29867E+05 6.06634E+04-3.32837E+01 8.89283E+04-4.73040E+00
 -1       268-7.33301E-01 4.88427E+04 1.73794E+04-9.61274E+01 2.89610E+04-1.06100E+01
 -1       269-5.24163E+01 8.92478E+04 3.74855E+04-1.26707E+01 5.74976E+04-2.60512E+01
 -1       270-1.19487E+01 1.29760E+05 6.06704E+04 2.40070E-07 8.89470E+04 1.64563E-06
 -1       271-1.71382E+01 4.88928E+04 1.73589E+04-4.07339E-06 2.90257E+04 9.44395E-08
 -1       272 1.32886E+02 1.24715E+04 1.62653E+03 6.34647E+02 6.15057E+03 7.61138E+01
 -1       273 2.58784E+02 1.16701E+04 1.42313E+03-3.09758E-06 5.14769E+03 3.30918E-06
 -1       274 3.86624E+01 4.54745E+04 2.08419E+04 1.69254E+02 3.10542E+04 4.14700E+01
 -1       275-1.71564E+01 6.54371E+03-1.93654E+03 4.31299E+02 1.14197E+03-1.47466E+01
 -1       276 1.95835E+02 1.20708E+04 1.52483E+03 2.63860E+02 5.64913E+03 9.32339E+01
 -1       277 8.42724E+01 4.56291E+04 2.07772E+04-2.03694E-06 3.08843E+04 1.94293E-06
 -1       278 4.42170E+01 5.71110E+03-1.85204E+03 6.04282E-07 5.90799E+02 9.08436E-07
 -1       279 7.87771E+01-3.46945E+04 1.67423E+06 6.75910E+01 1.81923E+04-6.50939E+01
 -1       280 1.80256E+00 5.87031E+04 1.39297E+06-9.64049E-01 3.07688E+05-3.78814E+00
 -1       281 7.87771E+01-3.47208E+04 1.67421E+06 5.96576E+01 1.82116E+04-6.04497E+01
 -1       282 1.80915E+00 5.87069E+04 1.39296E+06 9.32024E-01 3.07691E+05 6.75458E-01
 -1       283 5.41625E+01-2.96554E+04 8.26824E+05 4.77685E+01 1.13149E+04-4.22375E+01
 -1       284-1.01442E+00 1.83673E+04 1.53867E+06 2.66966E-01 1.63897E+05 1.87572E+00
 -1       285 2.26778E+00 2.47997E+04 6.86992E+05-7.99634E-01 1.59013E+05-3.51230E+00
 -1       286 1.19384E+00 1.78376E+05 1.05551E+06-1.60245E+00 4.44765E+05-3.44125E+00
 -1       287 1.20384E+00 1.78383E+05 1.05551E+06 1.72012E+00 4.44768E+05 4.67390E-01
 -1       288-7.72471E-01 1.19145E+05 1.22162E+06 7.05677E-01 3.76306E+05 1.85567E+00
 -1       289 1.78795E+00 8.87439E+04 5.19910E+05-1.51084E+00 2.25543E+05-3.35088E+00
 -1       290 3.21899E-01 2.78553E+05 7.55465E+05-1.51887E+00 4.63348E+05-2.53836E+00
 -1       291 3.26861E-01 2.78565E+05 7.55464E+05 2.72048E+00 4.63353E+05 5.64552E-01
 -1       292-4.11530E-01 2.28639E+05 9.03528E+05 8.77864E-01 4.53435E+05 1.52462E+00
 -1       293 1.20210E+00 1.40512E+05 3.71293E+05-1.69728E+00 2.33891E+05-2.69808E+00
 -1       294-8.03177E-01 3.30025E+05 5.19500E+05-8.26129E-01 4.16554E+05-1.27510E+00
 -1       295-7.58726E-01 3.30043E+05 5.19501E+05 4.13233E+00 4.16560E+05 9.50266E-01
 -1       296 9.64930E-02 3.03929E+05 6.36346E+05 5.95561E-01 4.39227E+05 9.51438E-01
 -1       297 3.95747E-01 1.67547E+05 2.54738E+05-1.43445E+00 2.09588E+05-1.71737E+00
 -1       298-2.54093E+00 3.34134E+05 3.47232E+05 1.68023E+00 3.41758E+05 4.73038E-01
 -1       299-2.61575E+00 3.34158E+05 3.47235E+05 5.94258E+00 3.41766E+05 1.78751E+00
 -1       300 7.12927E-01 3.31463E+05 4.32760E+05 1.74763E-01 3.78684E+05 2.72011E-01
 -1       301-6.54835E-01 1.70340E+05 1.69758E+05 2.48991E-01 1.71628E+05-4.67800E-01
 -1       302-4.36798E+00 3.01220E+05 2.26318E+05 1.96958E+00 2.61504E+05 1.82877E+00
 -1       303-3.97174E+00 3.01252E+05 2.26321E+05 8.79624E+00 2.61513E+05 2.43219E+00
 -1       304 1.84365E+00 3.17073E+05 2.86467E+05-1.95540E+00 3.01507E+05-8.18245E-01
 -1       305-2.55399E+00 1.54386E+05 1.10193E+05 1.94203E-01 1.31131E+05 8.89430E-01
 -1       306-9.14377E+00 2.43379E+05 1.42370E+05 1.60926E+01 1.86091E+05 6.25882E+00
 -1       307-1.04218E+01 2.43410E+05 1.42376E+05 1.11533E+01 1.86108E+05 5.43769E+00
 -1       308 2.50271E+00 2.71907E+05 1.84212E+05-2.51981E-02 2.24016E+05-1.01789E+00
 -1       309-3.84890E+00 1.25763E+05 6.88903E+04 1.06310E+01 9.32294E+04 2.91286E+00
 -1       310-8.22428E+00 1.69852E+05 8.31982E+04-1.60972E+01 1.18668E+05 1.31970E+00
 -1       311-3.35760E+00 1.69920E+05 8.31987E+04 1.86818E+01 1.18671E+05 1.41071E+00
 -1       312 6.85957E+00 2.06543E+05 1.12836E+05-1.64328E+01 1.52913E+05-5.49107E+00
 -1       313-1.12795E+01 8.93952E+04 3.95867E+04-1.34095E+01 5.93731E+04 3.99973E+00
 -1       314-3.50854E+01 8.92774E+04 3.74556E+04 1.33032E+02 5.74203E+04 3.41790E+01
 -1       315-5.24163E+01 8.92478E+04 3.74855E+04 1.26707E+01 5.74976E+04 2.60512E+01
 -1       316 5.04741E-01 1.29867E+05 6.06634E+04 3.32838E+01 8.89283E+04 4.73040E+00
 -1       317-7.33301E-01 4.88427E+04 1.73794E+04 9.61274E+01 2.89610E+04 1.06100E+01
 -1       318 1.32886E+02 1.24715E+04 1.62653E+03-6.34647E+02 6.15057E+03-7.61138E+01
 -1       319 1.95835E+02 1.20708E+04 1.52483E+03-2.63860E+02 5.64913E+03-9.32339E+01
 -1       320 3.86624E+01 4.54745E+04 2.08419E+04-1.69254E+02 3.10542E+04-4.14700E+01
 -1       321-1.71564E+01 6.54371E+03-1.93654E+03-4.31299E+02 1.14197E+03 1.47466E+01
 -3
    1PSTEP                        13           7           1          
  100CL  107 3.50000E-01         321                     0    7           1
 -4  DISP        4    1
 -5  D1          1    2    1    0
 -5  D2          1    2    2    0
 -5  D3          1    2    3    0
 -5  ALL         1    2    0    0    1ALL
 -1         1 0.00000E+00 0.00000E+00 0.00000E+00
 -1         2 0.00000E+00 0.00000E+00 0.00000E+00
 -1         3-3.90880E-08 1.17119E-01-9.22799E-03
 -1         4-9.14869E-08 1.15155E-01-2.60733E-02
 -1         5 0.00000E+00 0.00000E+00 0.00000E+00
 -1         6 0.00000E+00 0.00000E+00 0.00000E+00
 -1         7 1.99444E-15 1.17119E-01-9.22796E-03
 -1         8 2.22606E-15 1.15155E-01-2.60732E-02
 -1         9 0.00000E+00 0.00000E+00 0.00000E+00
 -1        10 8.46207E-09 3.00808E-02-1.25680E-03
 -1        11-6.52844E-08 1.16136E-01-1.76482E-02
 -1        12 2.15176E-08 2.95545E-02-1.00145E-02
 -1        13 0.00000E+00 0.00000E+00 0.00000E+00
 -1        14 0.00000E+00 0.00000E+00 0.00000E+00
 -1        15-1.95446E-08 1.17119E-01-9.22798E-03
 -1        16-4.57448E-08 1.15155E-01-2.60732E-02
 -1        17 0.00000E+00 0.00000E+00 0.00000E+00
 -1        18 1.16300E-15 3.00808E-02-1.25681E-03
 -1        19 2.08070E-15 1.16136E-01-1.76482E-02
 -1        20 1.25445E-15 2.95545E-02-1.00145E-02
 -1        21-8.79125E-08 4.41087E-01-6.49332E-02
 -1        22-1.93373E-07 4.34458E-01-9.54519E-02
 -1        23 2.76626E-15 4.41087E-01-6.49331E-02
 -1        24 3.13437E-15 4.34458E-01-9.54518E-02
 -1        25 3.06198E-08 2.55986E-01-2.91606E-02
 -1        26-1.40637E-07 4.37773E-01-8.01908E-02
 -1        27 6.99463E-08 2.51965E-01-5.32195E-02
 -1        28-4.39563E-08 4.41087E-01-6.49332E-02
 -1        29-9.66863E-08 4.34458E-01-9.54518E-02
 -1        30 2.51534E-15 2.55986E-01-2.91607E-02
 -1        31 3.08167E-15 4.37773E-01-8.01907E-02
 -1        32 2.94729E-15 2.51965E-01-5.32195E-02
 -1        33-1.45208E-07 9.28922E-01-1.93327E-01
 -1        34-3.05281E-07 9.16404E-01-2.34413E-01
 -1        35 3.31280E-15 9.28922E-01-1.93327E-01
 -1        36 4.06949E-15 9.16404E-01-2.34413E-01
 -1        37 5.72891E-08 6.67141E-01-1.19142E-01
 -1        38-2.25254E-07 9.22663E-01-2.13868E-01
 -1        39 1.23420E-07 6.57700E-01-1.55307E-01
 -1        40-7.26033E-08 9.28922E-01-1.93327E-01
 -1        41-1.52639E-07 9.16404E-01-2.34413E-01
 -1        42 2.79630E-15 6.67141E-01-1.19142E-01
 -1        43 3.46684E-15 9.22663E-01-2.13868E-01
 -1        44 3.40401E-15 6.57700E-01-1.55307E-01
 -1        45-2.09809E-07 1.54115E+00-4.03620E-01
 -1        46-4.27281E-07 1.52255E+00-4.52580E-01
 -1        47-9.21168E-16 1.54115E+00-4.03619E-01
 -1        48 1.47654E-15 1.52255E+00-4.52580E-01
 -1        49 8.79232E-08 1.22173E+00-2.88163E-01
 -1        50-3.18493E-07 1.53185E+00-4.28098E-01
 -1        51 1.81863E-07 1.20620E+00-3.33507E-01
 -1        52-1.04903E-07 1.54115E+00-4.03620E-01
 -1        53-2.13642E-07 1.52255E+00-4.52580E-01
 -1        54 7.34649E-16 1.22173E+00-2.88163E-01
 -1        55 2.08763E-16 1.53185E+00-4.28098E-01
 -1        56 2.67396E-15 1.20620E+00-3.33507E-01
 -1        57-2.80245E-07 2.24480E+00-6.93745E-01
 -1        58-5.58537E-07 2.22057E+00-7.48407E-01
 -1        59-6.47909E-15 2.24480E+00-6.93745E-01
 -1        60-6.77418E-15 2.22057E+00-7.48406E-01
 -1        61 1.21897E-07 1.88334E+00-5.39137E-01
 -1        62-4.19553E-07 2.23268E+00-7.21075E-01
 -1        63 2.45414E-07 1.86189E+00-5.91221E-01
 -1        64-1.40118E-07 2.24480E+00-6.93745E-01
 -1        65-2.79257E-07 2.22057E+00-7.48407E-01
 -1        66-5.55073E-15 1.88334E+00-5.39137E-01
 -1        67-6.34939E-15 2.23268E+00-7.21075E-01
 -1        68-4.46263E-15 1.86189E+00-5.91221E-01
 -1        69-3.54185E-07 3.01379E+00-1.05492E+00
 -1        70-6.99667E-07 2.98475E+00-1.11360E+00
 -1        71-2.94995E-15 3.01379E+00-1.05492E+00
 -1        72-6.36945E-15 2.98475E+00-1.11360E+00
 -1        73 1.58377E-07 2.62251E+00-8.66164E-01
 -1        74-5.26300E-07 2.99927E+00-1.08426E+00
 -1        75 3.13150E-07 2.59580E+00-9.23063E-01
 -1        76-1.77095E-07 3.01379E+00-1.05492E+00
 -1        77-3.49870E-07 2.98475E+00-1.11360E+00
 -1        78-2.59780E-15 2.62251E+00-8.66164E-01
 -1        79-4.72849E-15 2.99927E+00-1.08426E+00
 -1        80-1.80683E-15 2.59580E+00-9.23063E-01
 -1        81-4.28298E-07 3.82814E+00-1.47476E+00
 -1        82-8.42328E-07 3.79527E+00-1.53617E+00
 -1        83-2.33852E-14 3.82814E+00-1.47476E+00
 -1        84-2.52527E-14 3.79527E+00-1.53617E+00
 -1        85 1.95822E-07 3.41635E+00-1.25836E+00
 -1        86-6.37553E-07 3.81171E+00-1.50547E+00
 -1        87 3.86427E-07 3.38529E+00-1.31859E+00
 -1        88-2.14126E-07 3.82814E+00-1.47476E+00
 -1        89-4.21016E-07 3.79527E+00-1.53617E+00
 -1        90-2.36811E-14 3.41635E+00-1.25836E+00
 -1        91-2.29115E-14 3.81170E+00-1.50547E+00
 -1        92-2.45930E-14 3.38529E+00-1.31859E+00
 -1        93-4.96755E-07 4.67258E+00-1.93919E+00
 -1        94-1.00484E-06 4.63697E+00-2.00235E+00
 -1        95-3.40750E-14 4.67258E+00-1.93919E+00
 -1        96-4.62601E-14 4.63697E+00-2.00235E+00
 -1        97 2.32614E-07 4.24741E+00-1.70230E+00
 -1        98-7.42473E-07 4.65478E+00-1.97077E+00
 -1        99 4.56180E-07 4.21305E+00-1.76476E+00
 -1       100-2.48424E-07 4.67258E+00-1.93919E+00
 -1       101-5.02973E-07 4.63697E+00-2.00235E+00
 -1       102-3.01837E-14 4.24741E+00-1.70230E+00
 -1       103-4.05368E-14 4.65478E+00-1.97077E+00
 -1       104-3.27146E-14 4.21305E+00-1.76476E+00
 -1       105-5.52989E-07 5.53530E+00-2.43346E+00
 -1       106-1.10208E-06 5.49805E+00-2.49759E+00
 -1       107-3.56213E-14 5.53530E+00-2.43346E+00
 -1       108-5.29028E-14 5.49804E+00-2.49759E+00
 -1       109 2.63872E-07 5.10231E+00-2.18351E+00
 -1       110-8.58348E-07 5.51667E+00-2.46553E+00
 -1       111 5.47725E-07 5.06574E+00-2.24731E+00
 -1       112-2.76352E-07 5.53530E+00-2.43346E+00
 -1       113-5.48918E-07 5.49804E+00-2.49759E+00
 -1       114-3.26906E-14 5.10231E+00-2.18351E+00
 -1       115-4.46133E-14 5.51667E+00-2.46553E+00
 -1       116-4.36320E-14 5.06574E+00-2.24731E+00
 -1       117-5.83706E-07 6.40663E+00-2.94267E+00
 -1       118-1.42072E-06 6.36884E+00-3.00710E+00
 -1       119-2.80278E-14 6.40663E+00-2.94267E+00
 -1       120-4.32602E-14 6.36883E+00-3.00710E+00
 -1       121 2.90507E-07 5.97046E+00-2.68712E+00
 -1       122-8.86673E-07 6.38773E+00-2.97489E+00
 -1       123 5.57033E-07 5.93278E+00-2.75156E+00
 -1       124-2.92095E-07 6.40663E+00-2.94267E+00
 -1       125-7.18460E-07 6.36884E+00-3.00710E+00
 -1       126-2.48906E-14 5.97046E+00-2.68712E+00
 -1       127-3.59124E-14 6.38773E+00-2.97489E+00
 -1       128-2.96401E-14 5.93278E+00-2.75156E+00
 -1       129 0.00000E+00 0.00000E+00 0.00000E+00
 -1       130 0.00000E+00 0.00000E+00 0.00000E+00
 -1       131 3.90880E-08 1.17119E-01-9.22799E-03
 -1       132 9.14869E-08 1.15155E-01-2.60733E-02
 -1       133 0.00000E+00 0.00000E+00 0.00000E+00
 -1       134 0.00000E+00 0.00000E+00 0.00000E+00
 -1       135 1.95446E-08 1.17119E-01-9.22798E-03
 -1       136 4.57448E-08 1.15155E-01-2.60732E-02
 -1       137 0.00000E+00 0.00000E+00 0.00000E+00
 -1       138-8.46206E-09 3.00808E-02-1.25680E-03
 -1       139 6.52844E-08 1.16136E-01-1.76482E-02
 -1       140-2.15176E-08 2.95545E-02-1.00145E-02
 -1       141 8.79125E-08 4.41087E-01-6.49332E-02
 -1       142 1.93373E-07 4.34458E-01-9.54519E-02
 -1       143 4.39563E-08 4.41087E-01-6.49332E-02
 -1       144 9.66863E-08 4.34458E-01-9.54518E-02
 -1       145-3.06198E-08 2.55986E-01-2.91606E-02
 -1       146 1.40637E-07 4.37773E-01-8.01908E-02
 -1       147-6.99463E-08 2.51965E-01-5.32195E-02
 -1       148 1.45208E-07 9.28922E-01-1.93327E-01
 -1       149 3.05281E-07 9.16404E-01-2.34413E-01
 -1       150 7.26033E-08 9.28922E-01-1.93327E-01
 -1       151 1.52639E-07 9.16404E-01-2.34413E-01
 -1       152-5.72891E-08 6.67141E-01-1.19142E-01
 -1       153 2.25254E-07 9.22663E-01-2.13868E-01
 -1       154-1.23420E-07 6.57700E-01-1.55307E-01
 -1       155 2.09809E-07 1.54115E+00-4.03620E-01
 -1       156 4.27281E-07 1.52255E+00-4.52580E-01
 -1       157 1.04903E-07 1.54115E+00-4.03620E-01
 -1       158 2.13642E-07 1.52255E+00-4.52580E-01
 -1       159-8.79232E-08 1.22173E+00-2.88163E-01
 -1       160 3.18493E-07 1.53185E+00-4.28098E-01
 -1       161-1.81863E-07 1.20620E+00-3.33507E-01
 -1       162 2.80245E-07 2.24480E+00-6.93745E-01
 -1       163 5.58537E-07 2.22057E+00-7.48407E-01
 -1       164 1.40118E-07 2.24480E+00-6.93745E-01
 -1       165 2.79257E-07 2.22057E+00-7.48407E-01
 -1       166-1.21898E-07 1.88334E+00-5.39137E-01
 -1       167 4.19553E-07 2.23268E+00-7.21075E-01
 -1       168-2.45414E-07 1.86189E+00-5.91221E-01
 -1       169 3.54185E-07 3.01379E+00-1.05492E+00
 -1       170 6.99667E-07 2.98475E+00-1.11360E+00
 -1       171 1.77095E-07 3.01379E+00-1.05492E+00
 -1       172 3.49870E-07 2.98475E+00-1.11360E+00
 -1       173-1.58377E-07 2.62251E+00-8.66164E-01
 -1       174 5.26300E-07 2.99927E+00-1.08426E+00
 -1       175-3.13150E-07 2.59580E+00-9.23063E-01
 -1       176 4.28298E-07 3.82814E+00-1.47476E+00
 -1       177 8.42328E-07 3.79527E+00-1.53617E+00
 -1       178 2.14126E-07 3.82814E+00-1.47476E+00
 -1       179 4.21016E-07 3.79527E+00-1.53617E+00
 -1       180-1.95822E-07 3.41635E+00-1.25836E+00
 -1       181 6.37553E-07 3.81171E+00-1.50547E+00
 -1       182-3.86427E-07 3.38529E+00-1.31859E+00
 -1       183 4.96755E-07 4.67258E+00-1.93919E+00
 -1       184 1.00484E-06 4.63697E+00-2.00235E+00
 -1       185 2.48424E-07 4.67258E+00-1.93919E+00
 -1       186 5.02972E-07 4.63697E+00-2.00235E+00
 -1       187-2.32614E-07 4.24741E+00-1.70230E+00
 -1       188 7.42473E-07 4.65478E+00-1.97077E+00
 -1       189-4.56180E-07 4.21305E+00-1.76476E+00
 -1       190 5.52989E-07 5.53530E+00-2.43346E+00
 -1       191 1.10208E-06 5.49805E+00-2.49759E+00
 -1       192 2.76352E-07 5.53530E+00-2.43346E+00
 -1       193 5.48918E-07 5.49804E+00-2.49759E+00
 -1       194-2.63872E-07 5.10231E+00-2.18351E+00
 -1       195 8.58348E-07 5.51667E+00-2.46553E+00
 -1       196-5.47725E-07 5.06574E+00-2.24731E+00
 -1       197 5.83706E-07 6.40663E+00-2.94267E+00
 -1       198 1.42072E-06 6.36884E+00-3.00710E+00
 -1       199 2.92094E-07 6.40663E+00-2.94267E+00
 -1       200 7.18460E-07 6.36884E+00-3.00710E+00
 -1       201-2.90507E-07 5.97046E+00-2.68712E+00
 -1       202 8.86673E-07 6.38773E+00-2.97489E+00
 -1       203-5.57033E-07 5.93278E+00-2.75156E+00
 -1       204 0.00000E+00 0.00000E+00 0.00000E+00
 -1       205-9.98293E-08 1.19077E-01 7.60654E-03
 -1       206 0.00000E+00 0.00000E+00 0.00000E+00
 -1       207 1.86024E-15 1.19077E-01 7.60666E-03
 -1       208 0.00000E+00 0.00000E+00 0.00000E+00
 -1       209 2.41786E-08 3.06088E-02 7.50516E-03
 -1       210-6.94619E-08 1.18099E-01-8.13089E-04
 -1       211 0.00000E+00 0.00000E+00 0.00000E+00
 -1       212-4.99134E-08 1.19077E-01 7.60660E-03
 -1       213 0.00000E+00 0.00000E+00 0.00000E+00
 -1       214 1.09086E-15 3.06088E-02 7.50512E-03
 -1       215 1.90046E-15 1.18099E-01-8.13013E-04
 -1       216-2.05309E-07 4.47705E-01-3.44252E-02
 -1       217 2.72450E-15 4.47705E-01-3.44250E-02
 -1       218 7.56656E-08 2.60012E-01-5.09600E-03
 -1       219-1.46614E-07 4.44396E-01-4.96809E-02
 -1       220-1.02653E-07 4.47705E-01-3.44251E-02
 -1       221 2.04696E-15 2.60012E-01-5.09608E-03
 -1       222 2.99180E-15 4.44396E-01-4.96808E-02
 -1       223-3.14732E-07 9.41428E-01-1.52247E-01
 -1       224 2.36771E-15 9.41428E-01-1.52247E-01
 -1       225 1.29654E-07 6.76588E-01-8.29739E-02
 -1       226-2.29954E-07 9.35175E-01-1.72789E-01
 -1       227-1.57365E-07 9.41428E-01-1.52247E-01
 -1       228 2.35171E-15 6.76588E-01-8.29740E-02
 -1       229 2.62450E-15 9.35174E-01-1.72789E-01
 -1       230-4.25276E-07 1.55974E+00-3.54658E-01
 -1       231-3.27967E-15 1.55974E+00-3.54658E-01
 -1       232 1.85091E-07 1.23726E+00-2.42818E-01
 -1       233-3.17593E-07 1.55045E+00-3.79140E-01
 -1       234-2.12632E-07 1.55974E+00-3.54658E-01
 -1       235-8.26375E-16 1.23726E+00-2.42818E-01
 -1       236-1.98035E-15 1.55045E+00-3.79140E-01
 -1       237-5.33673E-07 2.26902E+00-6.39075E-01
 -1       238-7.63075E-15 2.26902E+00-6.39075E-01
 -1       239 2.40211E-07 1.90479E+00-4.87055E-01
 -1       240-4.06771E-07 2.25691E+00-6.66411E-01
 -1       241-2.66846E-07 2.26902E+00-6.39075E-01
 -1       242-7.30776E-15 1.90479E+00-4.87055E-01
 -1       243-6.79051E-15 2.25691E+00-6.66411E-01
 -1       244-6.32853E-07 3.04284E+00-9.96227E-01
 -1       245-1.11085E-15 3.04284E+00-9.96227E-01
 -1       246 2.93492E-07 2.64923E+00-8.09271E-01
 -1       247-4.94188E-07 3.02832E+00-1.02557E+00
 -1       248-3.16374E-07 3.04284E+00-9.96227E-01
 -1       249-3.16108E-15 2.64923E+00-8.09271E-01
 -1       250-1.79692E-15 3.02832E+00-1.02557E+00
 -1       251-7.21473E-07 3.86102E+00-1.41333E+00
 -1       252-2.67628E-14 3.86101E+00-1.41333E+00
 -1       253 3.39437E-07 3.44741E+00-1.19813E+00
 -1       254-5.72483E-07 3.84458E+00-1.44405E+00
 -1       255-3.60903E-07 3.86101E+00-1.41333E+00
 -1       256-2.06850E-14 3.44741E+00-1.19813E+00
 -1       257-2.44787E-14 3.84457E+00-1.44405E+00
 -1       258-7.66212E-07 4.70822E+00-1.87600E+00
 -1       259-3.04226E-14 4.70822E+00-1.87600E+00
 -1       260 3.82124E-07 4.28176E+00-1.63986E+00
 -1       261-6.40191E-07 4.69040E+00-1.90759E+00
 -1       262-3.82470E-07 4.70822E+00-1.87600E+00
 -1       263-2.28552E-14 4.28176E+00-1.63986E+00
 -1       264-3.13512E-14 4.69040E+00-1.90759E+00
 -1       265-8.32318E-07 5.57260E+00-2.36930E+00
 -1       266-2.63246E-14 5.57260E+00-2.36930E+00
 -1       267 3.84053E-07 5.13886E+00-2.11973E+00
 -1       268-6.60938E-07 5.55395E+00-2.40138E+00
 -1       269-4.18407E-07 5.57260E+00-2.36930E+00
 -1       270-1.76493E-14 5.13887E+00-2.11973E+00
 -1       271-3.15874E-14 5.55395E+00-2.40138E+00
 -1       272-6.01221E-07 6.44450E+00-2.87819E+00
 -1       273-2.17141E-14 6.44449E+00-2.87819E+00
 -1       274 4.49817E-07 6.00811E+00-2.62270E+00
 -1       275-7.09173E-07 6.42556E+00-2.91043E+00
 -1       276-2.92481E-07 6.44450E+00-2.87819E+00
 -1       277-1.82239E-14 6.00811E+00-2.62270E+00
 -1       278-2.43751E-14 6.42556E+00-2.91043E+00
 -1       279 0.00000E+00 0.00000E+00 0.00000E+00
 -1       280 9.98293E-08 1.19077E-01 7.60654E-03
 -1       281 0.00000E+00 0.00000E+00 0.00000E+00
 -1       282 4.99134E-08 1.19077E-01 7.60660E-03
 -1       283 0.00000E+00 0.00000E+00 0.00000E+00
 -1       284-2.41786E-08 3.06088E-02 7.50516E-03
 -1       285 6.94619E-08 1.18099E-01-8.13089E-04
 -1       286 2.05309E-07 4.47705E-01-3.44252E-02
 -1       287 1.02653E-07 4.47705E-01-3.44251E-02
 -1       288-7.56656E-08 2.60012E-01-5.09600E-03
 -1       289 1.46614E-07 4.44396E-01-4.96809E-02
 -1       290 3.14732E-07 9.41428E-01-1.52247E-01
 -1       291 1.57365E-07 9.41428E-01-1.52247E-01
 -1       292-1.29654E-07 6.76588E-01-8.29739E-02
 -1       293 2.29954E-07 9.35175E-01-1.72789E-01
 -1       294 4.25276E-07 1.55974E+00-3.54658E-01
 -1       295 2.12632E-07 1.55974E+00-3.54658E-01
 -1       296-1.85091E-07 1.23726E+00-2.42818E-01
 -1       297 3.17593E-07 1.55045E+00-3.79140E-01
 -1       298 5.33673E-07 2.26902E+00-6.39075E-01
 -1       299 2.66846E-07 2.26902E+00-6.39075E-01
 -1       300-2.40211E-07 1.90479E+00-4.87055E-01
 -1       301 4.06771E-07 2.25691E+00-6.66411E-01
 -1       302 6.32853E-07 3.04284E+00-9.96227E-01
 -1       303 3.16374E-07 3.04284E+00-9.96227E-01
 -1       304-2.93492E-07 2.64923E+00-8.09271E-01
 -1       305 4.94188E-07 3.02832E+00-1.02557E+00
 -1       306 7.21473E-07 3.86102E+00-1.41333E+00
 -1       307 3.60903E-07 3.86101E+00-1.41333E+00
 -1       308-3.39437E-07 3.44741E+00-1.19813E+00
 -1       309 5.72483E-07 3.84458E+00-1.44405E+00
 -1       310 7.66212E-07 4.70822E+00-1.87600E+00
 -1       311 3.82470E-07 4.70822E+00-1.87600E+00
 -1       312-3.82124E-07 4.28176E+00-1.63986E+00
 -1       313 6.40191E-07 4.69040E+00-1.90759E+00
 -1       314 8.32318E-07 5.57260E+00-2.36930E+00
 -1       315 4.18407E-07 5.57260E+00-2.36930E+00
 -1       316-3.84053E-07 5.13886E+00-2.11973E+00
 -1       317 6.60938E-07 5.55395E+00-2.40138E+00
 -1       318 6.01221E-07 6.44450E+00-2.87819E+00
 -1       319 2.92481E-07 6.44450E+00-2.87819E+00
 -1       320-4.49817E-07 6.00811E+00-2.62270E+00
 -1       321 7.09173E-07 6.42556E+00-2.91043E+00
 -3
    1PSTEP                        14           7           1          
  100CL  107 3.50000E-01         321                     0    7           1
 -4  STRESS      6    1
 -5  SXX         1    4    1    1
 -5  SYY         1    4    2    2
 -5  SZZ         1    4    3    3
 -5  SXY         1    4    1    2
 -5  SYZ         1    4    2    3
 -5  SZX         1    4    3    1
 -1         1 9.11311E+01-1.27913E+04-1.80172E+06-4.11202E+01-5.82807E+03 3.21427E+01
 -1         2 3.73626E+01-2.80877E+04-2.50597E+04-1.11736E+01 7.35055E+03 2.10237E+01
 -1         3 3.24734E+00-1.08550E+04-2.28450E+04 5.52102E-01 1.12931E+04 2.76748E+00
 -1         4 3.44222E+00-7.24641E+04-1.47795E+06 1.99498E+00-3.57506E+05 5.08767E+00
 -1         5 9.11311E+01-1.27213E+04-1.80173E+06 7.41864E-08-5.82522E+03-3.03015E-08
 -1         6 3.73626E+01-2.80844E+04-2.50686E+04 8.14812E-08 7.36477E+03 3.24674E-08
 -1         7 3.23703E+00-1.08541E+04-2.28512E+04-1.01605E-07 1.12930E+04-7.44778E-10
 -1         8 3.42092E+00-7.24548E+04-1.47796E+06-2.16874E-08-3.57498E+05-4.11589E-08
 -1         9 6.41643E+01-1.93071E+04-9.13407E+05-1.64953E+01 1.78769E+03 2.58727E+01
 -1        10-1.74113E+00-1.15739E+04-2.27940E+04-2.15593E-02 7.78452E+03-1.21967E+00
 -1        11 3.35160E+00-4.18199E+04-7.50288E+05 1.03102E+00-1.73426E+05 3.28717E+00
 -1        12-1.79015E+00-3.50288E+04-1.64729E+06-6.08620E-01-1.86936E+05-2.46105E+00
 -1        13 9.11311E+01-1.27563E+04-1.80173E+06-5.05964E+01-5.82664E+03 2.85915E+01
 -1        14 3.73626E+01-2.80860E+04-2.50641E+04-1.06253E+01 7.35766E+03 1.91630E+01
 -1        15 3.24218E+00-1.08545E+04-2.28481E+04-4.92483E-01 1.12931E+04 7.37357E-01
 -1        16 3.43157E+00-7.24595E+04-1.47796E+06 1.37303E-01-3.57502E+05 1.38539E+00
 -1        17 6.41643E+01-1.92389E+04-9.13414E+05 9.64500E-08 1.78592E+03-3.01273E-09
 -1        18-1.74629E+00-1.15739E+04-2.27900E+04-6.96540E-09 7.78461E+03 7.38415E-09
 -1        19 3.33577E+00-4.18146E+04-7.50294E+05-7.74718E-08-1.73422E+05-8.50103E-09
 -1        20-1.80081E+00-3.50309E+04-1.64728E+06 1.50713E-07-1.86940E+05-4.47510E-09
 -1        21 2.82418E+00-8.99576E+02-1.84089E+04 1.48640E+00 6.54501E+03 2.96832E+00
 -1        22 3.30614E+00-2.24446E+05-1.08772E+06 3.28125E+00-5.02315E+05 4.86859E+00
 -1        23 2.82235E+00-8.96082E+02-1.84121E+04 1.67022E-07 6.54559E+03 2.80349E-08
 -1        24 3.31163E+00-2.24427E+05-1.08773E+06 6.61418E-08-5.02308E+05 1.50715E-08
 -1        25-1.49825E+00-7.18822E+03-1.99158E+04-5.20066E-01 8.14155E+03-1.49757E+00
 -1        26 3.07246E+00-1.12895E+05-5.52902E+05 2.08275E+00-2.47985E+05 3.44762E+00
 -1        27-1.66579E+00-1.52843E+05-1.27737E+06-1.37077E+00-4.32446E+05-2.55925E+00
 -1        28 2.82327E+00-8.97829E+02-1.84105E+04-4.83559E-01 6.54530E+03 9.51545E-01
 -1        29 3.30888E+00-2.24437E+05-1.08772E+06-2.67072E-01-5.02311E+05 1.33107E+00
 -1        30-1.50433E+00-7.18918E+03-1.99135E+04 6.50887E-08 8.14153E+03 4.14490E-08
 -1        31 3.07427E+00-1.12883E+05-5.52906E+05 2.32687E-08-2.47982E+05-3.96057E-08
 -1        32-1.67369E+00-1.52850E+05-1.27737E+06-1.23569E-07-4.32450E+05 5.10350E-09
 -1        33 2.43553E+00 3.03825E+03-1.47607E+04 2.01799E+00 4.35246E+03 2.62549E+00
 -1        34 3.29823E+00-3.39275E+05-7.48648E+05 3.78162E+00-5.09128E+05 4.08415E+00
 -1        35 2.44901E+00 3.04568E+03-1.47618E+04 9.76149E-08 4.35432E+03-3.04491E-08
 -1        36 3.32440E+00-3.39246E+05-7.48650E+05-4.54956E-07-5.09121E+05-2.50775E-07
 -1        37-1.31651E+00-5.02676E+02-1.61244E+04-9.34798E-01 5.14561E+03-1.43233E+00
 -1        38 2.86218E+00-1.68284E+05-3.81603E+05 2.57542E+00-2.52350E+05 3.03505E+00
 -1        39-1.64587E+00-2.85562E+05-9.13574E+05-1.86282E+00-5.05064E+05-2.26215E+00
 -1        40 2.44227E+00 3.04196E+03-1.47613E+04-7.33707E-01 4.35339E+03 8.54585E-01
 -1        41 3.31132E+00-3.39260E+05-7.48649E+05-1.06927E+00-5.09124E+05 9.88339E-01
 -1        42-1.31069E+00-5.05256E+02-1.61234E+04-3.17668E-08 5.14500E+03 4.83204E-08
 -1        43 2.88199E+00-1.68264E+05-3.81605E+05 1.08906E-07-2.52346E+05-1.97474E-08
 -1        44-1.63004E+00-2.85574E+05-9.13572E+05 1.05198E-07-5.05068E+05-1.60993E-07
 -1        45 1.94537E+00 5.98539E+03-1.11730E+04 2.17617E+00 2.25905E+03 1.96334E+00
 -1        46 3.11326E+00-3.92437E+05-4.93129E+05 3.73631E+00-4.42884E+05 3.15986E+00
 -1        47 1.96237E+00 5.99808E+03-1.11728E+04-8.72266E-07 2.26244E+03-3.20343E-07
 -1        48 3.09257E+00-3.92397E+05-4.93129E+05 8.12387E-07-4.42877E+05-1.56129E-07
 -1        49-1.10857E+00 2.99144E+03-1.29646E+04-1.04145E+00 3.35599E+03-1.16698E+00
 -1        50 2.56669E+00-1.93317E+05-2.52115E+05 2.63276E+00-2.20235E+05 2.38658E+00
 -1        51-1.64988E+00-3.67999E+05-6.17987E+05-1.85363E+00-4.73858E+05-1.79665E+00
 -1        52 1.95387E+00 5.99173E+03-1.11729E+04-1.30755E+00 2.26075E+03 5.27367E-01
 -1        53 3.10291E+00-3.92417E+05-4.93129E+05-2.42988E+00-4.42880E+05 5.49423E-01
 -1        54-1.09333E+00 2.98649E+03-1.29644E+04-3.46738E-07 3.35466E+03-1.79758E-07
 -1        55 2.56483E+00-1.93290E+05-2.52116E+05-2.44958E-07-2.20230E+05-2.91407E-07
 -1        56-1.64716E+00-3.68016E+05-6.17987E+05 6.08009E-07-4.73862E+05-2.33212E-07
 -1        57 1.16807E+00 7.54416E+03-8.31577E+03 1.09362E+00 1.00557E+03 1.23744E+00
 -1        58 2.94711E+00-3.88033E+05-3.15104E+05 1.72960E+00-3.51747E+05 2.09359E+00
 -1        59 1.23992E+00 7.56382E+03-8.31476E+03-3.64515E-07 1.01055E+03 5.14845E-07
 -1        60 3.13595E+00-3.87979E+05-3.15102E+05 3.04401E-06-3.51738E+05 8.33914E-09
 -1        61-8.31080E-01 5.38787E+03-1.00753E+04-1.08036E+00 1.85330E+03-7.75845E-01
 -1        62 1.94374E+00-1.90293E+05-1.61703E+05 1.09078E+00-1.75295E+05 1.60685E+00
 -1        63-1.47313E+00-3.90953E+05-4.02884E+05-1.80554E+00-3.94873E+05-1.34868E+00
 -1        64 1.20399E+00 7.55399E+03-8.31526E+03-2.43760E+00 1.00806E+03 2.16291E-01
 -1        65 3.04153E+00-3.88006E+05-3.15103E+05-4.22886E+00-3.51742E+05-5.34315E-02
 -1        66-7.86669E-01 5.37997E+03-1.00757E+04-2.55099E-07 1.85116E+03 2.77313E-07
 -1        67 2.07411E+00-1.90255E+05-1.61703E+05 1.19872E-06-1.75290E+05 2.88657E-07
 -1        68-1.38897E+00-3.90975E+05-4.02884E+05 2.08701E-06-3.94877E+05-4.36923E-07
 -1        69 5.78913E-02 8.48959E+03-6.09215E+03 1.49255E+00 2.40626E+02 6.94602E-02
 -1        70 1.51831E+00-3.42364E+05-1.96545E+05 3.06447E+00-2.60920E+05 1.89463E+00
 -1        71 2.25962E-02 8.51686E+03-6.09010E+03-1.76311E-06 2.47906E+02-1.03211E-07
 -1        72 9.33194E-01-3.42298E+05-1.96543E+05 4.09561E-06-2.60907E+05 3.06750E-07
 -1        73-3.18492E-01 6.79465E+03-7.78785E+03 3.71552E-02 8.76126E+02-4.47167E-01
 -1        74 1.22263E+00-1.66996E+05-1.01289E+05 2.01240E+00-1.30265E+05 1.12242E+00
 -1        75-1.42756E+00-3.64954E+05-2.55735E+05 1.50161E-01-3.04183E+05-7.52248E-01
 -1        76 4.02439E-02 8.50323E+03-6.09113E+03-3.63375E+00 2.44266E+02-7.09854E-01
 -1        77 1.22575E+00-3.42331E+05-1.96544E+05-7.12118E+00-2.60914E+05-1.85069E-01
 -1        78-3.00155E-01 6.78269E+03-7.78842E+03-6.49475E-08 8.73224E+02 4.64678E-07
 -1        79 9.12351E-01-1.66947E+05-1.01289E+05-1.30525E-07-1.30257E+05 4.03950E-07
 -1        80-1.62597E+00-3.64985E+05-2.55736E+05 1.63323E-06-3.04188E+05 4.41687E-07
 -1        81-1.87730E+00 9.08180E+03-4.50914E+03-6.81821E+00-1.36815E+02 2.75096E-01
 -1        82 2.57417E+00-2.71066E+05-1.18645E+05-1.26864E+01-1.80492E+05-1.13036E+00
 -1        83-1.50138E+00 9.12165E+03-4.50810E+03 1.23726E-06-1.28308E+02-1.47183E-06
 -1        84 4.94911E+00-2.70973E+05-1.18640E+05-1.18171E-06-1.80481E+05 3.38897E-06
 -1        85 2.22913E-01 7.63996E+03-6.05219E+03-1.42834E+00 2.26818E+02 3.94021E-01
 -1        86-1.19680E+00-1.31033E+05-6.15437E+04-1.02205E+01-9.02524E+04-3.64496E-01
 -1        87-2.48359E-01-3.05882E+05-1.58136E+05-3.09049E+00-2.19003E+05-1.10244E+00
 -1        88-1.68934E+00 9.10172E+03-4.50862E+03-6.76876E+00-1.32561E+02 2.82274E-01
 -1        89 3.76164E+00-2.71020E+05-1.18643E+05-9.14574E+00-1.80487E+05-2.20255E+00
 -1        90 3.93032E-01 7.62433E+03-6.05362E+03-7.57998E-07 2.22358E+02-4.44317E-07
 -1        91 1.78800E-01-1.30968E+05-6.15387E+04 1.72608E-07-9.02436E+04 4.38346E-07
 -1        92 6.47479E-01-3.05917E+05-1.58137E+05 6.01185E-07-2.19012E+05 1.53596E-06
 -1        93-4.12909E+00 9.48508E+03-3.45200E+03 1.26981E+01-2.32085E+02-5.35805E+00
 -1        94-6.91261E+00-1.85007E+05-6.69220E+04 3.14388E+01-1.12227E+05 7.53912E+00
 -1        95-4.87320E+00 9.52800E+03-3.44333E+03-3.60635E-06-2.14779E+02 2.75111E-06
 -1        96-1.57911E+01-1.84922E+05-6.69257E+04-3.04427E-06-1.12183E+05-1.32959E-06
 -1        97 1.82179E+00 8.08897E+03-4.81797E+03 8.26506E+00-1.87366E+02-6.54530E-01
 -1        98 1.57582E-01-8.80051E+04-3.49538E+04 2.24589E+01-5.60565E+04 2.12025E+00
 -1        99-1.76827E+00-2.26767E+05-9.35621E+04 1.56957E+01-1.45054E+05 2.10699E+00
 -1       100-4.50115E+00 9.50654E+03-3.44767E+03-5.86281E+00-2.23432E+02-6.39608E+00
 -1       101-1.13519E+01-1.84964E+05-6.69238E+04-1.74624E+01-1.12205E+05 2.71794E+00
 -1       102 1.63836E+00 8.06461E+03-4.81743E+03-3.17018E-06-1.91455E+02 6.29282E-07
 -1       103-4.65405E+00-8.79257E+04-3.49656E+04-3.76473E-06-5.60355E+04 3.08740E-07
 -1       104-5.02333E+00-2.26825E+05-9.35658E+04 4.17234E-07-1.45055E+05 4.47326E-08
 -1       105-8.12565E+00 9.94566E+03-2.93079E+03-7.47190E+01-2.04353E+02 1.01143E+01
 -1       106 1.74578E+01-9.34344E+04-2.86718E+04-1.54952E+02-5.22823E+04-2.85996E+01
 -1       107-5.84574E+00 1.00348E+04-2.94946E+03-1.07611E-06-2.01980E+02-2.18904E-07
 -1       108 5.14633E+01-9.32160E+04-2.86349E+04 2.34357E-06-5.23328E+04 8.90521E-07
 -1       109 1.69560E+00 8.30853E+03-4.07826E+03-2.06984E+01-4.81395E+02 6.05052E+00
 -1       110-1.61746E+01-4.14909E+04-1.60098E+04-1.18131E+02-2.63818E+04-1.07497E+01
 -1       111 6.75886E+00-1.37517E+05-4.85925E+04-4.63300E+01-8.12265E+04-9.18635E+00
 -1       112-6.98570E+00 9.99023E+03-2.94012E+03-2.20720E+01-2.03167E+02 1.49079E+01
 -1       113 3.44606E+01-9.33252E+04-2.86533E+04-6.93820E+00-5.23076E+04-1.87871E+01
 -1       114 2.46109E+00 8.28924E+03-4.08771E+03-4.00578E-06-4.94651E+02 4.24282E-07
 -1       115 1.96878E+00-4.13834E+04-1.59550E+04-8.49357E-07-2.63799E+04 4.64852E-07
 -1       116 1.93342E+01-1.37543E+05-4.85860E+04 1.84202E-06-8.12726E+04 6.00772E-07
 -1       117-2.11064E+01 7.58696E+02-6.27320E+03 2.87228E+02-5.47267E+03-8.84845E+01
 -1       118-1.98020E+02 1.27946E+04 6.26191E+03 5.92681E+02 8.03166E+03 3.70843E+00
 -1       119-2.49616E+01-4.45208E+01-6.18043E+03-2.07343E-06-5.61639E+03 9.16492E-08
 -1       120-3.27682E+02 1.06833E+04 6.14742E+03 2.88430E-06 7.96169E+03 1.32018E-07
 -1       121 8.74814E+00 8.20428E+03-3.54350E+03 9.54297E+01-6.53627E+02-1.63180E+01
 -1       122-3.21501E+01 7.41232E+03-5.62310E+02 4.56131E+02 8.71936E+02-3.10073E+01
 -1       123-1.77895E+01-4.10186E+04-1.59437E+04 1.98246E+02-2.57562E+04 3.62850E+01
 -1       124-2.30340E+01 3.57088E+02-6.22681E+03 1.63454E+02-5.54453E+03-7.60348E+01
 -1       125-2.62851E+02 1.17390E+04 6.20467E+03 1.87499E+02 7.99667E+03 3.47715E+01
 -1       126 7.96238E+00 8.13528E+03-3.51409E+03 1.29636E-06-6.43451E+02-5.80692E-08
 -1       127-9.89103E+01 6.06303E+03-7.28148E+02 8.53558E-07 7.09270E+02 9.99764E-07
 -1       128-6.56270E+01-4.12164E+04-1.59853E+04-1.82698E-07-2.56528E+04 1.09020E-06
 -1       129 9.11311E+01-1.27913E+04-1.80172E+06 4.11202E+01-5.82807E+03-3.21427E+01
 -1       130 3.73626E+01-2.80877E+04-2.50597E+04 1.11736E+01 7.35055E+03-2.10237E+01
 -1       131 3.24734E+00-1.08550E+04-2.28450E+04-5.52102E-01 1.12931E+04-2.76748E+00
 -1       132 3.44222E+00-7.24641E+04-1.47795E+06-1.99498E+00-3.57506E+05-5.08767E+00
 -1       133 9.11311E+01-1.27563E+04-1.80173E+06 5.05964E+01-5.82664E+03-2.85915E+01
 -1       134 3.73626E+01-2.80860E+04-2.50641E+04 1.06253E+01 7.35766E+03-1.91630E+01
 -1       135 3.24218E+00-1.08545E+04-2.28481E+04 4.92483E-01 1.12931E+04-7.37357E-01
 -1       136 3.43157E+00-7.24595E+04-1.47796E+06-1.37303E-01-3.57502E+05-1.38539E+00
 -1       137 6.41643E+01-1.93071E+04-9.13407E+05 1.64953E+01 1.78769E+03-2.58727E+01
 -1       138-1.74113E+00-1.15739E+04-2.27940E+04 2.15593E-02 7.78452E+03 1.21967E+00
 -1       139 3.35160E+00-4.18199E+04-7.50288E+05-1.03102E+00-1.73426E+05-3.28717E+00
 -1       140-1.79015E+00-3.50288E+04-1.64729E+06 6.08620E-01-1.86936E+05 2.46105E+00
 -1       141 2.82418E+00-8.99576E+02-1.84089E+04-1.48640E+00 6.54501E+03-2.96832E+00
 -1       142 3.30614E+00-2.24446E+05-1.08772E+06-3.28125E+00-5.02315E+05-4.86859E+00
 -1       143 2.82327E+00-8.97829E+02-1.84105E+04 4.83559E-01 6.54530E+03-9.51545E-01
 -1       144 3.30888E+00-2.24437E+05-1.08772E+06 2.67073E-01-5.02311E+05-1.33107E+00
 -1       145-1.49825E+00-7.18822E+03-1.99158E+04 5.20065E-01 8.14155E+03 1.49757E+00
 -1       146 3.07246E+00-1.12895E+05-5.52902E+05-2.08275E+00-2.47985E+05-3.44762E+00
 -1       147-1.66579E+00-1.52843E+05-1.27737E+06 1.37077E+00-4.32446E+05 2.55925E+00
 -1       148 2.43553E+00 3.03825E+03-1.47607E+04-2.01799E+00 4.35246E+03-2.62549E+00
 -1       149 3.29823E+00-3.39275E+05-7.48648E+05-3.78162E+00-5.09128E+05-4.08415E+00
 -1       150 2.44227E+00 3.04196E+03-1.47613E+04 7.33707E-01 4.35339E+03-8.54585E-01
 -1       151 3.31132E+00-3.39260E+05-7.48649E+05 1.06927E+00-5.09124E+05-9.88339E-01
 -1       152-1.31651E+00-5.02676E+02-1.61244E+04 9.34798E-01 5.14561E+03 1.43233E+00
 -1       153 2.86218E+00-1.68284E+05-3.81603E+05-2.57542E+00-2.52350E+05-3.03505E+00
 -1       154-1.64587E+00-2.85562E+05-9.13574E+05 1.86282E+00-5.05064E+05 2.26215E+00
 -1       155 1.94537E+00 5.98539E+03-1.11730E+04-2.17617E+00 2.25905E+03-1.96334E+00
 -1       156 3.11326E+00-3.92437E+05-4.93129E+05-3.73631E+00-4.42884E+05-3.15986E+00
 -1       157 1.95387E+00 5.99173E+03-1.11729E+04 1.30755E+00 2.26075E+03-5.27366E-01
 -1       158 3.10291E+00-3.92417E+05-4.93129E+05 2.42988E+00-4.42880E+05-5.49423E-01
 -1       159-1.10857E+00 2.99144E+03-1.29646E+04 1.04145E+00 3.35599E+03 1.16698E+00
 -1       160 2.56669E+00-1.93317E+05-2.52115E+05-2.63276E+00-2.20235E+05-2.38658E+00
 -1       161-1.64988E+00-3.67999E+05-6.17987E+05 1.85363E+00-4.73858E+05 1.79665E+00
 -1       162 1.16806E+00 7.54416E+03-8.31577E+03-1.09362E+00 1.00557E+03-1.23744E+00
 -1       163 2.94711E+00-3.88033E+05-3.15104E+05-1.72960E+00-3.51747E+05-2.09359E+00
 -1       164 1.20399E+00 7.55399E+03-8.31526E+03 2.43759E+00 1.00806E+03-2.16291E-01
 -1       165 3.04153E+00-3.88006E+05-3.15103E+05 4.22886E+00-3.51742E+05 5.34309E-02
 -1       166-8.31080E-01 5.38787E+03-1.00753E+04 1.08036E+00 1.85330E+03 7.75845E-01
 -1       167 1.94374E+00-1.90293E+05-1.61703E+05-1.09079E+00-1.75295E+05-1.60685E+00
 -1       168-1.47313E+00-3.90953E+05-4.02884E+05 1.80554E+00-3.94873E+05 1.34868E+00
 -1       169 5.78911E-02 8.48959E+03-6.09215E+03-1.49255E+00 2.40626E+02-6.94593E-02
 -1       170 1.51831E+00-3.42364E+05-1.96545E+05-3.06447E+00-2.60920E+05-1.89463E+00
 -1       171 4.02436E-02 8.50323E+03-6.09113E+03 3.63375E+00 2.44266E+02 7.09854E-01
 -1       172 1.22575E+00-3.42331E+05-1.96544E+05 7.12118E+00-2.60914E+05 1.85069E-01
 -1       173-3.18492E-01 6.79465E+03-7.78785E+03-3.71536E-02 8.76126E+02 4.47167E-01
 -1       174 1.22263E+00-1.66996E+05-1.01289E+05-2.01240E+00-1.30265E+05-1.12242E+00
 -1       175-1.42756E+00-3.64954E+05-2.55735E+05-1.50158E-01-3.04183E+05 7.52248E-01
 -1       176-1.87730E+00 9.08180E+03-4.50914E+03 6.81821E+00-1.36815E+02-2.75096E-01
 -1       177 2.57417E+00-2.71066E+05-1.18645E+05 1.26864E+01-1.80492E+05 1.13035E+00
 -1       178-1.68934E+00 9.10172E+03-4.50862E+03 6.76876E+00-1.32561E+02-2.82275E-01
 -1       179 3.76164E+00-2.71020E+05-1.18643E+05 9.14573E+00-1.80487E+05 2.20255E+00
 -1       180 2.22914E-01 7.63996E+03-6.05219E+03 1.42834E+00 2.26818E+02-3.94021E-01
 -1       181-1.19680E+00-1.31033E+05-6.15437E+04 1.02205E+01-9.02524E+04 3.64494E-01
 -1       182-2.48360E-01-3.05882E+05-1.58136E+05 3.09049E+00-2.19003E+05 1.10244E+00
 -1       183-4.12909E+00 9.48508E+03-3.45200E+03-1.26980E+01-2.32085E+02 5.35805E+00
 -1       184-6.91261E+00-1.85007E+05-6.69220E+04-3.14388E+01-1.12227E+05-7.53912E+00
 -1       185-4.50115E+00 9.50654E+03-3.44767E+03 5.86280E+00-2.23432E+02 6.39608E+00
 -1       186-1.13519E+01-1.84964E+05-6.69238E+04 1.74624E+01-1.12205E+05-2.71794E+00
 -1       187 1.82179E+00 8.08897E+03-4.81797E+03-8.26506E+00-1.87366E+02 6.54529E-01
 -1       188 1.57582E-01-8.80051E+04-3.49538E+04-2.24589E+01-5.60565E+04-2.12025E+00
 -1       189-1.76827E+00-2.26767E+05-9.35621E+04-1.56957E+01-1.45054E+05-2.10699E+00
 -1       190-8.12565E+00 9.94566E+03-2.93079E+03 7.47190E+01-2.04353E+02-1.01143E+01
 -1       191 1.74578E+01-9.34344E+04-2.86718E+04 1.54952E+02-5.22823E+04 2.85996E+01
 -1       192-6.98569E+00 9.99023E+03-2.94012E+03 2.20720E+01-2.03167E+02-1.49079E+01
 -1       193 3.44606E+01-9.33252E+04-2.86533E+04 6.93820E+00-5.23076E+04 1.87871E+01
 -1       194 1.69560E+00 8.30853E+03-4.07826E+03 2.06984E+01-4.81395E+02-6.05052E+00
 -1       195-1.61746E+01-4.14909E+04-1.60098E+04 1.18131E+02-2.63818E+04 1.07497E+01
 -1       196 6.75886E+00-1.37517E+05-4.85925E+04 4.63300E+01-8.12265E+04 9.18635E+00
 -1       197-2.11064E+01 7.58696E+02-6.27320E+03-2.87228E+02-5.47267E+03 8.84845E+01
 -1       198-1.98020E+02 1.27946E+04 6.26191E+03-5.92681E+02 8.03166E+03-3.70843E+00
 -1       199-2.30340E+01 3.57088E+02-6.22681E+03-1.63454E+02-5.54453E+03 7.60348E+01
 -1       200-2.62851E+02 1.17390E+04 6.20467E+03-1.87499E+02 7.99667E+03-3.47715E+01
 -1       201 8.74814E+00 8.20428E+03-3.54350E+03-9.54297E+01-6.53627E+02 1.63180E+01
 -1       202-3.21501E+01 7.41232E+03-5.62310E+02-4.56131E+02 8.71936E+02 3.10073E+01
 -1       203-1.77895E+01-4.10186E+04-1.59437E+04-1.98246E+02-2.57562E+04-3.62850E+01
 -1       204 9.73027E+01-4.37328E+04 1.85147E+06-7.30714E+01 2.29063E+04 7.56862E+01
 -1       205 1.92909E+00 7.81502E+04 1.51439E+06 1.56447E+00 3.70293E+05 4.73455E+00
 -1       206 9.73027E+01-4.37893E+04 1.85144E+06 8.74471E-08 2.29496E+04-5.67869E-08
 -1       207 1.94899E+00 7.81588E+04 1.51436E+06 4.21531E-08 3.70299E+05-3.02623E-09
 -1       208 6.74151E+01-3.70427E+04 9.13221E+05-5.17742E+01 1.41020E+04 4.90655E+01
 -1       209-1.05069E+00 2.49705E+04 1.68991E+06-4.67963E-01 1.97969E+05-2.41218E+00
 -1       210 2.58140E+00 3.38080E+04 7.45658E+05 1.30081E+00 1.91113E+05 4.39142E+00
 -1       211 9.73027E+01-4.37611E+04 1.85145E+06-6.34991E+01 2.29280E+04 6.98715E+01
 -1       212 1.93904E+00 7.81545E+04 1.51437E+06-1.00594E+00 3.70296E+05-7.20525E-01
 -1       213 6.74151E+01-3.71008E+04 9.13200E+05 6.58480E-08 1.41411E+04-8.06404E-09
 -1       214-1.04074E+00 2.49683E+04 1.68993E+06-5.58588E-08 1.97965E+05 2.02478E-09
 -1       215 2.58621E+00 3.38125E+04 7.45644E+05-1.39001E-08 1.91116E+05-1.43363E-08
 -1       216 1.36760E+00 2.31115E+05 1.10923E+06 2.48496E+00 5.19160E+05 4.08662E+00
 -1       217 1.39175E+00 2.31133E+05 1.10922E+06-3.60561E-07 5.19166E+05-1.24032E-07
 -1       218-8.55971E-01 1.55623E+05 1.30812E+06-1.10653E+00 4.44752E+05-2.25664E+00
 -1       219 2.08859E+00 1.15330E+05 5.45248E+05 2.28676E+00 2.62952E+05 3.99831E+00
 -1       220 1.37967E+00 2.31124E+05 1.10923E+06-1.90253E+00 5.19163E+05-5.03271E-01
 -1       221-8.33941E-01 1.55616E+05 1.30812E+06 2.70727E-08 4.44749E+05-6.47200E-08
 -1       222 2.09977E+00 1.15340E+05 5.45242E+05-3.45646E-09 2.62956E+05 1.31606E-08
 -1       223 4.66111E-01 3.50746E+05 7.61582E+05 2.43200E+00 5.22316E+05 2.85193E+00
 -1       224 4.79046E-01 3.50775E+05 7.61581E+05-2.03228E-07 5.22325E+05 4.47397E-07
 -1       225-4.96667E-01 2.91158E+05 9.32807E+05-1.35625E+00 5.19709E+05-1.75834E+00
 -1       226 1.45553E+00 1.77057E+05 3.73309E+05 2.54938E+00 2.63296E+05 3.05848E+00
 -1       227 4.72579E-01 3.50760E+05 7.61582E+05-3.06012E+00 5.22320E+05-6.11683E-01
 -1       228-4.78116E-01 2.91146E+05 9.32809E+05-3.05808E-07 5.19705E+05 7.91338E-08
 -1       229 1.46874E+00 1.77074E+05 3.73309E+05-3.40383E-07 2.63303E+05 8.76093E-08
 -1       230-7.41095E-01 4.04570E+05 5.00715E+05 1.59244E+00 4.53032E+05 1.29579E+00
 -1       231-6.45222E-01 4.04613E+05 5.00718E+05 7.64098E-07 4.53045E+05-3.19618E-07
 -1       232 4.12801E-02 3.77062E+05 6.29782E+05-1.02127E+00 4.86579E+05-1.02138E+00
 -1       233 5.64757E-01 2.05369E+05 2.44735E+05 2.20778E+00 2.27567E+05 1.80459E+00
 -1       234-6.93158E-01 4.04591E+05 5.00717E+05-4.71206E+00 4.53038E+05-1.03157E+00
 -1       235 9.56564E-02 3.77044E+05 6.29781E+05 3.51173E-07 4.86573E+05-9.82550E-09
 -1       236 6.21215E-01 2.05396E+05 2.44738E+05 1.60934E-07 2.27577E+05-2.66810E-07
 -1       237-2.64777E+00 3.99942E+05 3.20017E+05-1.45144E+00 3.59095E+05-7.06915E-01
 -1       238-2.80279E+00 3.99998E+05 3.20023E+05 7.39207E-07 3.59112E+05-2.08328E-07
 -1       239 7.09560E-01 4.01318E+05 4.09721E+05-5.04194E-01 4.05392E+05-2.14836E-01
 -1       240-6.26000E-01 2.03791E+05 1.55844E+05 1.41917E-01 1.79975E+05 3.23934E-01
 -1       241-2.72528E+00 3.99970E+05 3.20020E+05-6.87738E+00 3.59104E+05-1.93716E+00
 -1       242 6.80079E-01 4.01293E+05 4.09718E+05-6.82998E-07 4.05385E+05-3.86801E-08
 -1       243-6.67609E-01 2.03828E+05 1.55849E+05 3.28369E-07 1.79988E+05 1.26193E-07
 -1       244-4.70840E+00 3.53394E+05 2.00023E+05-1.80733E+00 2.66336E+05-2.14842E+00
 -1       245-3.87249E+00 3.53472E+05 2.00030E+05-1.31454E-06 2.66356E+05-3.49239E-07
 -1       246 1.95765E+00 3.75798E+05 2.59718E+05 2.07506E+00 3.12544E+05 9.99545E-01
 -1       247-2.75978E+00 1.81001E+05 9.69360E+04 1.08718E-01 1.33214E+05-1.17986E+00
 -1       248-4.29044E+00 3.53433E+05 2.00026E+05-1.02141E+01 2.66346E+05-2.60701E+00
 -1       249 2.29780E+00 3.75767E+05 2.59714E+05-7.82963E-07 3.12534E+05-9.08936E-08
 -1       250-2.35940E+00 1.81051E+05 9.69427E+04-2.42049E-07 1.33230E+05-5.28406E-07
 -1       251-9.95860E+00 2.81092E+05 1.21333E+05-1.88379E+01 1.84592E+05-6.91432E+00
 -1       252-1.26253E+01 2.81170E+05 1.21346E+05-3.30065E-06 1.84630E+05 1.96429E-06
 -1       253 2.72605E+00 3.16705E+05 1.60533E+05-2.50237E-01 2.25730E+05 1.16674E+00
 -1       254-4.37271E+00 1.45127E+05 5.83787E+04-1.23598E+01 9.21655E+04-3.38275E+00
 -1       255-1.12919E+01 2.81131E+05 1.21340E+05-1.33069E+01 1.84611E+05-5.82111E+00
 -1       256 1.81168E+00 3.16659E+05 1.60529E+05-1.02951E-06 2.25721E+05 3.24804E-07
 -1       257-5.51825E+00 1.45188E+05 5.83834E+04-1.17652E-06 9.21894E+04 7.66451E-07
 -1       258-9.54759E+00 1.94074E+05 6.89866E+04 1.99714E+01 1.15436E+05-1.20508E+00
 -1       259 6.03790E-01 1.94233E+05 6.89882E+04-1.00751E-06 1.15436E+05-1.77559E-06
 -1       260 7.49479E+00 2.37507E+05 9.51692E+04 1.95062E+01 1.50650E+05 5.98433E+00
 -1       261-1.25168E+01 1.02024E+05 3.25340E+04 1.59443E+01 5.74288E+04-4.31128E+00
 -1       262-4.47190E+00 1.94154E+05 6.89874E+04-2.13916E+01 1.15436E+05-1.43134E+00
 -1       263 1.12338E+01 2.37473E+05 9.51605E+04-1.41639E-08 1.50621E+05-5.01230E-07
 -1       264-7.81282E+00 1.02109E+05 3.25535E+04-1.86751E-06 5.74477E+04 8.89780E-07
 -1       265-3.77296E+01 1.01399E+05 3.03312E+04-1.59753E+02 5.49662E+04-3.69873E+01
 -1       266-7.36686E+01 1.01363E+05 3.03883E+04-3.55582E-07 5.51513E+04-1.61448E-06
 -1       267 1.00459E+00 1.48190E+05 4.99355E+04-4.03054E+01 8.62374E+04-5.27706E+00
 -1       268-2.08700E+00 5.54189E+04 1.39087E+04-1.13940E+02 2.75193E+04-1.19295E+01
 -1       269-5.56991E+01 1.01381E+05 3.03598E+04-1.77898E+01 5.50588E+04-2.77473E+01
 -1       270-1.18777E+01 1.48070E+05 4.99420E+04-1.67857E-06 8.62645E+04-1.21193E-06
 -1       271-1.89172E+01 5.54916E+04 1.38822E+04 7.67243E-07 2.75871E+04-1.04573E-06
 -1       272 1.32332E+02 1.57548E+04 1.31471E+03 7.40465E+02 6.46349E+03 7.41233E+01
 -1       273 2.62351E+02 1.46405E+04 1.12290E+03-1.14477E-06 5.32692E+03 5.11815E-07
 -1       274 4.17164E+01 5.21604E+04 1.72985E+04 2.03323E+02 3.03489E+04 4.47014E+01
 -1       275-2.18002E+01 7.62108E+03-1.92258E+03 4.97670E+02 9.02966E+02-1.85613E+01
 -1       276 1.97341E+02 1.51976E+04 1.21880E+03 3.12515E+02 5.89521E+03 9.37945E+01
 -1       277 8.87475E+01 5.23044E+04 1.72355E+04-1.35365E-06 3.01412E+04-2.43790E-07
 -1       278 4.12833E+01 6.55435E+03-1.81712E+03-2.05722E-06 3.18644E+02-5.86198E-07
 -1       279 9.73027E+01-4.37328E+04 1.85147E+06 7.30714E+01 2.29063E+04-7.56862E+01
 -1       280 1.92909E+00 7.81502E+04 1.51439E+06-1.56447E+00 3.70293E+05-4.73455E+00
 -1       281 9.73027E+01-4.37611E+04 1.85145E+06 6.34991E+01 2.29280E+04-6.98715E+01
 -1       282 1.93904E+00 7.81545E+04 1.51437E+06 1.00594E+00 3.70296E+05 7.20524E-01
 -1       283 6.74151E+01-3.70427E+04 9.13221E+05 5.17742E+01 1.41020E+04-4.90655E+01
 -1       284-1.05069E+00 2.49705E+04 1.68991E+06 4.67963E-01 1.97969E+05 2.41218E+00
 -1       285 2.58140E+00 3.38080E+04 7.45658E+05-1.30081E+00 1.91113E+05-4.39142E+00
 -1       286 1.36760E+00 2.31115E+05 1.10923E+06-2.48496E+00 5.19160E+05-4.08662E+00
 -1       287 1.37967E+00 2.31124E+05 1.10923E+06 1.90253E+00 5.19163E+05 5.03270E-01
 -1       288-8.55971E-01 1.55623E+05 1.30812E+06 1.10653E+00 4.44752E+05 2.25664E+00
 -1       289 2.08859E+00 1.15330E+05 5.45248E+05-2.28676E+00 2.62952E+05-3.99831E+00
 -1       290 4.66111E-01 3.50746E+05 7.61582E+05-2.43200E+00 5.22316E+05-2.85193E+00
 -1       291 4.72579E-01 3.50760E+05 7.61582E+05 3.06012E+00 5.22320E+05 6.11683E-01
 -1       292-4.96667E-01 2.91158E+05 9.32807E+05 1.35625E+00 5.19709E+05 1.75835E+00
 -1       293 1.45553E+00 1.77057E+05 3.73309E+05-2.54938E+00 2.63296E+05-3.05848E+00
 -1       294-7.41095E-01 4.04570E+05 5.00715E+05-1.59244E+00 4.53032E+05-1.29579E+00
 -1       295-6.93159E-01 4.04591E+05 5.00717E+05 4.71206E+00 4.53038E+05 1.03157E+00
 -1       296 4.12798E-02 3.77062E+05 6.29782E+05 1.02127E+00 4.86579E+05 1.02138E+00
 -1       297 5.64757E-01 2.05369E+05 2.44735E+05-2.20778E+00 2.27567E+05-1.80459E+00
 -1       298-2.64777E+00 3.99942E+05 3.20017E+05 1.45144E+00 3.59095E+05 7.06915E-01
 -1       299-2.72528E+00 3.99970E+05 3.20020E+05 6.87739E+00 3.59104E+05 1.93716E+00
 -1       300 7.09560E-01 4.01318E+05 4.09721E+05 5.04197E-01 4.05392E+05 2.14836E-01
 -1       301-6.26000E-01 2.03791E+05 1.55844E+05-1.41916E-01 1.79975E+05-3.23934E-01
 -1       302-4.70840E+00 3.53394E+05 2.00023E+05 1.80733E+00 2.66336E+05 2.14842E+00
 -1       303-4.29044E+00 3.53433E+05 2.00026E+05 1.02141E+01 2.66346E+05 2.60701E+00
 -1       304 1.95765E+00 3.75798E+05 2.59718E+05-2.07505E+00 3.12544E+05-9.99547E-01
 -1       305-2.75978E+00 1.81001E+05 9.69360E+04-1.08715E-01 1.33214E+05 1.17986E+00
 -1       306-9.95860E+00 2.81092E+05 1.21333E+05 1.88379E+01 1.84592E+05 6.91432E+00
 -1       307-1.12919E+01 2.81131E+05 1.21340E+05 1.33069E+01 1.84611E+05 5.82111E+00
 -1       308 2.72605E+00 3.16705E+05 1.60533E+05 2.50235E-01 2.25730E+05-1.16674E+00
 -1       309-4.37271E+00 1.45127E+05 5.83787E+04 1.23598E+01 9.21655E+04 3.38275E+00
 -1       310-9.54759E+00 1.94074E+05 6.89866E+04-1.99714E+01 1.15436E+05 1.20508E+00
 -1       311-4.47190E+00 1.94154E+05 6.89874E+04 2.13916E+01 1.15436E+05 1.43133E+00
 -1       312 7.49479E+00 2.37507E+05 9.51692E+04-1.95062E+01 1.50650E+05-5.98433E+00
 -1       313-1.25168E+01 1.02024E+05 3.25340E+04-1.59443E+01 5.74288E+04 4.31127E+00
 -1       314-3.77296E+01 1.01399E+05 3.03312E+04 1.59753E+02 5.49662E+04 3.69873E+01
 -1       315-5.56991E+01 1.01381E+05 3.03598E+04 1.77898E+01 5.50588E+04 2.77473E+01
 -1       316 1.00459E+00 1.48190E+05 4.99355E+04 4.03054E+01 8.62374E+04 5.27706E+00
 -1       317-2.08700E+00 5.54189E+04 1.39087E+04 1.13940E+02 2.75193E+04 1.19295E+01
 -1       318 1.32332E+02 1.57548E+04 1.31471E+03-7.40465E+02 6.46349E+03-7.41233E+01
 -1       319 1.97341E+02 1.51976E+04 1.21880E+03-3.12515E+02 5.89521E+03-9.37945E+01
 -1       320 4.17164E+01 5.21604E+04 1.72985E+04-2.03323E+02 3.03489E+04-4.47014E+01
 -1       321-2.18002E+01 7.62108E+03-1.92258E+03-4.97670E+02 9.02966E+02 1.85613E+01
 -3
    1PSTEP                        15           8           1          
  100CL  108 4.00000E-01         321                     0    8           1
 -4  DISP        4    1
 -5  D1          1    2    1    0
 -5  D2          1    2    2    0
 -5  D3          1    2    3    0
 -5  ALL         1    2    0    0    1ALL
 -1         1 0.00000E+00 0.00000E+00 0.00000E+00
 -1         2 0.00000E+00 0.00000E+00 0.00000E+00
 -1         3-4.75750E-08 1.26731E-01-1.08105E-02
 -1         4-1.12371E-07 1.24432E-01-2.90087E-02
 -1         5 0.00000E+00 0.00000E+00 0.00000E+00
 -1         6 0.00000E+00 0.00000E+00 0.00000E+00
 -1         7 1.48597E-14 1.26731E-01-1.08105E-02
 -1         8 1.83116E-14 1.24432E-01-2.90087E-02
 -1         9 0.00000E+00 0.00000E+00 0.00000E+00
 -1        10 1.03877E-08 3.26010E-02-1.47501E-03
 -1        11-7.99702E-08 1.25580E-01-1.99068E-02
 -1        12 2.66135E-08 3.19841E-02-1.09581E-02
 -1        13 0.00000E+00 0.00000E+00 0.00000E+00
 -1        14 0.00000E+00 0.00000E+00 0.00000E+00
 -1        15-2.37882E-08 1.26731E-01-1.08105E-02
 -1        16-5.61867E-08 1.24432E-01-2.90087E-02
 -1        17 0.00000E+00 0.00000E+00 0.00000E+00
 -1        18 4.04684E-15 3.26010E-02-1.47502E-03
 -1        19 1.66040E-14 1.25580E-01-1.99068E-02
 -1        20 5.59649E-15 3.19842E-02-1.09581E-02
 -1        21-1.06326E-07 4.75287E-01-7.55782E-02
 -1        22-2.36095E-07 4.67606E-01-1.08299E-01
 -1        23 5.14866E-14 4.75287E-01-7.55781E-02
 -1        24 5.75848E-14 4.67606E-01-1.08299E-01
 -1        25 3.71812E-08 2.76457E-01-3.40572E-02
 -1        26-1.71204E-07 4.71447E-01-9.19367E-02
 -1        27 8.57358E-08 2.71779E-01-5.99513E-02
 -1        28-5.31632E-08 4.75287E-01-7.55781E-02
 -1        29-1.18047E-07 4.67606E-01-1.08299E-01
 -1        30 3.13553E-14 2.76457E-01-3.40573E-02
 -1        31 5.46127E-14 4.71446E-01-9.19366E-02
 -1        32 3.64174E-14 2.71780E-01-5.99514E-02
 -1        33-1.74757E-07 9.96134E-01-2.23459E-01
 -1        34-3.70692E-07 9.81777E-01-2.67153E-01
 -1        35 9.96417E-14 9.96134E-01-2.23459E-01
 -1        36 1.10449E-13 9.81777E-01-2.67153E-01
 -1        37 6.91406E-08 7.17162E-01-1.38193E-01
 -1        38-2.72733E-07 9.88956E-01-2.45304E-01
 -1        39 1.50355E-07 7.06285E-01-1.76813E-01
 -1        40-8.73773E-08 9.96134E-01-2.23459E-01
 -1        41-1.85344E-07 9.81777E-01-2.67153E-01
 -1        42 7.44117E-14 7.17162E-01-1.38193E-01
 -1        43 1.04902E-13 9.88956E-01-2.45304E-01
 -1        44 8.23085E-14 7.06285E-01-1.76813E-01
 -1        45-2.51500E-07 1.64469E+00-4.63401E-01
 -1        46-5.16088E-07 1.62355E+00-5.15069E-01
 -1        47 1.47061E-13 1.64469E+00-4.63401E-01
 -1        48 1.62631E-13 1.62355E+00-5.15069E-01
 -1        49 1.05621E-07 1.30693E+00-3.31940E-01
 -1        50-3.83739E-07 1.63412E+00-4.89234E-01
 -1        51 2.20343E-07 1.28921E+00-3.79980E-01
 -1        52-1.25749E-07 1.64469E+00-4.63401E-01
 -1        53-2.58045E-07 1.62355E+00-5.15069E-01
 -1        54 1.22464E-13 1.30693E+00-3.31940E-01
 -1        55 1.55214E-13 1.63412E+00-4.89234E-01
 -1        56 1.34914E-13 1.28921E+00-3.79980E-01
 -1        57-3.34852E-07 2.38472E+00-7.91598E-01
 -1        58-6.71110E-07 2.35742E+00-8.48893E-01
 -1        59 1.90207E-13 2.38472E+00-7.91598E-01
 -1        60 2.05002E-13 2.35741E+00-8.48893E-01
 -1        61 1.45893E-07 2.00520E+00-6.17033E-01
 -1        62-5.03147E-07 2.37107E+00-8.20245E-01
 -1        63 2.95741E-07 1.98093E+00-6.71814E-01
 -1        64-1.67420E-07 2.38472E+00-7.91598E-01
 -1        65-3.35543E-07 2.35741E+00-8.48893E-01
 -1        66 1.69290E-13 2.00520E+00-6.17033E-01
 -1        67 1.97670E-13 2.37107E+00-8.20244E-01
 -1        68 1.84951E-13 1.98093E+00-6.71814E-01
 -1        69-4.22115E-07 3.18850E+00-1.19716E+00
 -1        70-8.35906E-07 3.15599E+00-1.25832E+00
 -1        71 2.21669E-13 3.18850E+00-1.19716E+00
 -1        72 2.38921E-13 3.15599E+00-1.25832E+00
 -1        73 1.88994E-07 2.78008E+00-9.85548E-01
 -1        74-6.28366E-07 3.17225E+00-1.22774E+00
 -1        75 3.75403E-07 2.75008E+00-1.04502E+00
 -1        76-2.11060E-07 3.18850E+00-1.19716E+00
 -1        77-4.17989E-07 3.15599E+00-1.25832E+00
 -1        78 2.12749E-13 2.78008E+00-9.85548E-01
 -1        79 2.30605E-13 3.17225E+00-1.22774E+00
 -1        80 2.26796E-13 2.75008E+00-1.04502E+00
 -1        81-5.09427E-07 4.03548E+00-1.66578E+00
 -1        82-1.00106E-06 3.99889E+00-1.72952E+00
 -1        83 2.35923E-13 4.03548E+00-1.66578E+00
 -1        84 2.53344E-13 3.99889E+00-1.72952E+00
 -1        85 2.33138E-07 3.60765E+00-1.42454E+00
 -1        86-7.57525E-07 4.01719E+00-1.69765E+00
 -1        87 4.60395E-07 3.57299E+00-1.48720E+00
 -1        88-2.54685E-07 4.03548E+00-1.66578E+00
 -1        89-5.00381E-07 3.99889E+00-1.72952E+00
 -1        90 2.23022E-13 3.60765E+00-1.42454E+00
 -1        91 2.46574E-13 4.01719E+00-1.69765E+00
 -1        92 2.35894E-13 3.57299E+00-1.48720E+00
 -1        93-5.90013E-07 4.91055E+00-2.18184E+00
 -1        94-1.18414E-06 4.87105E+00-2.24719E+00
 -1        95 2.25509E-13 4.91055E+00-2.18184E+00
 -1        96 2.50800E-13 4.87105E+00-2.24719E+00
 -1        97 2.76454E-07 4.47030E+00-1.91887E+00
 -1        98-8.78610E-07 4.89080E+00-2.21452E+00
 -1        99 5.40999E-07 4.43212E+00-1.98359E+00
 -1       100-2.95062E-07 4.91055E+00-2.18184E+00
 -1       101-5.92625E-07 4.87105E+00-2.24719E+00
 -1       102 2.31225E-13 4.47030E+00-1.91887E+00
 -1       103 2.38077E-13 4.89080E+00-2.21452E+00
 -1       104 2.44817E-13 4.43212E+00-1.98359E+00
 -1       105-6.56197E-07 5.80238E+00-2.72942E+00
 -1       106-1.29666E-06 5.76116E+00-2.79565E+00
 -1       107 2.06733E-13 5.80238E+00-2.72942E+00
 -1       108 2.19987E-13 5.76115E+00-2.79565E+00
 -1       109 3.13239E-07 5.35499E+00-2.45267E+00
 -1       110-1.00770E-06 5.78177E+00-2.76254E+00
 -1       111 6.42039E-07 5.31447E+00-2.51862E+00
 -1       112-3.27929E-07 5.80238E+00-2.72942E+00
 -1       113-6.46187E-07 5.76116E+00-2.79565E+00
 -1       114 2.20008E-13 5.35499E+00-2.45267E+00
 -1       115 2.13050E-13 5.78177E+00-2.76254E+00
 -1       116 2.38567E-13 5.31447E+00-2.51862E+00
 -1       117-6.92393E-07 6.70204E+00-3.29269E+00
 -1       118-1.62778E-06 6.66025E+00-3.35920E+00
 -1       119 1.77481E-13 6.70204E+00-3.29269E+00
 -1       120 1.83820E-13 6.66025E+00-3.35920E+00
 -1       121 3.44606E-07 6.25176E+00-3.01006E+00
 -1       122-1.04277E-06 6.68114E+00-3.32595E+00
 -1       123 6.57770E-07 6.21008E+00-3.07659E+00
 -1       124-3.46481E-07 6.70204E+00-3.29269E+00
 -1       125-8.22115E-07 6.66025E+00-3.35920E+00
 -1       126 2.04875E-13 6.25176E+00-3.01006E+00
 -1       127 1.79388E-13 6.68114E+00-3.32595E+00
 -1       128 2.08485E-13 6.21008E+00-3.07659E+00
 -1       129 0.00000E+00 0.00000E+00 0.00000E+00
 -1       130 0.00000E+00 0.00000E+00 0.00000E+00
 -1       131 4.75750E-08 1.26731E-01-1.08105E-02
 -1       132 1.12371E-07 1.24432E-01-2.90087E-02
 -1       133 0.00000E+00 0.00000E+00 0.00000E+00
 -1       134 0.00000E+00 0.00000E+00 0.00000E+00
 -1       135 2.37882E-08 1.26731E-01-1.08105E-02
 -1       136 5.61867E-08 1.24432E-01-2.90087E-02
 -1       137 0.00000E+00 0.00000E+00 0.00000E+00
 -1       138-1.03877E-08 3.26010E-02-1.47501E-03
 -1       139 7.99702E-08 1.25580E-01-1.99068E-02
 -1       140-2.66135E-08 3.19841E-02-1.09581E-02
 -1       141 1.06326E-07 4.75287E-01-7.55782E-02
 -1       142 2.36095E-07 4.67606E-01-1.08299E-01
 -1       143 5.31633E-08 4.75287E-01-7.55781E-02
 -1       144 1.18047E-07 4.67606E-01-1.08299E-01
 -1       145-3.71812E-08 2.76457E-01-3.40572E-02
 -1       146 1.71204E-07 4.71447E-01-9.19367E-02
 -1       147-8.57357E-08 2.71779E-01-5.99513E-02
 -1       148 1.74757E-07 9.96134E-01-2.23459E-01
 -1       149 3.70692E-07 9.81777E-01-2.67153E-01
 -1       150 8.73775E-08 9.96134E-01-2.23459E-01
 -1       151 1.85344E-07 9.81777E-01-2.67153E-01
 -1       152-6.91405E-08 7.17162E-01-1.38193E-01
 -1       153 2.72734E-07 9.88956E-01-2.45304E-01
 -1       154-1.50355E-07 7.06285E-01-1.76813E-01
 -1       155 2.51501E-07 1.64469E+00-4.63401E-01
 -1       156 5.16088E-07 1.62355E+00-5.15069E-01
 -1       157 1.25749E-07 1.64469E+00-4.63401E-01
 -1       158 2.58045E-07 1.62355E+00-5.15069E-01
 -1       159-1.05620E-07 1.30693E+00-3.31940E-01
 -1       160 3.83739E-07 1.63412E+00-4.89234E-01
 -1       161-2.20343E-07 1.28921E+00-3.79980E-01
 -1       162 3.34852E-07 2.38472E+00-7.91598E-01
 -1       163 6.71110E-07 2.35742E+00-8.48893E-01
 -1       164 1.67421E-07 2.38472E+00-7.91598E-01
 -1       165 3.35543E-07 2.35741E+00-8.48893E-01
 -1       166-1.45893E-07 2.00520E+00-6.17033E-01
 -1       167 5.03147E-07 2.37107E+00-8.20245E-01
 -1       168-2.95741E-07 1.98093E+00-6.71814E-01
 -1       169 4.22115E-07 3.18850E+00-1.19716E+00
 -1       170 8.35906E-07 3.15599E+00-1.25832E+00
 -1       171 2.11060E-07 3.18850E+00-1.19716E+00
 -1       172 4.17989E-07 3.15599E+00-1.25832E+00
 -1       173-1.88993E-07 2.78008E+00-9.85548E-01
 -1       174 6.28366E-07 3.17225E+00-1.22774E+00
 -1       175-3.75403E-07 2.75008E+00-1.04502E+00
 -1       176 5.09428E-07 4.03548E+00-1.66578E+00
 -1       177 1.00106E-06 3.99889E+00-1.72952E+00
 -1       178 2.54686E-07 4.03548E+00-1.66578E+00
 -1       179 5.00382E-07 3.99889E+00-1.72952E+00
 -1       180-2.33138E-07 3.60765E+00-1.42454E+00
 -1       181 7.57526E-07 4.01719E+00-1.69765E+00
 -1       182-4.60395E-07 3.57299E+00-1.48720E+00
 -1       183 5.90014E-07 4.91055E+00-2.18184E+00
 -1       184 1.18414E-06 4.87105E+00-2.24719E+00
 -1       185 2.95062E-07 4.91055E+00-2.18184E+00
 -1       186 5.92625E-07 4.87105E+00-2.24719E+00
 -1       187-2.76454E-07 4.47030E+00-1.91887E+00
 -1       188 8.78610E-07 4.89080E+00-2.21452E+00
 -1       189-5.40998E-07 4.43212E+00-1.98359E+00
 -1       190 6.56197E-07 5.80238E+00-2.72942E+00
 -1       191 1.29666E-06 5.76116E+00-2.79565E+00
 -1       192 3.27929E-07 5.80238E+00-2.72942E+00
 -1       193 6.46187E-07 5.76116E+00-2.79565E+00
 -1       194-3.13239E-07 5.35499E+00-2.45267E+00
 -1       195 1.00770E-06 5.78177E+00-2.76254E+00
 -1       196-6.42039E-07 5.31447E+00-2.51862E+00
 -1       197 6.92394E-07 6.70204E+00-3.29269E+00
 -1       198 1.62778E-06 6.66025E+00-3.35920E+00
 -1       199 3.46482E-07 6.70204E+00-3.29269E+00
 -1       200 8.22115E-07 6.66025E+00-3.35920E+00
 -1       201-3.44606E-07 6.25176E+00-3.01006E+00
 -1       202 1.04277E-06 6.68114E+00-3.32595E+00
 -1       203-6.57769E-07 6.21008E+00-3.07659E+00
 -1       204 0.00000E+00 0.00000E+00 0.00000E+00
 -1       205-1.19039E-07 1.29022E-01 7.37561E-03
 -1       206 0.00000E+00 0.00000E+00 0.00000E+00
 -1       207 1.17170E-14 1.29022E-01 7.37575E-03
 -1       208 0.00000E+00 0.00000E+00 0.00000E+00
 -1       209 2.89801E-08 3.32201E-02 8.01308E-03
 -1       210-8.33097E-08 1.27878E-01-1.72015E-03
 -1       211 0.00000E+00 0.00000E+00 0.00000E+00
 -1       212-5.95175E-08 1.29022E-01 7.37568E-03
 -1       213 0.00000E+00 0.00000E+00 0.00000E+00
 -1       214 2.47555E-15 3.32202E-02 8.01304E-03
 -1       215 1.33212E-14 1.27878E-01-1.72007E-03
 -1       216-2.43913E-07 4.82954E-01-4.28682E-02
 -1       217 4.53507E-14 4.82953E-01-4.28680E-02
 -1       218 9.00744E-08 2.81141E-01-8.15679E-03
 -1       219-1.75123E-07 4.79120E-01-5.92251E-02
 -1       220-1.21955E-07 4.82953E-01-4.28681E-02
 -1       221 2.61080E-14 2.81142E-01-8.15688E-03
 -1       222 4.85106E-14 4.79120E-01-5.92250E-02
 -1       223-3.73125E-07 1.01048E+00-1.79769E-01
 -1       224 8.94373E-14 1.01048E+00-1.79769E-01
 -1       225 1.53849E-07 7.28047E-01-9.95695E-02
 -1       226-2.73923E-07 1.00331E+00-2.01616E-01
 -1       227-1.86562E-07 1.01048E+00-1.79769E-01
 -1       228 6.67672E-14 7.28047E-01-9.95696E-02
 -1       229 9.42501E-14 1.00331E+00-2.01616E-01
 -1       230-5.03816E-07 1.66581E+00-4.11728E-01
 -1       231 1.32238E-13 1.66581E+00-4.11728E-01
 -1       232 2.19287E-07 1.32466E+00-2.83900E-01
 -1       233-3.77710E-07 1.65525E+00-4.37566E-01
 -1       234-2.51902E-07 1.66581E+00-4.11728E-01
 -1       235 1.10346E-13 1.32466E+00-2.83900E-01
 -1       236 1.40123E-13 1.65525E+00-4.37566E-01
 -1       237-6.32542E-07 2.41202E+00-7.34290E-01
 -1       238 1.75728E-13 2.41202E+00-7.34290E-01
 -1       239 2.84555E-07 2.02947E+00-5.62256E-01
 -1       240-4.83499E-07 2.39837E+00-7.62945E-01
 -1       241-3.16281E-07 2.41202E+00-7.34290E-01
 -1       242 1.53687E-13 2.02947E+00-5.62256E-01
 -1       243 1.83102E-13 2.39837E+00-7.62945E-01
 -1       244-7.51738E-07 3.22102E+00-1.13598E+00
 -1       245 2.07917E-13 3.22102E+00-1.13598E+00
 -1       246 3.48016E-07 2.81008E+00-9.26081E-01
 -1       247-5.87619E-07 3.20476E+00-1.16657E+00
 -1       248-3.75814E-07 3.22102E+00-1.13598E+00
 -1       249 1.98000E-13 2.81008E+00-9.26082E-01
 -1       250 2.15246E-13 3.20476E+00-1.16657E+00
 -1       251-8.59577E-07 4.07209E+00-1.60202E+00
 -1       252 2.23179E-13 4.07209E+00-1.60202E+00
 -1       253 4.03806E-07 3.64232E+00-1.36190E+00
 -1       254-6.82028E-07 4.05379E+00-1.63390E+00
 -1       255-4.29960E-07 4.07209E+00-1.60202E+00
 -1       256 2.08249E-13 3.64232E+00-1.36190E+00
 -1       257 2.31568E-13 4.05379E+00-1.63390E+00
 -1       258-9.20954E-07 4.95008E+00-2.11646E+00
 -1       259 2.02025E-13 4.95008E+00-2.11646E+00
 -1       260 4.55863E-07 4.50846E+00-1.85416E+00
 -1       261-7.64397E-07 4.93031E+00-2.14915E+00
 -1       262-4.59824E-07 4.95008E+00-2.11646E+00
 -1       263 2.17986E-13 4.50846E+00-1.85416E+00
 -1       264 2.14281E-13 4.93031E+00-2.14915E+00
 -1       265-1.00107E-06 5.84367E+00-2.66315E+00
 -1       266 1.96205E-13 5.84366E+00-2.66315E+00
 -1       267 4.65038E-07 5.39548E+00-2.38673E+00
 -1       268-7.96297E-07 5.82303E+00-2.69628E+00
 -1       269-5.02830E-07 5.84367E+00-2.66315E+00
 -1       270 1.97295E-13 5.39548E+00-2.38673E+00
 -1       271 2.00281E-13 5.82302E+00-2.69628E+00
 -1       272-7.73249E-07 6.74392E+00-3.22613E+00
 -1       273 1.71703E-13 6.74391E+00-3.22613E+00
 -1       274 5.37869E-07 6.29341E+00-2.94355E+00
 -1       275-8.51504E-07 6.72298E+00-3.25941E+00
 -1       276-3.78366E-07 6.74392E+00-3.22613E+00
 -1       277 1.98774E-13 6.29341E+00-2.94355E+00
 -1       278 1.73025E-13 6.72297E+00-3.25941E+00
 -1       279 0.00000E+00 0.00000E+00 0.00000E+00
 -1       280 1.19039E-07 1.29022E-01 7.37561E-03
 -1       281 0.00000E+00 0.00000E+00 0.00000E+00
 -1       282 5.95175E-08 1.29022E-01 7.37568E-03
 -1       283 0.00000E+00 0.00000E+00 0.00000E+00
 -1       284-2.89801E-08 3.32201E-02 8.01308E-03
 -1       285 8.33097E-08 1.27878E-01-1.72015E-03
 -1       286 2.43913E-07 4.82954E-01-4.28682E-02
 -1       287 1.21955E-07 4.82953E-01-4.28681E-02
 -1       288-9.00743E-08 2.81141E-01-8.15679E-03
 -1       289 1.75123E-07 4.79120E-01-5.92251E-02
 -1       290 3.73125E-07 1.01048E+00-1.79769E-01
 -1       291 1.86562E-07 1.01048E+00-1.79769E-01
 -1       292-1.53849E-07 7.28047E-01-9.95695E-02
 -1       293 2.73923E-07 1.00331E+00-2.01616E-01
 -1       294 5.03817E-07 1.66581E+00-4.11728E-01
 -1       295 2.51902E-07 1.66581E+00-4.11728E-01
 -1       296-2.19287E-07 1.32466E+00-2.83900E-01
 -1       297 3.77711E-07 1.65525E+00-4.37566E-01
 -1       298 6.32542E-07 2.41202E+00-7.34290E-01
 -1       299 3.16281E-07 2.41202E+00-7.34290E-01
 -1       300-2.84554E-07 2.02947E+00-5.62256E-01
 -1       301 4.83499E-07 2.39837E+00-7.62945E-01
 -1       302 7.51738E-07 3.22102E+00-1.13598E+00
 -1       303 3.75815E-07 3.22102E+00-1.13598E+00
 -1       304-3.48016E-07 2.81008E+00-9.26081E-01
 -1       305 5.87619E-07 3.20476E+00-1.16657E+00
 -1       306 8.59577E-07 4.07209E+00-1.60202E+00
 -1       307 4.29961E-07 4.07209E+00-1.60202E+00
 -1       308-4.03805E-07 3.64232E+00-1.36190E+00
 -1       309 6.82028E-07 4.05379E+00-1.63390E+00
 -1       310 9.20954E-07 4.95008E+00-2.11646E+00
 -1       311 4.59825E-07 4.95008E+00-2.11646E+00
 -1       312-4.55863E-07 4.50846E+00-1.85416E+00
 -1       313 7.64397E-07 4.93031E+00-2.14915E+00
 -1       314 1.00107E-06 5.84367E+00-2.66315E+00
 -1       315 5.02830E-07 5.84367E+00-2.66315E+00
 -1       316-4.65037E-07 5.39548E+00-2.38673E+00
 -1       317 7.96298E-07 5.82303E+00-2.69628E+00
 -1       318 7.73250E-07 6.74392E+00-3.22613E+00
 -1       319 3.78366E-07 6.74392E+00-3.22613E+00
 -1       320-5.37869E-07 6.29341E+00-2.94355E+00
 -1       321 8.51504E-07 6.72298E+00-3.25941E+00
 -3
    1PSTEP                        16           8           1          
  100CL  108 4.00000E-01         321                     0    8           1
 -4  STRESS      6    1
 -5  SXX         1    4    1    1
 -5  SYY         1    4    2    2
 -5  SZZ         1    4    3    3
 -5  SXY         1    4    1    2
 -5  SYZ         1    4    2    3
 -5  SZX         1    4    3    1
 -1         1 1.12335E+02-1.39025E+04-1.95417E+06-3.92705E+01-7.74011E+03 3.44760E+01
 -1         2 4.55903E+01-3.32133E+04-2.94812E+04-9.55391E+00 8.54963E+03 2.33539E+01
 -1         3 3.72837E+00-1.22074E+04-2.67911E+04 8.02551E-01 1.27080E+04 3.24167E+00
 -1         4 3.73918E+00-9.13656E+04-1.57702E+06 2.54318E+00-4.14808E+05 5.81495E+00
 -1         5 1.12335E+02-1.38269E+04-1.95418E+06-1.06306E-08-7.73687E+03 5.76281E-08
 -1         6 4.55903E+01-3.32095E+04-2.94912E+04 7.21277E-08 8.56564E+03 2.29597E-08
 -1         7 3.71755E+00-1.22067E+04-2.67979E+04 1.17510E-07 1.27075E+04 3.67734E-08
 -1         8 3.71851E+00-9.13551E+04-1.57703E+06 8.49729E-08-4.14800E+05 2.18884E-07
 -1         9 7.88548E+01-2.21084E+04-9.91854E+05-1.27812E+01 1.57513E+03 2.79843E+01
 -1        10-2.00144E+00-1.34193E+04-2.67383E+04-6.83129E-02 8.65709E+03-1.45020E+00
 -1        11 3.74234E+00-5.20084E+04-8.01754E+05 1.32514E+00-2.01439E+05 3.71179E+00
 -1        12-1.94801E+00-4.37901E+04-1.77491E+06-7.59633E-01-2.18076E+05-2.85993E+00
 -1        13 1.12335E+02-1.38647E+04-1.95418E+06-5.10615E+01-7.73849E+03 3.01986E+01
 -1        14 4.55903E+01-3.32114E+04-2.94862E+04-9.20308E+00 8.55764E+03 2.11031E+01
 -1        15 3.72296E+00-1.22071E+04-2.67945E+04-5.33465E-01 1.27078E+04 8.39555E-01
 -1        16 3.72885E+00-9.13603E+04-1.57702E+06 1.63279E-01-4.14804E+05 1.43461E+00
 -1        17 7.88548E+01-2.20348E+04-9.91862E+05 2.56583E-08 1.57340E+03 3.99467E-08
 -1        18-2.00685E+00-1.34192E+04-2.67338E+04 3.94460E-08 8.65746E+03 8.39073E-09
 -1        19 3.72657E+00-5.20024E+04-8.01760E+05 1.72257E-07-2.01435E+05 9.18073E-08
 -1        20-1.95836E+00-4.37925E+04-1.77490E+06 7.60449E-08-2.18080E+05 1.37163E-07
 -1        21 3.22807E+00-4.21326E+02-2.11990E+04 2.00018E+00 6.84847E+03 3.35951E+00
 -1        22 3.56910E+00-2.75545E+05-1.12351E+06 4.18752E+00-5.66151E+05 5.34032E+00
 -1        23 3.22511E+00-4.17586E+02-2.12023E+04-3.25866E-07 6.84884E+03 1.70717E-08
 -1        24 3.57891E+00-2.75523E+05-1.12352E+06-2.32085E-07-5.66144E+05-4.77754E-08
 -1        25-1.71422E+00-8.00056E+03-2.30756E+04-7.21846E-01 8.82177E+03-1.72835E+00
 -1        26 3.40749E+00-1.38272E+05-5.72149E+05 2.68274E+00-2.79748E+05 3.76803E+00
 -1        27-1.80577E+00-1.89291E+05-1.34287E+06-1.75963E+00-4.93394E+05-2.87487E+00
 -1        28 3.22659E+00-4.19456E+02-2.12006E+04-4.75361E-01 6.84865E+03 1.05764E+00
 -1        29 3.57400E+00-2.75534E+05-1.12352E+06-3.11407E-01-5.66148E+05 1.30932E+00
 -1        30-1.72111E+00-8.00149E+03-2.30733E+04-2.81410E-08 8.82193E+03 1.00939E-08
 -1        31 3.41088E+00-1.38258E+05-5.72152E+05-2.99961E-07-2.79745E+05 1.52513E-08
 -1        32-1.81119E+00-1.89300E+05-1.34286E+06-3.19898E-08-4.93397E+05 1.12267E-07
 -1        33 2.77249E+00 3.95794E+03-1.65800E+04 2.65141E+00 4.14456E+03 2.83587E+00
 -1        34 3.51272E+00-4.05649E+05-7.42908E+05 4.76771E+00-5.55054E+05 4.21373E+00
 -1        35 2.78876E+00 3.96640E+03-1.65809E+04-4.32394E-07 4.14648E+03-2.02137E-07
 -1        36 3.54294E+00-4.05615E+05-7.42909E+05 1.14166E-06-5.55047E+05 4.55253E-07
 -1        37-1.50009E+00-2.13907E+02-1.82961E+04-1.23843E+00 5.17358E+03-1.58507E+00
 -1        38 3.13856E+00-2.01041E+05-3.79633E+05 3.28398E+00-2.75384E+05 3.14258E+00
 -1        39-1.76703E+00-3.45155E+05-9.27356E+05-2.36426E+00-5.59269E+05-2.41037E+00
 -1        40 2.78063E+00 3.96217E+03-1.65804E+04-7.47125E-01 4.14552E+03 9.07208E-01
 -1        41 3.52783E+00-4.05632E+05-7.42908E+05-1.28491E+00-5.55051E+05 8.72895E-01
 -1        42-1.49344E+00-2.16771E+02-1.82952E+04-1.08194E-07 5.17300E+03-9.45557E-08
 -1        43 3.16179E+00-2.01019E+05-3.79635E+05 2.11672E-07-2.75381E+05 2.65376E-07
 -1        44-1.74700E+00-3.45169E+05-9.27355E+05 8.17944E-08-5.59273E+05 1.82360E-07
 -1        45 2.20373E+00 7.07991E+03-1.21565E+04 2.79811E+00 1.73649E+03 1.98258E+00
 -1        46 3.21945E+00-4.57465E+05-4.68604E+05 4.60694E+00-4.66566E+05 2.98923E+00
 -1        47 2.22466E+00 7.09470E+03-1.21560E+04-1.32841E-07 1.74008E+03-1.23510E-07
 -1        48 3.20417E+00-4.57419E+05-4.68603E+05-2.09928E-07-4.66558E+05 6.93806E-07
 -1        49-1.25815E+00 3.65768E+03-1.43574E+04-1.36155E+00 3.06273E+03-1.22106E+00
 -1        50 2.75158E+00-2.25285E+05-2.40360E+05 3.29231E+00-2.32308E+05 2.28584E+00
 -1        51-1.73889E+00-4.33859E+05-6.02428E+05-2.31875E+00-5.07779E+05-1.77622E+00
 -1        52 2.21420E+00 7.08731E+03-1.21563E+04-1.42777E+00 1.73828E+03 5.09385E-01
 -1        53 3.21181E+00-4.57442E+05-4.68604E+05-2.92842E+00-4.66562E+05 3.57018E-01
 -1        54-1.23955E+00 3.65197E+03-1.43573E+04-2.49263E-07 3.06133E+03-4.10958E-08
 -1        55 2.75438E+00-2.25253E+05-2.40360E+05 1.11402E-07-2.32304E+05-2.97606E-08
 -1        56-1.73145E+00-4.33879E+05-6.02428E+05 7.91259E-07-5.07782E+05 4.91753E-07
 -1        57 1.30425E+00 8.60418E+03-8.73162E+03 1.49621E+00 4.01661E+02 1.11519E+00
 -1        58 2.89389E+00-4.42209E+05-2.86602E+05 2.08309E+00-3.58524E+05 1.69432E+00
 -1        59 1.39184E+00 8.62727E+03-8.73038E+03-1.81553E-07 4.06832E+02 1.20963E-07
 -1        60 3.08524E+00-4.42147E+05-2.86600E+05 1.42269E-06-3.58515E+05 4.09926E-07
 -1        61-9.37677E-01 6.20629E+03-1.08490E+04-1.37122E+00 1.38966E+03-7.39935E-01
 -1        62 1.98162E+00-2.16839E+05-1.47682E+05 1.39882E+00-1.78969E+05 1.35085E+00
 -1        63-1.48850E+00-4.50291E+05-3.76486E+05-2.19046E+00-4.09424E+05-1.20052E+00
 -1        64 1.34804E+00 8.61572E+03-8.73100E+03-2.74691E+00 4.04247E+02 1.50258E-01
 -1        65 2.98957E+00-4.42178E+05-2.86601E+05-5.12684E+00-3.58520E+05-3.09757E-01
 -1        66-8.83433E-01 6.19701E+03-1.08494E+04-1.01903E-07 1.38741E+03-2.25378E-07
 -1        67 2.12113E+00-2.16796E+05-1.47681E+05-3.48442E-07-1.78964E+05 3.50053E-07
 -1        68-1.40039E+00-4.50317E+05-3.76487E+05 1.04524E-06-4.09429E+05 4.30668E-07
 -1        69 1.76178E-02 9.48115E+03-6.14973E+03 1.79927E+00-3.44262E+02-1.73909E-01
 -1        70 1.11736E+00-3.82771E+05-1.71450E+05 3.43193E+00-2.58049E+05 1.41023E+00
 -1        71-2.28936E-02 9.51347E+03-6.14758E+03 1.70642E-06-3.36760E+02-6.85399E-08
 -1        72 5.43004E-01-3.82693E+05-1.71447E+05-2.75122E-06-2.58035E+05-1.18244E-06
 -1        73-3.44149E-01 7.63054E+03-8.14349E+03-6.47990E-02 3.73509E+02-3.58567E-01
 -1        74 1.01644E+00-1.86693E+05-8.87856E+04 2.29543E+00-1.29108E+05 7.91987E-01
 -1        75-1.34451E+00-4.11831E+05-2.29290E+05 2.02746E-01-3.05744E+05-5.07475E-01
 -1        76-2.63791E-03 9.49731E+03-6.14866E+03-4.23519E+00-3.40511E+02-8.48770E-01
 -1        77 8.30182E-01-3.82732E+05-1.71449E+05-8.52498E+00-2.58042E+05-4.37476E-01
 -1        78-3.20544E-01 7.61650E+03-8.14417E+03 2.70936E-07 3.70541E+02-2.40916E-07
 -1        79 7.08918E-01-1.86636E+05-8.87854E+04-8.71615E-07-1.29100E+05-4.73781E-07
 -1        80-1.53630E+00-4.11867E+05-2.29291E+05-2.59561E-07-3.05748E+05 8.38174E-10
 -1        81-2.23386E+00 1.00223E+04-4.37170E+03-7.66188E+00-6.63435E+02 7.05923E-02
 -1        82 1.89976E+00-2.98452E+05-9.96590E+04-1.52605E+01-1.73914E+05-1.78524E+00
 -1        83-1.78245E+00 1.00690E+04-4.37040E+03-2.36391E-07-6.55033E+02-1.58140E-06
 -1        84 4.27714E+00-2.98343E+05-9.96546E+04 4.98827E-06-1.73904E+05 3.61371E-06
 -1        85 2.81804E-01 8.45135E+03-6.14315E+03-1.61586E+00-2.60501E+02 5.44382E-01
 -1        86-1.74976E+00-1.44247E+05-5.19903E+04-1.19750E+01-8.72170E+04-7.31352E-01
 -1        87 4.22150E-02-3.39357E+05-1.36499E+05-3.48892E+00-2.14112E+05-8.65506E-01
 -1        88-2.00816E+00 1.00457E+04-4.37105E+03-7.67160E+00-6.59234E+02 2.21522E-01
 -1        89 3.08845E+00-2.98398E+05-9.96568E+04-1.12778E+01-1.73909E+05-2.58035E+00
 -1        90 4.87050E-01 8.43273E+03-6.14456E+03-3.58152E-07-2.65100E+02-4.17537E-07
 -1        91-3.35146E-01-1.44171E+05-5.19850E+04 8.62065E-07-8.72085E+04-1.40966E-06
 -1        92 9.44696E-01-3.39399E+05-1.36500E+05 2.42436E-06-2.14121E+05 1.48769E-06
 -1        93-4.86358E+00 1.04005E+04-3.21655E+03 1.38764E+01-6.85408E+02-5.82616E+00
 -1        94-8.59851E+00-2.01363E+05-5.45462E+04 3.59921E+01-1.06005E+05 7.33093E+00
 -1        95-5.74461E+00 1.04532E+04-3.20855E+03-6.49539E-06-6.67103E+02 9.09350E-07
 -1        96-1.75041E+01-2.01259E+05-5.45485E+04 6.87096E-06-1.05956E+05 8.94492E-07
 -1        97 2.14984E+00 8.85564E+03-4.74680E+03 9.30481E+00-6.36536E+02-5.85795E-01
 -1        98-9.35909E-01-9.57302E+04-2.86409E+04 2.53186E+01-5.31198E+04 1.86258E+00
 -1        99-1.27266E+00-2.48245E+05-7.82441E+04 1.86828E+01-1.38629E+05 2.51413E+00
 -1       100-5.30409E+00 1.04268E+04-3.21255E+03-7.54620E+00-6.76256E+02-6.81253E+00
 -1       101-1.30513E+01-2.01311E+05-5.45474E+04-2.01458E+01-1.05981E+05 2.70247E+00
 -1       102 1.93573E+00 8.82742E+03-4.74652E+03-2.84926E-06-6.40375E+02-4.46256E-07
 -1       103-5.82959E+00-9.56351E+04-2.86538E+04 4.09626E-07-5.31001E+04 1.63095E-06
 -1       104-4.54015E+00-2.48313E+05-7.82474E+04 3.94480E-06-1.38628E+05 1.88911E-06
 -1       105-9.55057E+00 1.09223E+04-2.70115E+03-8.40712E+01-6.48465E+02 1.05023E+01
 -1       106 1.60482E+01-1.00768E+05-2.25226E+04-1.82173E+02-4.83357E+04-3.03642E+01
 -1       107-6.84197E+00 1.10217E+04-2.71755E+03 2.21306E-06-6.48781E+02 1.54823E-06
 -1       108 5.03955E+01-1.00517E+05-2.24909E+04-9.79294E-06-4.84011E+04-4.22321E-07
 -1       109 1.98903E+00 9.04272E+03-3.92927E+03-2.28758E+01-9.15816E+02 6.41868E+00
 -1       110-1.79521E+01-4.46567E+04-1.28268E+04-1.36546E+02-2.46800E+04-1.11883E+01
 -1       111 7.59990E+00-1.48979E+05-3.96276E+04-5.38274E+01-7.61978E+04-9.38689E+00
 -1       112-8.19627E+00 1.09720E+04-2.70935E+03-2.32036E+01-6.48623E+02 1.56224E+01
 -1       113 3.32219E+01-1.00642E+05-2.25068E+04-1.17110E+01-4.83684E+04-2.01624E+01
 -1       114 2.90031E+00 9.01749E+03-3.93787E+03-3.84116E-08-9.30263E+02 3.03586E-07
 -1       115 5.76642E-01-4.45321E+04-1.27693E+04-2.38873E-06-2.46758E+04 1.50865E-06
 -1       116 2.03330E+01-1.49015E+05-3.96223E+04-3.42170E-06-7.62501E+04 1.04434E-06
 -1       117-2.48691E+01-3.55243E+02-5.86242E+03 3.16062E+02-6.26031E+03-9.30392E+01
 -1       118-2.06712E+02 1.59228E+04 6.14213E+03 6.88967E+02 8.91907E+03 1.01723E+01
 -1       119-2.94223E+01-1.27873E+03-5.77683E+03-1.61110E-06-6.39632E+03-5.36220E-06
 -1       120-3.38357E+02 1.34703E+04 6.03364E+03-9.10707E-07 8.90276E+03 1.21919E-06
 -1       121 1.03022E+01 8.84485E+03-3.29015E+03 1.06958E+02-1.02318E+03-1.70291E+01
 -1       122-3.71292E+01 8.42808E+03-4.24337E+02 5.19336E+02 8.00473E+02-3.06645E+01
 -1       123-1.60639E+01-4.37785E+04-1.31385E+04 2.32851E+02-2.41950E+04 3.83361E+01
 -1       124-2.71457E+01-8.16986E+02-5.81962E+03 1.76462E+02-6.32832E+03-7.98669E+01
 -1       125-2.72534E+02 1.46966E+04 6.08788E+03 2.29277E+02 8.91091E+03 4.22924E+01
 -1       126 9.38185E+00 8.77158E+03-3.26352E+03-1.11399E-06-1.00922E+03-8.69150E-07
 -1       127-1.05230E+02 6.85999E+03-6.03515E+02-4.89944E-07 6.37320E+02-2.01657E-06
 -1       128-6.47223E+01-4.39982E+04-1.31756E+04-3.58853E-06-2.40695E+04-5.04252E-07
 -1       129 1.12335E+02-1.39025E+04-1.95417E+06 3.92705E+01-7.74011E+03-3.44760E+01
 -1       130 4.55903E+01-3.32133E+04-2.94812E+04 9.55391E+00 8.54963E+03-2.33539E+01
 -1       131 3.72837E+00-1.22074E+04-2.67911E+04-8.02551E-01 1.27080E+04-3.24167E+00
 -1       132 3.73918E+00-9.13656E+04-1.57702E+06-2.54318E+00-4.14808E+05-5.81495E+00
 -1       133 1.12335E+02-1.38647E+04-1.95418E+06 5.10615E+01-7.73849E+03-3.01986E+01
 -1       134 4.55903E+01-3.32114E+04-2.94862E+04 9.20308E+00 8.55764E+03-2.11031E+01
 -1       135 3.72296E+00-1.22071E+04-2.67945E+04 5.33465E-01 1.27078E+04-8.39555E-01
 -1       136 3.72885E+00-9.13603E+04-1.57702E+06-1.63279E-01-4.14804E+05-1.43461E+00
 -1       137 7.88548E+01-2.21084E+04-9.91854E+05 1.27812E+01 1.57513E+03-2.79843E+01
 -1       138-2.00144E+00-1.34193E+04-2.67383E+04 6.83127E-02 8.65709E+03 1.45020E+00
 -1       139 3.74234E+00-5.20084E+04-8.01754E+05-1.32514E+00-2.01439E+05-3.71179E+00
 -1       140-1.94801E+00-4.37901E+04-1.77491E+06 7.59633E-01-2.18076E+05 2.85993E+00
 -1       141 3.22807E+00-4.21326E+02-2.11990E+04-2.00018E+00 6.84847E+03-3.35951E+00
 -1       142 3.56910E+00-2.75545E+05-1.12351E+06-4.18752E+00-5.66151E+05-5.34032E+00
 -1       143 3.22659E+00-4.19456E+02-2.12006E+04 4.75361E-01 6.84865E+03-1.05764E+00
 -1       144 3.57400E+00-2.75534E+05-1.12352E+06 3.11407E-01-5.66148E+05-1.30932E+00
 -1       145-1.71422E+00-8.00056E+03-2.30756E+04 7.21846E-01 8.82177E+03 1.72835E+00
 -1       146 3.40749E+00-1.38272E+05-5.72149E+05-2.68274E+00-2.79748E+05-3.76803E+00
 -1       147-1.80577E+00-1.89291E+05-1.34287E+06 1.75963E+00-4.93394E+05 2.87487E+00
 -1       148 2.77249E+00 3.95794E+03-1.65800E+04-2.65141E+00 4.14456E+03-2.83587E+00
 -1       149 3.51272E+00-4.05649E+05-7.42908E+05-4.76771E+00-5.55054E+05-4.21373E+00
 -1       150 2.78063E+00 3.96217E+03-1.65804E+04 7.47125E-01 4.14552E+03-9.07208E-01
 -1       151 3.52783E+00-4.05632E+05-7.42908E+05 1.28491E+00-5.55051E+05-8.72895E-01
 -1       152-1.50009E+00-2.13907E+02-1.82961E+04 1.23843E+00 5.17358E+03 1.58507E+00
 -1       153 3.13856E+00-2.01041E+05-3.79633E+05-3.28398E+00-2.75384E+05-3.14258E+00
 -1       154-1.76703E+00-3.45155E+05-9.27356E+05 2.36426E+00-5.59269E+05 2.41037E+00
 -1       155 2.20373E+00 7.07991E+03-1.21565E+04-2.79811E+00 1.73649E+03-1.98258E+00
 -1       156 3.21945E+00-4.57465E+05-4.68604E+05-4.60694E+00-4.66566E+05-2.98923E+00
 -1       157 2.21420E+00 7.08731E+03-1.21563E+04 1.42777E+00 1.73828E+03-5.09385E-01
 -1       158 3.21181E+00-4.57442E+05-4.68604E+05 2.92842E+00-4.66562E+05-3.57018E-01
 -1       159-1.25815E+00 3.65768E+03-1.43574E+04 1.36155E+00 3.06273E+03 1.22106E+00
 -1       160 2.75158E+00-2.25285E+05-2.40360E+05-3.29231E+00-2.32308E+05-2.28584E+00
 -1       161-1.73889E+00-4.33859E+05-6.02428E+05 2.31875E+00-5.07779E+05 1.77622E+00
 -1       162 1.30425E+00 8.60418E+03-8.73162E+03-1.49621E+00 4.01661E+02-1.11519E+00
 -1       163 2.89389E+00-4.42209E+05-2.86602E+05-2.08310E+00-3.58524E+05-1.69432E+00
 -1       164 1.34804E+00 8.61572E+03-8.73100E+03 2.74691E+00 4.04247E+02-1.50258E-01
 -1       165 2.98957E+00-4.42178E+05-2.86601E+05 5.12683E+00-3.58520E+05 3.09758E-01
 -1       166-9.37677E-01 6.20629E+03-1.08490E+04 1.37122E+00 1.38966E+03 7.39936E-01
 -1       167 1.98162E+00-2.16839E+05-1.47682E+05-1.39882E+00-1.78969E+05-1.35085E+00
 -1       168-1.48850E+00-4.50291E+05-3.76486E+05 2.19046E+00-4.09424E+05 1.20052E+00
 -1       169 1.76179E-02 9.48115E+03-6.14973E+03-1.79928E+00-3.44262E+02 1.73908E-01
 -1       170 1.11736E+00-3.82771E+05-1.71450E+05-3.43192E+00-2.58049E+05-1.41023E+00
 -1       171-2.63786E-03 9.49731E+03-6.14866E+03 4.23518E+00-3.40511E+02 8.48769E-01
 -1       172 8.30181E-01-3.82732E+05-1.71449E+05 8.52498E+00-2.58042E+05 4.37475E-01
 -1       173-3.44149E-01 7.63054E+03-8.14349E+03 6.47974E-02 3.73509E+02 3.58567E-01
 -1       174 1.01644E+00-1.86693E+05-8.87856E+04-2.29543E+00-1.29108E+05-7.91988E-01
 -1       175-1.34451E+00-4.11831E+05-2.29290E+05-2.02745E-01-3.05744E+05 5.07477E-01
 -1       176-2.23386E+00 1.00223E+04-4.37170E+03 7.66187E+00-6.63435E+02-7.05900E-02
 -1       177 1.89976E+00-2.98452E+05-9.96590E+04 1.52605E+01-1.73914E+05 1.78525E+00
 -1       178-2.00816E+00 1.00457E+04-4.37105E+03 7.67160E+00-6.59234E+02-2.21523E-01
 -1       179 3.08845E+00-2.98398E+05-9.96568E+04 1.12779E+01-1.73909E+05 2.58035E+00
 -1       180 2.81804E-01 8.45135E+03-6.14315E+03 1.61585E+00-2.60501E+02-5.44380E-01
 -1       181-1.74976E+00-1.44247E+05-5.19903E+04 1.19749E+01-8.72170E+04 7.31353E-01
 -1       182 4.22150E-02-3.39357E+05-1.36499E+05 3.48892E+00-2.14112E+05 8.65505E-01
 -1       183-4.86358E+00 1.04005E+04-3.21655E+03-1.38764E+01-6.85408E+02 5.82616E+00
 -1       184-8.59851E+00-2.01363E+05-5.45462E+04-3.59921E+01-1.06005E+05-7.33093E+00
 -1       185-5.30410E+00 1.04268E+04-3.21255E+03 7.54620E+00-6.76256E+02 6.81253E+00
 -1       186-1.30513E+01-2.01311E+05-5.45474E+04 2.01458E+01-1.05981E+05-2.70247E+00
 -1       187 2.14984E+00 8.85564E+03-4.74680E+03-9.30481E+00-6.36536E+02 5.85796E-01
 -1       188-9.35909E-01-9.57302E+04-2.86409E+04-2.53186E+01-5.31198E+04-1.86258E+00
 -1       189-1.27266E+00-2.48245E+05-7.82441E+04-1.86828E+01-1.38629E+05-2.51414E+00
 -1       190-9.55057E+00 1.09223E+04-2.70115E+03 8.40712E+01-6.48465E+02-1.05023E+01
 -1       191 1.60482E+01-1.00768E+05-2.25226E+04 1.82173E+02-4.83357E+04 3.03642E+01
 -1       192-8.19627E+00 1.09720E+04-2.70935E+03 2.32036E+01-6.48623E+02-1.56224E+01
 -1       193 3.32219E+01-1.00642E+05-2.25068E+04 1.17110E+01-4.83684E+04 2.01624E+01
 -1       194 1.98903E+00 9.04272E+03-3.92927E+03 2.28758E+01-9.15816E+02-6.41868E+00
 -1       195-1.79521E+01-4.46567E+04-1.28268E+04 1.36546E+02-2.46800E+04 1.11883E+01
 -1       196 7.59990E+00-1.48979E+05-3.96276E+04 5.38274E+01-7.61978E+04 9.38689E+00
 -1       197-2.48691E+01-3.55243E+02-5.86242E+03-3.16062E+02-6.26031E+03 9.30392E+01
 -1       198-2.06712E+02 1.59228E+04 6.14213E+03-6.88967E+02 8.91907E+03-1.01723E+01
 -1       199-2.71457E+01-8.16986E+02-5.81962E+03-1.76462E+02-6.32832E+03 7.98669E+01
 -1       200-2.72534E+02 1.46966E+04 6.08788E+03-2.29277E+02 8.91091E+03-4.22924E+01
 -1       201 1.03022E+01 8.84485E+03-3.29015E+03-1.06958E+02-1.02318E+03 1.70291E+01
 -1       202-3.71292E+01 8.42808E+03-4.24337E+02-5.19336E+02 8.00473E+02 3.06645E+01
 -1       203-1.60639E+01-4.37785E+04-1.31385E+04-2.32851E+02-2.41950E+04-3.83361E+01
 -1       204 1.16077E+02-5.29965E+04 2.01260E+06-7.80633E+01 2.79029E+04 8.55704E+01
 -1       205 2.01337E+00 9.88663E+04 1.61874E+06 2.23252E+00 4.30735E+05 5.66712E+00
 -1       206 1.16077E+02-5.30566E+04 2.01257E+06-5.92701E-08 2.79506E+04-9.55073E-08
 -1       207 2.04057E+00 9.88759E+04 1.61871E+06-6.49395E-08 4.30740E+05-2.07991E-07
 -1       208 8.09414E+01-4.45544E+04 9.91588E+05-5.54396E+01 1.70559E+04 5.53928E+01
 -1       209-1.05853E+00 3.20919E+04 1.82475E+06-6.96010E-01 2.31202E+05-2.95823E+00
 -1       210 2.86231E+00 4.35512E+04 7.95820E+05 1.86526E+00 2.22110E+05 5.27092E+00
 -1       211 1.16077E+02-5.30265E+04 2.01259E+06-6.68764E+01 2.79267E+04 7.85523E+01
 -1       212 2.02697E+00 9.88711E+04 1.61872E+06-1.07074E+00 4.30737E+05-7.72949E-01
 -1       213 8.09414E+01-4.46165E+04 9.91564E+05 1.15191E-08 1.70991E+04-3.59265E-08
 -1       214-1.04494E+00 3.20895E+04 1.82477E+06-7.19639E-08 2.31198E+05-1.19192E-07
 -1       215 2.87052E+00 4.35561E+04 7.95805E+05-4.47301E-08 2.22112E+05-4.95874E-08
 -1       216 1.52153E+00 2.84660E+05 1.14689E+06 3.44160E+00 5.86123E+05 4.66324E+00
 -1       217 1.54990E+00 2.84680E+05 1.14689E+06 6.92261E-07 5.86129E+05-1.49460E-08
 -1       218-9.24276E-01 1.93232E+05 1.37788E+06-1.54810E+00 5.08349E+05-2.63444E+00
 -1       219 2.36589E+00 1.42408E+05 5.62639E+05 3.13200E+00 2.96582E+05 4.59326E+00
 -1       220 1.53571E+00 2.84670E+05 1.14689E+06-2.07510E+00 5.86126E+05-5.51405E-01
 -1       221-8.96488E-01 1.93224E+05 1.37789E+06-1.02235E-07 5.08346E+05-1.30822E-07
 -1       222 2.37863E+00 1.42419E+05 5.62634E+05 2.04183E-07 2.96586E+05-2.95402E-08
 -1       223 6.07973E-01 4.20249E+05 7.56327E+05 3.40035E+00 5.70072E+05 3.06631E+00
 -1       224 6.23668E-01 4.20283E+05 7.56327E+05-1.40254E-06 5.70082E+05 2.65284E-08
 -1       225-5.75789E-01 3.52708E+05 9.48345E+05-1.86884E+00 5.76566E+05-1.94631E+00
 -1       226 1.69428E+00 2.12299E+05 3.69763E+05 3.45147E+00 2.87038E+05 3.33331E+00
 -1       227 6.15820E-01 4.20266E+05 7.56327E+05-3.38681E+00 5.70077E+05-6.71129E-01
 -1       228-5.53747E-01 3.52695E+05 9.48347E+05-2.89875E-07 5.76562E+05 1.17895E-07
 -1       229 1.71028E+00 2.12319E+05 3.69763E+05-7.74505E-07 2.87045E+05-2.26622E-07
 -1       230-6.65016E-01 4.72470E+05 4.76204E+05 2.39359E+00 4.77711E+05 1.21296E+00
 -1       231-5.63814E-01 4.72521E+05 4.76208E+05 1.70597E-06 4.77724E+05-2.19723E-07
 -1       232-1.63113E-02 4.45451E+05 6.14715E+05-1.46885E+00 5.22389E+05-1.03779E+00
 -1       233 7.29372E-01 2.39867E+05 2.32003E+05 3.00606E+00 2.39617E+05 1.79783E+00
 -1       234-6.14415E-01 4.72495E+05 4.76206E+05-5.27426E+00 4.77718E+05-1.12237E+00
 -1       235 4.21065E-02 4.45430E+05 6.14714E+05 7.07627E-07 5.22383E+05 2.81976E-09
 -1       236 7.90459E-01 2.39898E+05 2.32006E+05 5.03780E-07 2.39627E+05 1.43291E-07
 -1       237-2.72061E+00 4.56649E+05 2.91519E+05-1.20218E+00 3.66378E+05-1.02341E+00
 -1       238-2.87940E+00 4.56716E+05 2.91526E+05-6.26011E-07 3.66397E+05 2.69799E-07
 -1       239 6.95778E-01 4.63241E+05 3.83224E+05-8.47425E-01 4.21190E+05-1.07571E-01
 -1       240-5.90734E-01 2.32663E+05 1.41409E+05 5.37845E-01 1.83297E+05 9.97898E-02
 -1       241-2.80001E+00 4.56682E+05 2.91522E+05-7.79058E+00 3.66387E+05-2.08530E+00
 -1       242 6.67081E-01 4.63211E+05 3.83221E+05-9.59623E-07 4.21182E+05 2.47612E-07
 -1       243-6.26371E-01 2.32707E+05 1.41414E+05 5.65228E-07 1.83312E+05 1.10773E-07
 -1       244-5.00013E+00 3.96028E+05 1.75002E+05-1.61127E+00 2.63765E+05-2.53143E+00
 -1       245-4.13283E+00 3.96119E+05 1.75010E+05-1.26125E-06 2.63785E+05-2.08085E-07
 -1       246 2.04901E+00 4.25174E+05 2.32987E+05 2.18626E+00 3.14884E+05 1.21261E+00
 -1       247-2.94021E+00 2.02803E+05 8.44119E+04 4.14175E-01 1.31622E+05-1.52649E+00
 -1       248-4.56648E+00 3.96073E+05 1.75006E+05-1.16005E+01 2.63775E+05-2.77367E+00
 -1       249 2.40294E+00 4.25137E+05 2.32983E+05-3.66086E-07 3.14873E+05-2.98900E-07
 -1       250-2.52672E+00 2.02862E+05 8.44190E+04 5.71806E-07 1.31639E+05-2.90022E-07
 -1       251-1.06709E+01 3.10482E+05 1.02484E+05-2.15501E+01 1.78244E+05-7.53125E+00
 -1       252-1.34100E+01 3.10578E+05 1.02496E+05-1.51512E-07 1.78284E+05-2.36181E-06
 -1       253 2.92394E+00 3.52566E+05 1.38588E+05-5.50045E-01 2.21340E+05 1.34768E+00
 -1       254-4.86965E+00 1.60284E+05 4.90310E+04-1.40922E+01 8.87183E+04-3.85630E+00
 -1       255-1.20404E+01 3.10530E+05 1.02490E+05-1.54224E+01 1.78264E+05-6.13209E+00
 -1       256 1.98909E+00 3.52512E+05 1.38584E+05 9.21992E-07 2.21332E+05-1.29862E-06
 -1       257-6.01373E+00 1.60358E+05 4.90354E+04 1.31992E-06 8.87432E+04 4.54207E-07
 -1       258-1.08321E+01 2.12289E+05 5.67423E+04 2.39835E+01 1.09399E+05-1.21220E+00
 -1       259-4.13263E-01 2.12469E+05 5.67445E+04 7.63490E-07 1.09393E+05-3.70754E-06
 -1       260 8.05411E+00 2.61307E+05 7.95740E+04 2.25611E+01 1.44564E+05 6.40334E+00
 -1       261-1.36430E+01 1.11594E+05 2.65224E+04 1.85456E+01 5.41313E+04-4.62938E+00
 -1       262-5.62268E+00 2.12379E+05 5.67434E+04-2.40450E+01 1.09396E+05-1.49238E+00
 -1       263 1.18904E+01 2.61263E+05 7.95656E+04-8.90699E-07 1.44533E+05-1.14726E-06
 -1       264-8.87370E+00 1.11693E+05 2.65432E+04-3.08779E-06 5.41516E+04-2.12812E-06
 -1       265-3.99212E+01 1.10368E+05 2.43603E+04-1.86486E+02 5.12632E+04-3.90055E+01
 -1       266-7.65857E+01 1.10358E+05 2.44134E+04 9.04938E-07 5.14762E+04 5.59875E-06
 -1       267 1.53960E+00 1.61934E+05 4.07555E+04-4.74206E+01 8.15036E+04-5.62313E+00
 -1       268-3.53497E+00 6.03792E+04 1.10445E+04-1.31855E+02 2.54953E+04-1.29943E+01
 -1       269-5.82534E+01 1.10363E+05 2.43869E+04-2.28131E+01 5.13697E+04-2.88625E+01
 -1       270-1.15713E+01 1.61802E+05 4.07613E+04 1.37190E-06 8.15391E+04-7.15806E-07
 -1       271-2.05137E+01 6.04741E+04 1.10130E+04 1.57791E-07 2.55645E+04 2.62780E-06
 -1       272 1.29203E+02 1.89408E+04 1.02179E+03 8.44374E+02 6.58940E+03 7.09702E+01
 -1       273 2.61287E+02 1.75045E+04 8.44827E+02 1.41771E-06 5.33398E+03 1.10760E-06
 -1       274 4.42851E+01 5.73290E+04 1.42619E+04 2.37410E+02 2.89491E+04 4.69200E+01
 -1       275-2.64944E+01 8.64849E+03-1.85613E+03 5.63396E+02 6.93449E+02-2.18034E+01
 -1       276 1.95245E+02 1.82226E+04 9.33309E+02 3.59641E+02 5.96169E+03 9.26112E+01
 -1       277 9.19858E+01 5.74585E+04 1.42022E+04 9.18593E-07 2.87063E+04 3.02329E-06
 -1       278 3.72729E+01 7.34868E+03-1.73408E+03-8.67659E-07 8.47341E+01-2.18223E-06
 -1       279 1.16077E+02-5.29965E+04 2.01260E+06 7.80633E+01 2.79029E+04-8.55704E+01
 -1       280 2.01337E+00 9.88663E+04 1.61874E+06-2.23252E+00 4.30735E+05-5.66712E+00
 -1       281 1.16077E+02-5.30265E+04 2.01259E+06 6.68764E+01 2.79267E+04-7.85523E+01
 -1       282 2.02697E+00 9.88711E+04 1.61872E+06 1.07074E+00 4.30737E+05 7.72949E-01
 -1       283 8.09414E+01-4.45544E+04 9.91588E+05 5.54396E+01 1.70559E+04-5.53928E+01
 -1       284-1.05853E+00 3.20919E+04 1.82475E+06 6.96010E-01 2.31202E+05 2.95823E+00
 -1       285 2.86231E+00 4.35512E+04 7.95820E+05-1.86526E+00 2.22110E+05-5.27092E+00
 -1       286 1.52153E+00 2.84660E+05 1.14689E+06-3.44160E+00 5.86123E+05-4.66324E+00
 -1       287 1.53571E+00 2.84670E+05 1.14689E+06 2.07510E+00 5.86126E+05 5.51405E-01
 -1       288-9.24276E-01 1.93232E+05 1.37788E+06 1.54810E+00 5.08349E+05 2.63444E+00
 -1       289 2.36589E+00 1.42408E+05 5.62639E+05-3.13200E+00 2.96582E+05-4.59326E+00
 -1       290 6.07973E-01 4.20249E+05 7.56327E+05-3.40035E+00 5.70072E+05-3.06631E+00
 -1       291 6.15820E-01 4.20266E+05 7.56327E+05 3.38681E+00 5.70077E+05 6.71129E-01
 -1       292-5.75789E-01 3.52708E+05 9.48345E+05 1.86884E+00 5.76566E+05 1.94631E+00
 -1       293 1.69428E+00 2.12299E+05 3.69763E+05-3.45147E+00 2.87038E+05-3.33331E+00
 -1       294-6.65016E-01 4.72470E+05 4.76204E+05-2.39359E+00 4.77711E+05-1.21296E+00
 -1       295-6.14415E-01 4.72495E+05 4.76206E+05 5.27427E+00 4.77718E+05 1.12237E+00
 -1       296-1.63114E-02 4.45451E+05 6.14715E+05 1.46885E+00 5.22389E+05 1.03779E+00
 -1       297 7.29372E-01 2.39867E+05 2.32003E+05-3.00606E+00 2.39617E+05-1.79783E+00
 -1       298-2.72061E+00 4.56649E+05 2.91519E+05 1.20218E+00 3.66378E+05 1.02341E+00
 -1       299-2.80001E+00 4.56682E+05 2.91522E+05 7.79058E+00 3.66387E+05 2.08530E+00
 -1       300 6.95778E-01 4.63241E+05 3.83224E+05 8.47423E-01 4.21190E+05 1.07571E-01
 -1       301-5.90734E-01 2.32663E+05 1.41409E+05-5.37845E-01 1.83297E+05-9.97876E-02
 -1       302-5.00013E+00 3.96028E+05 1.75002E+05 1.61127E+00 2.63765E+05 2.53143E+00
 -1       303-4.56648E+00 3.96073E+05 1.75006E+05 1.16005E+01 2.63775E+05 2.77367E+00
 -1       304 2.04901E+00 4.25174E+05 2.32987E+05-2.18626E+00 3.14884E+05-1.21261E+00
 -1       305-2.94021E+00 2.02803E+05 8.44119E+04-4.14175E-01 1.31622E+05 1.52649E+00
 -1       306-1.06709E+01 3.10482E+05 1.02484E+05 2.15501E+01 1.78244E+05 7.53125E+00
 -1       307-1.20404E+01 3.10530E+05 1.02490E+05 1.54224E+01 1.78264E+05 6.13209E+00
 -1       308 2.92394E+00 3.52566E+05 1.38588E+05 5.50048E-01 2.21340E+05-1.34768E+00
 -1       309-4.86965E+00 1.60284E+05 4.90310E+04 1.40922E+01 8.87183E+04 3.85630E+00
 -1       310-1.08321E+01 2.12289E+05 5.67423E+04-2.39835E+01 1.09399E+05 1.21220E+00
 -1       311-5.62268E+00 2.12379E+05 5.67434E+04 2.40450E+01 1.09396E+05 1.49238E+00
 -1       312 8.05410E+00 2.61307E+05 7.95740E+04-2.25611E+01 1.44564E+05-6.40333E+00
 -1       313-1.36430E+01 1.11594E+05 2.65224E+04-1.85456E+01 5.41313E+04 4.62938E+00
 -1       314-3.99212E+01 1.10368E+05 2.43603E+04 1.86486E+02 5.12632E+04 3.90055E+01
 -1       315-5.82534E+01 1.10363E+05 2.43869E+04 2.28131E+01 5.13697E+04 2.88625E+01
 -1       316 1.53960E+00 1.61934E+05 4.07555E+04 4.74206E+01 8.15036E+04 5.62313E+00
 -1       317-3.53497E+00 6.03792E+04 1.10445E+04 1.31855E+02 2.54953E+04 1.29943E+01
 -1       318 1.29203E+02 1.89408E+04 1.02179E+03-8.44374E+02 6.58940E+03-7.09702E+01
 -1       319 1.95245E+02 1.82226E+04 9.33309E+02-3.59641E+02 5.96169E+03-9.26112E+01
 -1       320 4.42851E+01 5.73290E+04 1.42619E+04-2.37410E+02 2.89491E+04-4.69200E+01
 -1       321-2.64944E+01 8.64849E+03-1.85613E+03-5.63396E+02 6.93449E+02 2.18034E+01
 -3
    1PSTEP                        17           9           1          
  100CL  109 4.50000E-01         321                     0    9           1
 -4  DISP        4    1
 -5  D1          1    2    1    0
 -5  D2          1    2    2    0
 -5  D3          1    2    3    0
 -5  ALL         1    2    0    0    1ALL
 -1         1 0.00000E+00 0.00000E+00 0.00000E+00
 -1         2 0.00000E+00 0.00000E+00 0.00000E+00
 -1         3-5.62591E-08 1.35469E-01-1.23589E-02
 -1         4-1.33895E-07 1.32842E-01-3.17810E-02
 -1         5 0.00000E+00 0.00000E+00 0.00000E+00
 -1         6 0.00000E+00 0.00000E+00 0.00000E+00
 -1         7-1.04326E-15 1.35469E-01-1.23588E-02
 -1         8-8.23161E-16 1.32842E-01-3.17810E-02
 -1         9 0.00000E+00 0.00000E+00 0.00000E+00
 -1        10 1.23687E-08 3.49023E-02-1.68927E-03
 -1        11-9.50749E-08 1.34154E-01-2.20668E-02
 -1        12 3.19078E-08 3.41966E-02-1.18330E-02
 -1        13 0.00000E+00 0.00000E+00 0.00000E+00
 -1        14 0.00000E+00 0.00000E+00 0.00000E+00
 -1        15-2.81303E-08 1.35469E-01-1.23589E-02
 -1        16-6.69487E-08 1.32842E-01-3.17810E-02
 -1        17 0.00000E+00 0.00000E+00 0.00000E+00
 -1        18-4.78560E-17 3.49023E-02-1.68928E-03
 -1        19-8.87555E-16 1.34154E-01-2.20668E-02
 -1        20 9.27847E-17 3.41967E-02-1.18331E-02
 -1        21-1.25076E-07 5.05990E-01-8.58609E-02
 -1        22-2.79831E-07 4.97303E-01-1.20527E-01
 -1        23-4.69533E-15 5.05990E-01-8.58608E-02
 -1        24-4.79173E-15 4.97303E-01-1.20527E-01
 -1        25 4.38843E-08 2.94960E-01-3.88197E-02
 -1        26-2.02446E-07 5.01647E-01-1.03192E-01
 -1        27 1.01968E-07 2.89649E-01-6.63551E-02
 -1        28-6.25381E-08 5.05990E-01-8.58608E-02
 -1        29-1.39914E-07 4.97303E-01-1.20527E-01
 -1        30-2.40583E-15 2.94960E-01-3.88197E-02
 -1        31-4.62474E-15 5.01647E-01-1.03192E-01
 -1        32-1.96314E-15 2.89649E-01-6.63552E-02
 -1        33-2.04708E-07 1.05560E+00-2.52156E-01
 -1        34-4.37278E-07 1.03952E+00-2.98089E-01
 -1        35-9.03406E-15 1.05560E+00-2.52156E-01
 -1        36-7.76038E-15 1.03952E+00-2.98089E-01
 -1        37 8.11858E-08 7.61748E-01-1.56467E-01
 -1        38-3.21002E-07 1.04756E+00-2.75121E-01
 -1        39 1.77862E-07 7.49512E-01-1.97227E-01
 -1        40-1.02353E-07 1.05560E+00-2.52156E-01
 -1        41-2.18637E-07 1.03952E+00-2.98089E-01
 -1        42-7.16665E-15 7.61748E-01-1.56467E-01
 -1        43-8.76520E-15 1.04756E+00-2.75121E-01
 -1        44-6.06285E-15 7.49512E-01-1.97228E-01
 -1        45-2.93590E-07 1.73490E+00-5.19544E-01
 -1        46-6.06044E-07 1.71145E+00-5.73471E-01
 -1        47-2.00806E-14 1.73490E+00-5.19544E-01
 -1        48-1.35509E-14 1.71145E+00-5.73471E-01
 -1        49 1.23526E-07 1.38175E+00-3.73338E-01
 -1        50-4.49759E-07 1.72318E+00-5.46506E-01
 -1        51 2.59425E-07 1.36200E+00-4.23663E-01
 -1        52-1.46793E-07 1.73490E+00-5.19544E-01
 -1        53-3.03023E-07 1.71145E+00-5.73471E-01
 -1        54-1.49724E-14 1.38175E+00-3.73338E-01
 -1        55-1.63046E-14 1.72318E+00-5.46506E-01
 -1        56-1.21989E-14 1.36200E+00-4.23663E-01
 -1        57-3.89790E-07 2.50486E+00-8.82302E-01
 -1        58-7.84647E-07 2.47479E+00-9.41730E-01
 -1        59-3.04039E-14 2.50486E+00-8.82302E-01
 -1        60-3.30596E-14 2.47479E+00-9.41730E-01
 -1        61 1.70078E-07 2.11059E+00-6.89701E-01
 -1        62-5.87386E-07 2.48983E+00-9.12015E-01
 -1        63 3.46614E-07 2.08377E+00-7.46701E-01
 -1        64-1.94889E-07 2.50486E+00-8.82302E-01
 -1        65-3.92311E-07 2.47479E+00-9.41730E-01
 -1        66-2.41288E-14 2.11059E+00-6.89701E-01
 -1        67-3.14823E-14 2.48983E+00-9.12015E-01
 -1        68-2.20966E-14 2.08377E+00-7.46701E-01
 -1        69-4.90265E-07 3.33647E+00-1.32746E+00
 -1        70-9.72747E-07 3.30089E+00-1.39058E+00
 -1        71-4.06241E-14 3.33646E+00-1.32746E+00
 -1        72-4.86087E-14 3.30089E+00-1.39058E+00
 -1        73 2.19752E-07 2.91444E+00-1.09554E+00
 -1        74-7.30850E-07 3.31868E+00-1.35902E+00
 -1        75 4.38071E-07 2.88151E+00-1.15707E+00
 -1        76-2.45135E-07 3.33646E+00-1.32746E+00
 -1        77-4.86408E-07 3.30089E+00-1.39058E+00
 -1        78-3.10926E-14 2.91444E+00-1.09554E+00
 -1        79-4.44746E-14 3.31868E+00-1.35902E+00
 -1        80-3.59908E-14 2.88151E+00-1.15707E+00
 -1        81-5.90641E-07 4.20888E+00-1.83896E+00
 -1        82-1.15993E-06 4.16904E+00-1.90448E+00
 -1        83-5.24338E-14 4.20888E+00-1.83896E+00
 -1        84-6.38523E-14 4.16904E+00-1.90448E+00
 -1        85 2.70532E-07 3.76862E+00-1.57596E+00
 -1        86-8.77582E-07 4.18896E+00-1.87172E+00
 -1        87 5.34548E-07 3.73078E+00-1.64049E+00
 -1        88-2.95287E-07 4.20888E+00-1.83896E+00
 -1        89-5.79818E-07 4.16904E+00-1.90448E+00
 -1        90-5.64613E-14 3.76862E+00-1.57596E+00
 -1        91-5.63915E-14 4.18896E+00-1.87172E+00
 -1        92-6.83985E-14 3.73078E+00-1.64049E+00
 -1        93-6.83224E-07 5.10730E+00-2.39987E+00
 -1        94-1.36275E-06 5.06445E+00-2.46688E+00
 -1        95-5.59984E-14 5.10730E+00-2.39987E+00
 -1        96-7.37979E-14 5.06444E+00-2.46688E+00
 -1        97 3.20301E-07 4.65560E+00-2.11428E+00
 -1        98-1.01448E-06 5.08587E+00-2.43337E+00
 -1        99 6.25767E-07 4.61410E+00-2.18073E+00
 -1       100-3.41676E-07 5.10730E+00-2.39987E+00
 -1       101-6.81927E-07 5.06444E+00-2.46688E+00
 -1       102-4.79631E-14 4.65560E+00-2.11428E+00
 -1       103-6.53616E-14 5.08587E+00-2.43337E+00
 -1       104-6.74530E-14 4.61410E+00-2.18073E+00
 -1       105-7.59249E-07 6.02100E+00-2.99339E+00
 -1       106-1.49026E-06 5.97636E+00-3.06120E+00
 -1       107-5.82696E-14 6.02100E+00-2.99339E+00
 -1       108-9.70238E-14 5.97636E+00-3.06120E+00
 -1       109 3.62552E-07 5.56282E+00-2.69358E+00
 -1       110-1.15613E-06 5.99868E+00-3.02730E+00
 -1       111 7.35718E-07 5.51890E+00-2.76115E+00
 -1       112-3.79428E-07 6.02100E+00-2.99339E+00
 -1       113-7.42986E-07 5.97636E+00-3.06120E+00
 -1       114-5.42312E-14 5.56282E+00-2.69358E+00
 -1       115-7.85356E-14 5.99868E+00-3.02730E+00
 -1       116-8.02928E-14 5.51891E+00-2.76115E+00
 -1       117-8.00874E-07 6.94176E+00-3.60308E+00
 -1       118-1.83065E-06 6.89654E+00-3.67113E+00
 -1       119-5.26012E-14 6.94175E+00-3.60308E+00
 -1       120-9.04546E-14 6.89653E+00-3.67113E+00
 -1       121 3.98603E-07 6.48098E+00-3.29721E+00
 -1       122-1.19800E-06 6.91915E+00-3.63711E+00
 -1       123 7.58141E-07 6.43587E+00-3.36530E+00
 -1       124-4.00765E-07 6.94176E+00-3.60308E+00
 -1       125-9.23582E-07 6.89654E+00-3.67113E+00
 -1       126-5.49100E-14 6.48098E+00-3.29721E+00
 -1       127-7.14751E-14 6.91914E+00-3.63711E+00
 -1       128-8.74065E-14 6.43587E+00-3.36530E+00
 -1       129 0.00000E+00 0.00000E+00 0.00000E+00
 -1       130 0.00000E+00 0.00000E+00 0.00000E+00
 -1       131 5.62591E-08 1.35469E-01-1.23589E-02
 -1       132 1.33895E-07 1.32842E-01-3.17810E-02
 -1       133 0.00000E+00 0.00000E+00 0.00000E+00
 -1       134 0.00000E+00 0.00000E+00 0.00000E+00
 -1       135 2.81303E-08 1.35469E-01-1.23589E-02
 -1       136 6.69487E-08 1.32842E-01-3.17810E-02
 -1       137 0.00000E+00 0.00000E+00 0.00000E+00
 -1       138-1.23687E-08 3.49023E-02-1.68927E-03
 -1       139 9.50749E-08 1.34154E-01-2.20668E-02
 -1       140-3.19078E-08 3.41966E-02-1.18330E-02
 -1       141 1.25076E-07 5.05990E-01-8.58609E-02
 -1       142 2.79831E-07 4.97303E-01-1.20527E-01
 -1       143 6.25381E-08 5.05990E-01-8.58608E-02
 -1       144 1.39914E-07 4.97303E-01-1.20527E-01
 -1       145-4.38843E-08 2.94960E-01-3.88197E-02
 -1       146 2.02446E-07 5.01647E-01-1.03192E-01
 -1       147-1.01968E-07 2.89649E-01-6.63551E-02
 -1       148 2.04708E-07 1.05560E+00-2.52156E-01
 -1       149 4.37278E-07 1.03952E+00-2.98089E-01
 -1       150 1.02353E-07 1.05560E+00-2.52156E-01
 -1       151 2.18637E-07 1.03952E+00-2.98089E-01
 -1       152-8.11859E-08 7.61748E-01-1.56467E-01
 -1       153 3.21002E-07 1.04756E+00-2.75121E-01
 -1       154-1.77862E-07 7.49512E-01-1.97227E-01
 -1       155 2.93590E-07 1.73490E+00-5.19544E-01
 -1       156 6.06044E-07 1.71145E+00-5.73471E-01
 -1       157 1.46793E-07 1.73490E+00-5.19544E-01
 -1       158 3.03023E-07 1.71145E+00-5.73471E-01
 -1       159-1.23526E-07 1.38175E+00-3.73338E-01
 -1       160 4.49759E-07 1.72318E+00-5.46506E-01
 -1       161-2.59425E-07 1.36200E+00-4.23663E-01
 -1       162 3.89790E-07 2.50486E+00-8.82302E-01
 -1       163 7.84646E-07 2.47479E+00-9.41730E-01
 -1       164 1.94888E-07 2.50486E+00-8.82302E-01
 -1       165 3.92311E-07 2.47479E+00-9.41730E-01
 -1       166-1.70078E-07 2.11059E+00-6.89701E-01
 -1       167 5.87386E-07 2.48983E+00-9.12015E-01
 -1       168-3.46614E-07 2.08377E+00-7.46701E-01
 -1       169 4.90265E-07 3.33647E+00-1.32746E+00
 -1       170 9.72747E-07 3.30089E+00-1.39058E+00
 -1       171 2.45135E-07 3.33646E+00-1.32746E+00
 -1       172 4.86408E-07 3.30089E+00-1.39058E+00
 -1       173-2.19752E-07 2.91444E+00-1.09554E+00
 -1       174 7.30850E-07 3.31868E+00-1.35902E+00
 -1       175-4.38071E-07 2.88151E+00-1.15707E+00
 -1       176 5.90641E-07 4.20888E+00-1.83896E+00
 -1       177 1.15993E-06 4.16904E+00-1.90448E+00
 -1       178 2.95287E-07 4.20888E+00-1.83896E+00
 -1       179 5.79818E-07 4.16904E+00-1.90448E+00
 -1       180-2.70532E-07 3.76862E+00-1.57596E+00
 -1       181 8.77582E-07 4.18896E+00-1.87172E+00
 -1       182-5.34548E-07 3.73078E+00-1.64049E+00
 -1       183 6.83224E-07 5.10730E+00-2.39987E+00
 -1       184 1.36275E-06 5.06445E+00-2.46688E+00
 -1       185 3.41676E-07 5.10730E+00-2.39987E+00
 -1       186 6.81927E-07 5.06444E+00-2.46688E+00
 -1       187-3.20301E-07 4.65560E+00-2.11428E+00
 -1       188 1.01448E-06 5.08587E+00-2.43337E+00
 -1       189-6.25767E-07 4.61410E+00-2.18073E+00
 -1       190 7.59249E-07 6.02100E+00-2.99339E+00
 -1       191 1.49025E-06 5.97636E+00-3.06120E+00
 -1       192 3.79428E-07 6.02100E+00-2.99339E+00
 -1       193 7.42986E-07 5.97636E+00-3.06120E+00
 -1       194-3.62552E-07 5.56282E+00-2.69358E+00
 -1       195 1.15613E-06 5.99868E+00-3.02730E+00
 -1       196-7.35718E-07 5.51890E+00-2.76115E+00
 -1       197 8.00874E-07 6.94176E+00-3.60308E+00
 -1       198 1.83065E-06 6.89654E+00-3.67113E+00
 -1       199 4.00765E-07 6.94176E+00-3.60308E+00
 -1       200 9.23582E-07 6.89654E+00-3.67113E+00
 -1       201-3.98603E-07 6.48098E+00-3.29721E+00
 -1       202 1.19800E-06 6.91915E+00-3.63711E+00
 -1       203-7.58141E-07 6.43587E+00-3.36530E+00
 -1       204 0.00000E+00 0.00000E+00 0.00000E+00
 -1       205-1.38390E-07 1.38085E-01 7.04981E-03
 -1       206 0.00000E+00 0.00000E+00 0.00000E+00
 -1       207-1.10396E-15 1.38085E-01 7.04996E-03
 -1       208 0.00000E+00 0.00000E+00 0.00000E+00
 -1       209 3.38343E-08 3.56108E-02 8.46027E-03
 -1       210-9.73270E-08 1.36778E-01-2.65759E-03
 -1       211 0.00000E+00 0.00000E+00 0.00000E+00
 -1       212-6.91929E-08 1.38085E-01 7.04989E-03
 -1       213 0.00000E+00 0.00000E+00 0.00000E+00
 -1       214-2.56057E-16 3.56108E-02 8.46023E-03
 -1       215-1.07387E-15 1.36778E-01-2.65750E-03
 -1       216-2.82694E-07 5.14660E-01-5.12062E-02
 -1       217-4.59093E-15 5.14660E-01-5.12059E-02
 -1       218 1.04572E-07 3.00280E-01-1.12775E-02
 -1       219-2.03888E-07 5.10325E-01-6.85356E-02
 -1       220-1.41345E-07 5.14660E-01-5.12061E-02
 -1       221-2.93393E-15 3.00280E-01-1.12776E-02
 -1       222-4.47588E-15 5.10324E-01-6.85355E-02
 -1       223-4.31677E-07 1.07166E+00-2.06224E-01
 -1       224-1.05686E-14 1.07166E+00-2.06224E-01
 -1       225 1.78132E-07 7.73992E-01-1.15703E-01
 -1       226-3.18173E-07 1.06363E+00-2.29192E-01
 -1       227-2.15837E-07 1.07166E+00-2.06224E-01
 -1       228-7.54134E-15 7.73992E-01-1.15703E-01
 -1       229-9.96496E-15 1.06363E+00-2.29191E-01
 -1       230-5.82485E-07 1.75835E+00-4.65610E-01
 -1       231-2.55982E-14 1.75835E+00-4.65610E-01
 -1       232 2.53554E-07 1.40150E+00-3.23016E-01
 -1       233-4.38091E-07 1.74663E+00-4.92579E-01
 -1       234-2.91236E-07 1.75835E+00-4.65610E-01
 -1       235-1.71936E-14 1.40150E+00-3.23016E-01
 -1       236-2.24768E-14 1.74663E+00-4.92578E-01
 -1       237-7.31532E-07 2.53493E+00-8.22857E-01
 -1       238-2.70355E-14 2.53493E+00-8.22857E-01
 -1       239 3.28955E-07 2.13742E+00-6.32708E-01
 -1       240-5.60456E-07 2.51990E+00-8.52580E-01
 -1       241-3.65776E-07 2.53493E+00-8.22857E-01
 -1       242-2.71784E-14 2.13742E+00-6.32708E-01
 -1       243-2.83940E-14 2.51990E+00-8.52580E-01
 -1       244-8.70818E-07 3.37205E+00-1.26431E+00
 -1       245-3.18878E-14 3.37205E+00-1.26431E+00
 -1       246 4.02602E-07 2.94736E+00-1.03401E+00
 -1       247-6.81250E-07 3.35426E+00-1.29589E+00
 -1       248-4.35353E-07 3.37205E+00-1.26431E+00
 -1       249-2.84746E-14 2.94736E+00-1.03401E+00
 -1       250-3.55274E-14 3.35426E+00-1.29589E+00
 -1       251-9.98014E-07 4.24875E+00-1.77340E+00
 -1       252-4.24660E-14 4.24875E+00-1.77340E+00
 -1       253 4.68305E-07 3.80646E+00-1.51144E+00
 -1       254-7.91808E-07 4.22881E+00-1.80618E+00
 -1       255-4.99182E-07 4.24875E+00-1.77340E+00
 -1       256-4.30552E-14 3.80646E+00-1.51144E+00
 -1       257-4.59610E-14 4.22881E+00-1.80618E+00
 -1       258-1.07654E-06 5.15020E+00-2.33283E+00
 -1       259-3.99200E-14 5.15020E+00-2.33283E+00
 -1       260 5.29802E-07 4.69708E+00-2.04785E+00
 -1       261-8.88903E-07 5.12875E+00-2.36635E+00
 -1       262-5.37607E-07 5.15020E+00-2.33283E+00
 -1       263-2.64903E-14 4.69708E+00-2.04785E+00
 -1       264-4.84924E-14 5.12875E+00-2.36635E+00
 -1       265-1.17072E-06 6.06571E+00-2.92555E+00
 -1       266-2.17595E-14 6.06571E+00-2.92555E+00
 -1       267 5.46659E-07 5.60671E+00-2.62603E+00
 -1       268-9.32384E-07 6.04336E+00-2.95947E+00
 -1       269-5.87675E-07 6.06571E+00-2.92555E+00
 -1       270-3.09875E-14 5.60671E+00-2.62603E+00
 -1       271-4.03753E-14 6.04335E+00-2.95947E+00
 -1       272-9.49250E-07 6.98708E+00-3.53498E+00
 -1       273-2.33040E-14 6.98707E+00-3.53498E+00
 -1       274 6.26179E-07 6.52606E+00-3.22915E+00
 -1       275-9.94389E-07 6.96442E+00-3.56903E+00
 -1       276-4.66330E-07 6.98707E+00-3.53498E+00
 -1       277-2.19525E-14 6.52606E+00-3.22915E+00
 -1       278-3.87333E-14 6.96441E+00-3.56903E+00
 -1       279 0.00000E+00 0.00000E+00 0.00000E+00
 -1       280 1.38390E-07 1.38085E-01 7.04981E-03
 -1       281 0.00000E+00 0.00000E+00 0.00000E+00
 -1       282 6.91929E-08 1.38085E-01 7.04989E-03
 -1       283 0.00000E+00 0.00000E+00 0.00000E+00
 -1       284-3.38343E-08 3.56108E-02 8.46027E-03
 -1       285 9.73270E-08 1.36778E-01-2.65759E-03
 -1       286 2.82694E-07 5.14660E-01-5.12062E-02
 -1       287 1.41345E-07 5.14660E-01-5.12061E-02
 -1       288-1.04572E-07 3.00280E-01-1.12775E-02
 -1       289 2.03888E-07 5.10325E-01-6.85356E-02
 -1       290 4.31677E-07 1.07166E+00-2.06224E-01
 -1       291 2.15837E-07 1.07166E+00-2.06224E-01
 -1       292-1.78132E-07 7.73992E-01-1.15703E-01
 -1       293 3.18173E-07 1.06363E+00-2.29192E-01
 -1       294 5.82485E-07 1.75835E+00-4.65610E-01
 -1       295 2.91236E-07 1.75835E+00-4.65610E-01
 -1       296-2.53554E-07 1.40150E+00-3.23016E-01
 -1       297 4.38091E-07 1.74663E+00-4.92579E-01
 -1       298 7.31532E-07 2.53493E+00-8.22857E-01
 -1       299 3.65776E-07 2.53493E+00-8.22857E-01
 -1       300-3.28955E-07 2.13742E+00-6.32708E-01
 -1       301 5.60455E-07 2.51990E+00-8.52580E-01
 -1       302 8.70818E-07 3.37205E+00-1.26431E+00
 -1       303 4.35353E-07 3.37205E+00-1.26431E+00
 -1       304-4.02602E-07 2.94736E+00-1.03401E+00
 -1       305 6.81250E-07 3.35426E+00-1.29589E+00
 -1       306 9.98014E-07 4.24875E+00-1.77340E+00
 -1       307 4.99181E-07 4.24875E+00-1.77340E+00
 -1       308-4.68305E-07 3.80646E+00-1.51144E+00
 -1       309 7.91807E-07 4.22881E+00-1.80618E+00
 -1       310 1.07654E-06 5.15020E+00-2.33283E+00
 -1       311 5.37607E-07 5.15020E+00-2.33283E+00
 -1       312-5.29802E-07 4.69708E+00-2.04785E+00
 -1       313 8.88903E-07 5.12875E+00-2.36635E+00
 -1       314 1.17072E-06 6.06571E+00-2.92555E+00
 -1       315 5.87675E-07 6.06571E+00-2.92555E+00
 -1       316-5.46659E-07 5.60671E+00-2.62603E+00
 -1       317 9.32384E-07 6.04336E+00-2.95947E+00
 -1       318 9.49250E-07 6.98708E+00-3.53498E+00
 -1       319 4.66330E-07 6.98707E+00-3.53498E+00
 -1       320-6.26179E-07 6.52606E+00-3.22915E+00
 -1       321 9.94389E-07 6.96442E+00-3.56903E+00
 -3
    1PSTEP                        18           9           1          
  100CL  109 4.50000E-01         321                     0    9           1
 -4  STRESS      6    1
 -5  SXX         1    4    1    1
 -5  SYY         1    4    2    2
 -5  SZZ         1    4    3    3
 -5  SXY         1    4    1    2
 -5  SYZ         1    4    2    3
 -5  SZX         1    4    3    1
 -1         1 1.34285E+02-1.48092E+04-2.09379E+06-3.69958E+01-9.80036E+03 3.59788E+01
 -1         2 5.40225E+01-3.83016E+04-3.38436E+04-7.74914E+00 9.77318E+03 2.53966E+01
 -1         3 4.19040E+00-1.33873E+04-3.06616E+04 1.07333E+00 1.40822E+04 3.70422E+00
 -1         4 3.94053E+00-1.11059E+05-1.66282E+06 3.10546E+00-4.69790E+05 6.50845E+00
 -1         5 1.34285E+02-1.47280E+04-2.09380E+06 3.38005E-08-9.79641E+03-1.08149E-08
 -1         6 5.40225E+01-3.82973E+04-3.38547E+04 1.00701E-07 9.79103E+03 1.14829E-08
 -1         7 4.17892E+00-1.33868E+04-3.06689E+04 3.73977E-08 1.40812E+04 1.02535E-08
 -1         8 3.92174E+00-1.11047E+05-1.66283E+06-3.65313E-07-4.69782E+05 7.10004E-08
 -1         9 9.40183E+01-2.47740E+04-1.06386E+06-8.72740E+00 1.28959E+03 2.95159E+01
 -1        10-2.25344E+00-1.51868E+04-3.06063E+04-1.20415E-01 9.49216E+03-1.68029E+00
 -1        11 4.07595E+00-6.25155E+04-8.46540E+05 1.62110E+00-2.28312E+05 4.10387E+00
 -1        12-2.05186E+00-5.29047E+04-1.88954E+06-9.11056E-01-2.48271E+05-3.25347E+00
 -1        13 1.34285E+02-1.47686E+04-2.09380E+06-5.12040E+01-9.79838E+03 3.09750E+01
 -1        14 5.40225E+01-3.82995E+04-3.38491E+04-7.64683E+00 9.78211E+03 2.27525E+01
 -1        15 4.18466E+00-1.33870E+04-3.06653E+04-5.70044E-01 1.40817E+04 9.36923E-01
 -1        16 3.93114E+00-1.11053E+05-1.66282E+06 1.73067E-01-4.69786E+05 1.46825E+00
 -1        17 9.40183E+01-2.46951E+04-1.06386E+06 7.37497E-08 1.28825E+03 8.66027E-11
 -1        18-2.25919E+00-1.51865E+04-3.06014E+04 7.04834E-08 9.49281E+03-7.68119E-09
 -1        19 4.06078E+00-6.25089E+04-8.46547E+05-1.45063E-07-2.28309E+05 2.35969E-08
 -1        20-2.06127E+00-5.29073E+04-1.88954E+06-5.11852E-08-2.48275E+05 9.54035E-09
 -1        21 3.60836E+00 2.03903E+02-2.38241E+04 2.54108E+00 7.05634E+03 3.71284E+00
 -1        22 3.75620E+00-3.26378E+05-1.14765E+06 5.11047E+00-6.23270E+05 5.73811E+00
 -1        23 3.60393E+00 2.07862E+02-2.38273E+04-4.39271E-07 7.05655E+03-1.14503E-07
 -1        24 3.77080E+00-3.26353E+05-1.14766E+06 7.89292E-07-6.23263E+05-5.53541E-09
 -1        25-1.91848E+00-8.68440E+03-2.60954E+04-9.38289E-01 9.43618E+03-1.94692E+00
 -1        26 3.69297E+00-1.63446E+05-5.85483E+05 3.29293E+00-3.08192E+05 4.03232E+00
 -1        27-1.90404E+00-2.26151E+05-1.39567E+06-2.16070E+00-5.49724E+05-3.16263E+00
 -1        28 3.60614E+00 2.05883E+02-2.38257E+04-4.61530E-01 7.05645E+03 1.15021E+00
 -1        29 3.76350E+00-3.26366E+05-1.14765E+06-3.83566E-01-6.23266E+05 1.26525E+00
 -1        30-1.92644E+00-8.68528E+03-2.60930E+04 5.80875E-08 9.43651E+03-1.88607E-08
 -1        31 3.69801E+00-1.63431E+05-5.85487E+05 7.33897E-08-3.08189E+05-8.23946E-08
 -1        32-1.90613E+00-2.26160E+05-1.39567E+06-2.71954E-07-5.49728E+05 3.46761E-08
 -1        33 3.08571E+00 4.94877E+03-1.81827E+04 3.29909E+00 3.85919E+03 2.98887E+00
 -1        34 3.66262E+00-4.68325E+05-7.30008E+05 5.74297E+00-5.91730E+05 4.24887E+00
 -1        35 3.10497E+00 4.95826E+03-1.81834E+04 5.22759E-07 3.86120E+03 2.99918E-07
 -1        36 3.69655E+00-4.68287E+05-7.30008E+05 9.07522E-07-5.91722E+05-7.67737E-08
 -1        37-1.67107E+00 1.63291E+02-2.02712E+04-1.55369E+00 5.13319E+03-1.71225E+00
 -1        38 3.37097E+00-2.31909E+05-3.73981E+05 3.98749E+00-2.93827E+05 3.17804E+00
 -1        39-1.85343E+00-4.02728E+05-9.31720E+05-2.86860E+00-6.05320E+05-2.51317E+00
 -1        40 3.09534E+00 4.95351E+03-1.81831E+04-7.60213E-01 3.86019E+03 9.40059E-01
 -1        41 3.67959E+00-4.68306E+05-7.30008E+05-1.54096E+00-5.91726E+05 7.40485E-01
 -1        42-1.66365E+00 1.60146E+02-2.02704E+04-1.25318E-07 5.13261E+03 1.81534E-07
 -1        43 3.39755E+00-2.31884E+05-3.73982E+05 4.29423E-07-2.93824E+05 2.93472E-07
 -1        44-1.82916E+00-4.02743E+05-9.31719E+05 7.92532E-07-6.05324E+05-1.19726E-07
 -1        45 2.44158E+00 8.17772E+03-1.29237E+04 3.41439E+00 1.18596E+03 1.94147E+00
 -1        46 3.26815E+00-5.15496E+05-4.41656E+05 5.43228E+00-4.81310E+05 2.73040E+00
 -1        47 2.46695E+00 8.19464E+03-1.29229E+04 1.02525E-06 1.18974E+03 1.31473E-07
 -1        48 3.25826E+00-5.15443E+05-4.41654E+05-5.99456E-08-4.81301E+05 9.25078E-08
 -1        49-1.39616E+00 4.35855E+03-1.55401E+04-1.68383E+00 2.73453E+03-1.24375E+00
 -1        50 2.89722E+00-2.53745E+05-2.27291E+05 3.92375E+00-2.39927E+05 2.11568E+00
 -1        51-1.79716E+00-4.94245E+05-5.82183E+05-2.76871E+00-5.32531E+05-1.70785E+00
 -1        52 2.45426E+00 8.18618E+03-1.29233E+04-1.55514E+00 1.18785E+03 4.72860E-01
 -1        53 3.26320E+00-5.15470E+05-4.41655E+05-3.47613E+00-4.81305E+05 1.61550E-01
 -1        54-1.37384E+00 4.35207E+03-1.55401E+04 8.67933E-08 2.73304E+03-1.23037E-08
 -1        55 2.90493E+00-2.53709E+05-2.27290E+05 1.80984E-06-2.39923E+05-3.02080E-07
 -1        56-1.78517E+00-4.94268E+05-5.82183E+05 6.94015E-07-5.32535E+05-9.01419E-08
 -1        57 1.42563E+00 9.62947E+03-8.96824E+03 1.87881E+00-1.79485E+02 9.42384E-01
 -1        58 2.78546E+00-4.87741E+05-2.58951E+05 2.36023E+00-3.58372E+05 1.23711E+00
 -1        59 1.52983E+00 9.65597E+03-8.96680E+03-1.23631E-06-1.74162E+02 4.29365E-08
 -1        60 2.97627E+00-4.87669E+05-2.58948E+05 1.18842E-06-3.58363E+05 2.44120E-07
 -1        61-1.03510E+00 7.01853E+03-1.14344E+04-1.65418E+00 9.34572E+02-6.75497E-01
 -1        62 1.98581E+00-2.39076E+05-1.34000E+05 1.65931E+00-1.79170E+05 1.04490E+00
 -1        63-1.47627E+00-5.01698E+05-3.49410E+05-2.54414E+00-4.16064E+05-1.01343E+00
 -1        64 1.47773E+00 9.64272E+03-8.96752E+03-3.06755E+00-1.76824E+02 7.07827E-02
 -1        65 2.88087E+00-4.87705E+05-2.58950E+05-6.07968E+00-3.58367E+05-5.47617E-01
 -1        66-9.70338E-01 7.00787E+03-1.14350E+04 4.08603E-07 9.32222E+02-1.26900E-07
 -1        67 2.13337E+00-2.39027E+05-1.33999E+05-9.31011E-07-1.79166E+05 7.56257E-09
 -1        68-1.38573E+00-5.01728E+05-3.49411E+05 3.76374E-07-4.16069E+05 1.50282E-08
 -1        69-3.05573E-02 1.04216E+04-6.07756E+03 2.07707E+00-8.70340E+02-4.42821E-01
 -1        70 6.68495E-01-4.14662E+05-1.48747E+05 3.70463E+00-2.50607E+05 8.95531E-01
 -1        71-7.55192E-02 1.04589E+04-6.07536E+03 1.40225E-06-8.62723E+02-6.34097E-08
 -1        72 1.12201E-01-4.14572E+05-1.48744E+05-1.94760E-06-2.50592E+05-9.46664E-07
 -1        73-3.64116E-01 8.43946E+03-8.35161E+03-1.54300E-01-8.32586E+01-2.47869E-01
 -1        74 7.77634E-01-2.02156E+05-7.74152E+04 2.51825E+00-1.25640E+05 4.36942E-01
 -1        75-1.23296E+00-4.50072E+05-2.04532E+05 3.01195E-01-3.01621E+05-2.45500E-01
 -1        76-5.30383E-02 1.04402E+04-6.07646E+03-4.85063E+00-8.66531E+02-9.82457E-01
 -1        77 3.90348E-01-4.14617E+05-1.48745E+05-9.98334E+00-2.50600E+05-6.56590E-01
 -1        78-3.34431E-01 8.42333E+03-8.35238E+03 4.15326E-07-8.62627E+01-1.22642E-07
 -1        79 4.76907E-01-2.02089E+05-7.74149E+04 1.03640E-06-1.25633E+05-5.11393E-07
 -1        80-1.41600E+00-4.50113E+05-2.04534E+05 3.98881E-08-3.01626E+05 3.63179E-07
 -1        81-2.58959E+00 1.09070E+04-4.14978E+03-8.52973E+00-1.11166E+03-1.57443E-01
 -1        82 1.15364E+00-3.18716E+05-8.33020E+04-1.79467E+01-1.64713E+05-2.37686E+00
 -1        83-2.06155E+00 1.09604E+04-4.14823E+03-2.91817E-06-1.10344E+03 1.70089E-07
 -1        84 3.50312E+00-3.18589E+05-8.32981E+04 1.30225E-06-1.64705E+05 6.98501E-07
 -1        85 3.42877E-01 9.22803E+03-6.12930E+03-1.78751E+00-6.76909E+02 6.97796E-01
 -1        86-2.32065E+00-1.53926E+05-4.37096E+04-1.37898E+01-8.28342E+04-1.07674E+00
 -1        87 3.53041E-01-3.65004E+05-1.17395E+05-3.83841E+00-2.05695E+05-6.16841E-01
 -1        88-2.32557E+00 1.09337E+04-4.14900E+03-8.58406E+00-1.10755E+03 1.49032E-01
 -1        89 2.32838E+00-3.18653E+05-8.33000E+04-1.34720E+01-1.64709E+05-2.86863E+00
 -1        90 5.84211E-01 9.20641E+03-6.13066E+03-5.99180E-07-6.81564E+02 5.88629E-07
 -1        91-8.81631E-01-1.53839E+05-4.37042E+04-1.27230E-06-8.28263E+04-7.98456E-07
 -1        92 1.25061E+00-3.65053E+05-1.17396E+05-6.38228E-07-2.05705E+05-3.35621E-07
 -1        93-5.58968E+00 1.12607E+04-2.93137E+03 1.50430E+01-1.05051E+03-6.20304E+00
 -1        94-1.02886E+01-2.12712E+05-4.42398E+04 4.04101E+01-9.84822E+04 7.05681E+00
 -1        95-6.60664E+00 1.13231E+04-2.92414E+03-1.35814E-06-1.03166E+03-1.31239E-06
 -1        96-1.91126E+01-2.12589E+05-4.42409E+04-4.39542E-06-9.84294E+04-4.39747E-07
 -1        97 2.47465E+00 9.58725E+03-4.60691E+03 1.03559E+01-9.98767E+02-4.95989E-01
 -1        98-2.09192E+00-1.00973E+05-2.33432E+04 2.80950E+01-4.94928E+04 1.62041E+00
 -1        99-7.26424E-01-2.63680E+05-6.52707E+04 2.17346E+01-1.30301E+05 2.84331E+00
 -1       100-6.09816E+00 1.12919E+04-2.92776E+03-9.23208E+00-1.04108E+03-7.10916E+00
 -1       101-1.47006E+01-2.12651E+05-4.42404E+04-2.28844E+01-9.84558E+04 2.68758E+00
 -1       102 2.23091E+00 9.55525E+03-4.60690E+03-1.82628E-06-1.00235E+03 6.61145E-08
 -1       103-7.01286E+00-1.00863E+05-2.33568E+04-2.97129E-06-4.94747E+04-4.44077E-07
 -1       104-3.96712E+00-2.63757E+05-6.52734E+04-1.60186E-06-1.30299E+05-6.01166E-07
 -1       105-1.09575E+01 1.18389E+04-2.43760E+03-9.34667E+01-1.01166E+03 1.06890E+01
 -1       106 1.43423E+01-1.05495E+05-1.75261E+04-2.09471E+02-4.38948E+04-3.14578E+01
 -1       107-7.82026E+00 1.19481E+04-2.45156E+03-5.73085E-06-1.01406E+03 2.69381E-06
 -1       108 4.86299E+01-1.05213E+05-1.74998E+04 3.71181E-08-4.39775E+04-4.60542E-06
 -1       109 2.27757E+00 9.74222E+03-3.73445E+03-2.50579E+01-1.25727E+03 6.67308E+00
 -1       110-1.96305E+01-4.65565E+04-1.01964E+04-1.54953E+02-2.26881E+04-1.14003E+01
 -1       111 8.40033E+00-1.56671E+05-3.22550E+04-6.12643E+01-7.03165E+04-9.44097E+00
 -1       112-9.38886E+00 1.18935E+04-2.44458E+03-2.43654E+01-1.01286E+03 1.60421E+01
 -1       113 3.14861E+01-1.05354E+05-1.75129E+04-1.65740E+01-4.39361E+04-2.10625E+01
 -1       114 3.33516E+00 9.71101E+03-3.74211E+03-1.47141E-06-1.27245E+03 6.57680E-08
 -1       115-9.17292E-01-4.64143E+04-1.01376E+04-3.63384E-06-2.26822E+04-2.60958E-07
 -1       116 2.11444E+01-1.56717E+05-3.22511E+04-3.71005E-06-7.03751E+04-1.95732E-06
 -1       117-2.85964E+01-1.44929E+03-5.40282E+03 3.44992E+02-6.83097E+03-9.58532E+01
 -1       118-2.13472E+02 1.90432E+04 5.92349E+03 7.86502E+02 9.60438E+03 1.57451E+01
 -1       119-3.38427E+01-2.49135E+03-5.32507E+03-1.98983E-06-6.96039E+03-4.21465E-06
 -1       120-3.45614E+02 1.62535E+04 5.82360E+03-3.51549E-06 9.65165E+03 1.28756E-05
 -1       121 1.18407E+01 9.45901E+03-3.01015E+03 1.18546E+02-1.28326E+03-1.74211E+01
 -1       122-4.20094E+01 9.43340E+03-2.95824E+02 5.82883E+02 7.48849E+02-2.98526E+01
 -1       123-1.40156E+01-4.53140E+04-1.08535E+04 2.67521E+02-2.24218E+04 3.95531E+01
 -1       124-3.12196E+01-1.97032E+03-5.36395E+03 1.89585E+02-6.89568E+03-8.22074E+01
 -1       125-2.79543E+02 1.76484E+04 5.87355E+03 2.72202E+02 9.62802E+03 4.83882E+01
 -1       126 1.07881E+01 9.38177E+03-2.98654E+03-6.65676E-06-1.26654E+03-8.57059E-07
 -1       127-1.10706E+02 7.64581E+03-4.83289E+02-2.99445E-06 5.89002E+02 2.33495E-06
 -1       128-6.29528E+01-4.55539E+04-1.08858E+04 8.59603E-08-2.22721E+04 4.14595E-06
 -1       129 1.34285E+02-1.48092E+04-2.09379E+06 3.69958E+01-9.80036E+03-3.59788E+01
 -1       130 5.40225E+01-3.83016E+04-3.38436E+04 7.74914E+00 9.77318E+03-2.53966E+01
 -1       131 4.19040E+00-1.33873E+04-3.06616E+04-1.07333E+00 1.40822E+04-3.70422E+00
 -1       132 3.94053E+00-1.11059E+05-1.66282E+06-3.10546E+00-4.69790E+05-6.50845E+00
 -1       133 1.34285E+02-1.47686E+04-2.09380E+06 5.12040E+01-9.79838E+03-3.09750E+01
 -1       134 5.40225E+01-3.82995E+04-3.38491E+04 7.64683E+00 9.78211E+03-2.27525E+01
 -1       135 4.18466E+00-1.33870E+04-3.06653E+04 5.70044E-01 1.40817E+04-9.36923E-01
 -1       136 3.93114E+00-1.11053E+05-1.66282E+06-1.73067E-01-4.69786E+05-1.46825E+00
 -1       137 9.40183E+01-2.47740E+04-1.06386E+06 8.72740E+00 1.28959E+03-2.95159E+01
 -1       138-2.25344E+00-1.51868E+04-3.06063E+04 1.20415E-01 9.49216E+03 1.68029E+00
 -1       139 4.07595E+00-6.25155E+04-8.46540E+05-1.62110E+00-2.28312E+05-4.10387E+00
 -1       140-2.05186E+00-5.29047E+04-1.88954E+06 9.11056E-01-2.48271E+05 3.25347E+00
 -1       141 3.60836E+00 2.03903E+02-2.38241E+04-2.54108E+00 7.05634E+03-3.71284E+00
 -1       142 3.75620E+00-3.26378E+05-1.14765E+06-5.11047E+00-6.23270E+05-5.73811E+00
 -1       143 3.60614E+00 2.05883E+02-2.38257E+04 4.61530E-01 7.05645E+03-1.15021E+00
 -1       144 3.76350E+00-3.26366E+05-1.14765E+06 3.83566E-01-6.23266E+05-1.26525E+00
 -1       145-1.91848E+00-8.68440E+03-2.60954E+04 9.38290E-01 9.43618E+03 1.94692E+00
 -1       146 3.69297E+00-1.63446E+05-5.85483E+05-3.29293E+00-3.08192E+05-4.03232E+00
 -1       147-1.90404E+00-2.26151E+05-1.39567E+06 2.16070E+00-5.49724E+05 3.16263E+00
 -1       148 3.08571E+00 4.94877E+03-1.81827E+04-3.29909E+00 3.85919E+03-2.98887E+00
 -1       149 3.66262E+00-4.68325E+05-7.30008E+05-5.74297E+00-5.91730E+05-4.24887E+00
 -1       150 3.09534E+00 4.95351E+03-1.81831E+04 7.60212E-01 3.86019E+03-9.40058E-01
 -1       151 3.67959E+00-4.68306E+05-7.30008E+05 1.54096E+00-5.91726E+05-7.40485E-01
 -1       152-1.67107E+00 1.63291E+02-2.02712E+04 1.55369E+00 5.13319E+03 1.71225E+00
 -1       153 3.37097E+00-2.31909E+05-3.73981E+05-3.98749E+00-2.93827E+05-3.17804E+00
 -1       154-1.85343E+00-4.02728E+05-9.31720E+05 2.86860E+00-6.05320E+05 2.51317E+00
 -1       155 2.44158E+00 8.17772E+03-1.29237E+04-3.41439E+00 1.18596E+03-1.94147E+00
 -1       156 3.26815E+00-5.15496E+05-4.41656E+05-5.43228E+00-4.81310E+05-2.73039E+00
 -1       157 2.45426E+00 8.18618E+03-1.29233E+04 1.55514E+00 1.18785E+03-4.72860E-01
 -1       158 3.26320E+00-5.15470E+05-4.41655E+05 3.47613E+00-4.81305E+05-1.61549E-01
 -1       159-1.39616E+00 4.35855E+03-1.55401E+04 1.68383E+00 2.73453E+03 1.24375E+00
 -1       160 2.89722E+00-2.53745E+05-2.27291E+05-3.92375E+00-2.39927E+05-2.11568E+00
 -1       161-1.79716E+00-4.94245E+05-5.82183E+05 2.76871E+00-5.32531E+05 1.70785E+00
 -1       162 1.42563E+00 9.62947E+03-8.96824E+03-1.87881E+00-1.79485E+02-9.42385E-01
 -1       163 2.78546E+00-4.87741E+05-2.58951E+05-2.36023E+00-3.58372E+05-1.23711E+00
 -1       164 1.47773E+00 9.64272E+03-8.96752E+03 3.06755E+00-1.76824E+02-7.07833E-02
 -1       165 2.88087E+00-4.87705E+05-2.58950E+05 6.07968E+00-3.58367E+05 5.47617E-01
 -1       166-1.03510E+00 7.01853E+03-1.14344E+04 1.65418E+00 9.34572E+02 6.75497E-01
 -1       167 1.98581E+00-2.39076E+05-1.34000E+05-1.65931E+00-1.79170E+05-1.04490E+00
 -1       168-1.47627E+00-5.01698E+05-3.49410E+05 2.54414E+00-4.16064E+05 1.01343E+00
 -1       169-3.05571E-02 1.04216E+04-6.07756E+03-2.07707E+00-8.70340E+02 4.42823E-01
 -1       170 6.68495E-01-4.14662E+05-1.48747E+05-3.70463E+00-2.50607E+05-8.95533E-01
 -1       171-5.30380E-02 1.04402E+04-6.07646E+03 4.85063E+00-8.66531E+02 9.82458E-01
 -1       172 3.90348E-01-4.14617E+05-1.48745E+05 9.98333E+00-2.50600E+05 6.56588E-01
 -1       173-3.64116E-01 8.43946E+03-8.35161E+03 1.54298E-01-8.32586E+01 2.47870E-01
 -1       174 7.77634E-01-2.02156E+05-7.74152E+04-2.51825E+00-1.25640E+05-4.36942E-01
 -1       175-1.23296E+00-4.50072E+05-2.04532E+05-3.01197E-01-3.01621E+05 2.45501E-01
 -1       176-2.58959E+00 1.09070E+04-4.14978E+03 8.52973E+00-1.11166E+03 1.57443E-01
 -1       177 1.15364E+00-3.18716E+05-8.33020E+04 1.79467E+01-1.64713E+05 2.37686E+00
 -1       178-2.32557E+00 1.09337E+04-4.14900E+03 8.58406E+00-1.10755E+03-1.49032E-01
 -1       179 2.32838E+00-3.18653E+05-8.33000E+04 1.34720E+01-1.64709E+05 2.86863E+00
 -1       180 3.42877E-01 9.22803E+03-6.12930E+03 1.78751E+00-6.76909E+02-6.97795E-01
 -1       181-2.32065E+00-1.53926E+05-4.37096E+04 1.37898E+01-8.28342E+04 1.07673E+00
 -1       182 3.53041E-01-3.65004E+05-1.17395E+05 3.83841E+00-2.05695E+05 6.16839E-01
 -1       183-5.58968E+00 1.12607E+04-2.93137E+03-1.50430E+01-1.05051E+03 6.20304E+00
 -1       184-1.02886E+01-2.12712E+05-4.42398E+04-4.04101E+01-9.84822E+04-7.05680E+00
 -1       185-6.09816E+00 1.12919E+04-2.92776E+03 9.23208E+00-1.04108E+03 7.10916E+00
 -1       186-1.47006E+01-2.12651E+05-4.42404E+04 2.28844E+01-9.84558E+04-2.68758E+00
 -1       187 2.47465E+00 9.58725E+03-4.60691E+03-1.03559E+01-9.98767E+02 4.95990E-01
 -1       188-2.09192E+00-1.00973E+05-2.33432E+04-2.80950E+01-4.94928E+04-1.62041E+00
 -1       189-7.26424E-01-2.63680E+05-6.52707E+04-2.17346E+01-1.30301E+05-2.84331E+00
 -1       190-1.09575E+01 1.18389E+04-2.43760E+03 9.34667E+01-1.01166E+03-1.06890E+01
 -1       191 1.43423E+01-1.05495E+05-1.75261E+04 2.09471E+02-4.38948E+04 3.14578E+01
 -1       192-9.38886E+00 1.18935E+04-2.44458E+03 2.43653E+01-1.01286E+03-1.60421E+01
 -1       193 3.14861E+01-1.05354E+05-1.75129E+04 1.65740E+01-4.39361E+04 2.10625E+01
 -1       194 2.27757E+00 9.74222E+03-3.73445E+03 2.50579E+01-1.25727E+03-6.67308E+00
 -1       195-1.96305E+01-4.65565E+04-1.01964E+04 1.54953E+02-2.26881E+04 1.14003E+01
 -1       196 8.40033E+00-1.56671E+05-3.22550E+04 6.12643E+01-7.03165E+04 9.44097E+00
 -1       197-2.85964E+01-1.44929E+03-5.40282E+03-3.44992E+02-6.83097E+03 9.58532E+01
 -1       198-2.13472E+02 1.90432E+04 5.92349E+03-7.86502E+02 9.60438E+03-1.57452E+01
 -1       199-3.12196E+01-1.97032E+03-5.36395E+03-1.89585E+02-6.89568E+03 8.22074E+01
 -1       200-2.79543E+02 1.76484E+04 5.87355E+03-2.72202E+02 9.62802E+03-4.83882E+01
 -1       201 1.18407E+01 9.45901E+03-3.01015E+03-1.18546E+02-1.28326E+03 1.74211E+01
 -1       202-4.20094E+01 9.43340E+03-2.95824E+02-5.82883E+02 7.48849E+02 2.98526E+01
 -1       203-1.40156E+01-4.53140E+04-1.08535E+04-2.67521E+02-2.24218E+04-3.95531E+01
 -1       204 1.34982E+02-6.24053E+04 2.16076E+06-8.27408E+01 3.31457E+04 9.48581E+01
 -1       205 2.06638E+00 1.20559E+05 1.70945E+06 2.95400E+00 4.88937E+05 6.57953E+00
 -1       206 1.34982E+02-6.24688E+04 2.16072E+06 7.38105E-08 3.31974E+04 2.15979E-08
 -1       207 2.10135E+00 1.20569E+05 1.70942E+06-3.38057E-08 4.88942E+05-3.67180E-08
 -1       208 9.46376E+01-5.21349E+04 1.06349E+06-5.88901E+01 2.01562E+04 6.12992E+01
 -1       209-1.04477E+00 3.96253E+04 1.94642E+06-9.46473E-01 2.63541E+05-3.50836E+00
 -1       210 3.11791E+00 5.38784E+04 8.39194E+05 2.48196E+00 2.51968E+05 6.14434E+00
 -1       211 1.34982E+02-6.24371E+04 2.16074E+06-6.99666E+01 3.31715E+04 8.66131E+01
 -1       212 2.08387E+00 1.20564E+05 1.70944E+06-1.13058E+00 4.88939E+05-8.33636E-01
 -1       213 9.46376E+01-5.22006E+04 1.06347E+06 8.07569E-08 2.02033E+04 1.67878E-08
 -1       214-1.02730E+00 3.96226E+04 1.94644E+06-1.28669E-07 2.63538E+05-1.03963E-08
 -1       215 3.12969E+00 5.38835E+04 8.39177E+05-1.70988E-08 2.51970E+05 3.79781E-09
 -1       216 1.66133E+00 3.38143E+05 1.17247E+06 4.45113E+00 6.46224E+05 5.17456E+00
 -1       217 1.69395E+00 3.38166E+05 1.17246E+06 1.00975E-07 6.46230E+05 6.37438E-08
 -1       218-9.81402E-01 2.31386E+05 1.43461E+06-2.02107E+00 5.67332E+05-2.98818E+00
 -1       219 2.62415E+00 1.69532E+05 5.74069E+05 4.02895E+00 3.26726E+05 5.13685E+00
 -1       220 1.67764E+00 3.38154E+05 1.17247E+06-2.24284E+00 6.46227E+05-6.10328E-01
 -1       221-9.47605E-01 2.31378E+05 1.43462E+06 3.84480E-08 5.67329E+05-7.77646E-09
 -1       222 2.63829E+00 1.69545E+05 5.74064E+05-6.75270E-08 3.26729E+05-3.00447E-09
 -1       223 7.48384E-01 4.86116E+05 7.43643E+05 4.40035E+00 6.08311E+05 3.19409E+00
 -1       224 7.66486E-01 4.86155E+05 7.43644E+05-1.11005E-06 6.08322E+05-4.09343E-09
 -1       225-6.50499E-01 4.12371E+05 9.54117E+05-2.40388E+00 6.25142E+05-2.09272E+00
 -1       226 1.92024E+00 2.45753E+05 3.62615E+05 4.38326E+00 3.05977E+05 3.53231E+00
 -1       227 7.57435E-01 4.86135E+05 7.43643E+05-3.70589E+00 6.08317E+05-7.41095E-01
 -1       228-6.25129E-01 4.12355E+05 9.54119E+05-8.11865E-07 6.25138E+05-6.37854E-08
 -1       229 1.93894E+00 2.45776E+05 3.62617E+05-7.92954E-09 3.05985E+05-3.39870E-08
 -1       230-5.78856E-01 5.33323E+05 4.49155E+05 3.20691E+00 4.93207E+05 1.04497E+00
 -1       231-4.73754E-01 5.33381E+05 4.49161E+05-9.57743E-07 4.93222E+05-4.78979E-07
 -1       232-7.55275E-02 5.08423E+05 5.94717E+05-1.92654E+00 5.48830E+05-1.00888E+00
 -1       233 8.89005E-01 2.70836E+05 2.18117E+05 3.81024E+00 2.47061E+05 1.71348E+00
 -1       234-5.26305E-01 5.33352E+05 4.49158E+05-5.82498E+00 4.93214E+05-1.22204E+00
 -1       235-1.39595E-02 5.08399E+05 5.94715E+05-2.42297E-07 5.48824E+05-9.00099E-08
 -1       236 9.54263E-01 2.70872E+05 2.18121E+05-1.29344E-06 2.47073E+05 2.40318E-07
 -1       237-2.76887E+00 5.04626E+05 2.63841E+05-9.51573E-01 3.66558E+05-1.40421E+00
 -1       238-2.93055E+00 5.04703E+05 2.63848E+05-6.37153E-07 3.66578E+05 2.64705E-07
 -1       239 6.74741E-01 5.17228E+05 3.55908E+05-1.19353E+00 4.28871E+05 3.97887E-02
 -1       240-5.51883E-01 2.57148E+05 1.27476E+05 9.23829E-01 1.83084E+05-1.86066E-01
 -1       241-2.84971E+00 5.04664E+05 2.63845E+05-8.68835E+00 3.66568E+05-2.23461E+00
 -1       242 6.46557E-01 5.17193E+05 3.55904E+05-1.85328E-06 4.28863E+05 7.69485E-07
 -1       243-5.80674E-01 2.57199E+05 1.27482E+05-2.96612E-08 1.83099E+05 2.89786E-07
 -1       244-5.25734E+00 4.30077E+05 1.52367E+05-1.40218E+00 2.56512E+05-2.96318E+00
 -1       245-4.36763E+00 4.30181E+05 1.52375E+05 3.62496E-07 2.56532E+05-2.41807E-07
 -1       246 2.12406E+00 4.65878E+05 2.07874E+05 2.29728E+00 3.11365E+05 1.44957E+00
 -1       247-3.10261E+00 2.20285E+05 7.31478E+04 7.10043E-01 1.27722E+05-1.91359E+00
 -1       248-4.81248E+00 4.30129E+05 1.52371E+05-1.29639E+01 2.56522E+05-2.93785E+00
 -1       249 2.48773E+00 4.65835E+05 2.07869E+05 2.65863E-06 3.11353E+05-5.79608E-07
 -1       250-2.68014E+00 2.20353E+05 7.31552E+04-4.26708E-07 1.27740E+05-1.46252E-07
 -1       251-1.13078E+01 3.32716E+05 8.62537E+04-2.42375E+01 1.69200E+05-8.11872E+00
 -1       252-1.40920E+01 3.32828E+05 8.62655E+04 7.62419E-06 1.69242E+05-1.32033E-06
 -1       253 3.10408E+00 3.80556E+05 1.19144E+05-8.62079E-01 2.13283E+05 1.55370E+00
 -1       254-5.34603E+00 1.71833E+05 4.10357E+04-1.58320E+01 8.39658E+04-4.32850E+00
 -1       255-1.26999E+01 3.32772E+05 8.62596E+04-1.75025E+01 1.69221E+05-6.39300E+00
 -1       256 2.15792E+00 3.80495E+05 1.19140E+05 3.62570E-07 2.13274E+05-1.65041E-06
 -1       257-6.47438E+00 1.71919E+05 4.10397E+04 2.81735E-06 8.39914E+04 6.57630E-07
 -1       258-1.20881E+01 2.25493E+05 4.65505E+04 2.80808E+01 1.02003E+05-1.32467E+00
 -1       259-1.51113E+00 2.25693E+05 4.65535E+04 7.40902E-08 1.01992E+05-7.04758E-07
 -1       260 8.55738E+00 2.79025E+05 6.63083E+04 2.55948E+01 1.36456E+05 6.76649E+00
 -1       261-1.46861E+01 1.18625E+05 2.15672E+04 2.11934E+01 5.02028E+04-4.95738E+00
 -1       262-6.79960E+00 2.25593E+05 4.65520E+04-2.66635E+01 1.01998E+05-1.59149E+00
 -1       263 1.24501E+01 2.78973E+05 6.63004E+04 4.55522E-06 1.36422E+05-1.23326E-06
 -1       264-9.90567E+00 1.18738E+05 2.15889E+04-5.47515E-07 5.02244E+04-1.44056E-06
 -1       265-4.17790E+01 1.16758E+05 1.95110E+04-2.13134E+02 4.70343E+04-4.04272E+01
 -1       266-7.87704E+01 1.16775E+05 1.95596E+04-1.09533E-06 4.72728E+04 2.09401E-06
 -1       267 2.10001E+00 1.71881E+05 3.31554E+04-5.45799E+01 7.58149E+04-5.80850E+00
 -1       268-5.04523E+00 6.40269E+04 8.75122E+03-1.49817E+02 2.32462E+04-1.38533E+01
 -1       269-6.02747E+01 1.16767E+05 1.95353E+04-2.76911E+01 4.71536E+04-2.95535E+01
 -1       270-1.10952E+01 1.71738E+05 3.31603E+04 2.15854E-07 7.58585E+04 1.39554E-06
 -1       271-2.19732E+01 6.41435E+04 8.71589E+03-2.62611E-06 2.33158E+04 1.69907E-06
 -1       272 1.24233E+02 2.20074E+04 7.63272E+02 9.46686E+02 6.58846E+03 6.71914E+01
 -1       273 2.56899E+02 2.02449E+04 6.02317E+02 4.83199E-06 5.22592E+03-8.37134E-06
 -1       274 4.64954E+01 6.12376E+04 1.17427E+04 2.71382E+02 2.72204E+04 4.83770E+01
 -1       275-3.12064E+01 9.64262E+03-1.76361E+03 6.28703E+02 5.16605E+02-2.45323E+01
 -1       276 1.90566E+02 2.11262E+04 6.82794E+02 4.05393E+02 5.90719E+03 9.03190E+01
 -1       277 9.43233E+01 6.13503E+04 1.16867E+04 1.98596E-06 2.69446E+04-3.06887E-06
 -1       278 3.25055E+01 8.11204E+03-1.62882E+03 1.66286E-06-1.10609E+02-4.29747E-06
 -1       279 1.34982E+02-6.24053E+04 2.16076E+06 8.27408E+01 3.31457E+04-9.48581E+01
 -1       280 2.06638E+00 1.20559E+05 1.70945E+06-2.95400E+00 4.88937E+05-6.57953E+00
 -1       281 1.34982E+02-6.24371E+04 2.16074E+06 6.99666E+01 3.31715E+04-8.66131E+01
 -1       282 2.08387E+00 1.20564E+05 1.70944E+06 1.13058E+00 4.88939E+05 8.33636E-01
 -1       283 9.46376E+01-5.21349E+04 1.06349E+06 5.88901E+01 2.01562E+04-6.12992E+01
 -1       284-1.04477E+00 3.96253E+04 1.94642E+06 9.46473E-01 2.63541E+05 3.50836E+00
 -1       285 3.11791E+00 5.38784E+04 8.39194E+05-2.48196E+00 2.51968E+05-6.14434E+00
 -1       286 1.66133E+00 3.38143E+05 1.17247E+06-4.45113E+00 6.46224E+05-5.17456E+00
 -1       287 1.67764E+00 3.38154E+05 1.17247E+06 2.24284E+00 6.46227E+05 6.10327E-01
 -1       288-9.81402E-01 2.31386E+05 1.43461E+06 2.02107E+00 5.67332E+05 2.98818E+00
 -1       289 2.62415E+00 1.69532E+05 5.74069E+05-4.02895E+00 3.26726E+05-5.13685E+00
 -1       290 7.48384E-01 4.86116E+05 7.43643E+05-4.40035E+00 6.08311E+05-3.19409E+00
 -1       291 7.57435E-01 4.86135E+05 7.43643E+05 3.70589E+00 6.08317E+05 7.41095E-01
 -1       292-6.50499E-01 4.12371E+05 9.54117E+05 2.40388E+00 6.25142E+05 2.09272E+00
 -1       293 1.92024E+00 2.45753E+05 3.62615E+05-4.38326E+00 3.05977E+05-3.53232E+00
 -1       294-5.78856E-01 5.33323E+05 4.49155E+05-3.20691E+00 4.93207E+05-1.04497E+00
 -1       295-5.26305E-01 5.33352E+05 4.49158E+05 5.82498E+00 4.93214E+05 1.22204E+00
 -1       296-7.55275E-02 5.08423E+05 5.94717E+05 1.92654E+00 5.48830E+05 1.00888E+00
 -1       297 8.89005E-01 2.70836E+05 2.18117E+05-3.81023E+00 2.47061E+05-1.71348E+00
 -1       298-2.76887E+00 5.04626E+05 2.63841E+05 9.51572E-01 3.66558E+05 1.40421E+00
 -1       299-2.84971E+00 5.04664E+05 2.63845E+05 8.68835E+00 3.66568E+05 2.23461E+00
 -1       300 6.74741E-01 5.17228E+05 3.55908E+05 1.19353E+00 4.28871E+05-3.97891E-02
 -1       301-5.51883E-01 2.57148E+05 1.27476E+05-9.23833E-01 1.83084E+05 1.86066E-01
 -1       302-5.25734E+00 4.30077E+05 1.52367E+05 1.40218E+00 2.56512E+05 2.96318E+00
 -1       303-4.81248E+00 4.30129E+05 1.52371E+05 1.29639E+01 2.56522E+05 2.93785E+00
 -1       304 2.12406E+00 4.65878E+05 2.07874E+05-2.29729E+00 3.11365E+05-1.44957E+00
 -1       305-3.10261E+00 2.20285E+05 7.31478E+04-7.10041E-01 1.27722E+05 1.91359E+00
 -1       306-1.13078E+01 3.32716E+05 8.62537E+04 2.42374E+01 1.69200E+05 8.11872E+00
 -1       307-1.26999E+01 3.32772E+05 8.62596E+04 1.75025E+01 1.69221E+05 6.39300E+00
 -1       308 3.10408E+00 3.80556E+05 1.19144E+05 8.62075E-01 2.13283E+05-1.55370E+00
 -1       309-5.34603E+00 1.71833E+05 4.10357E+04 1.58320E+01 8.39658E+04 4.32850E+00
 -1       310-1.20881E+01 2.25493E+05 4.65505E+04-2.80808E+01 1.02003E+05 1.32467E+00
 -1       311-6.79960E+00 2.25593E+05 4.65520E+04 2.66635E+01 1.01998E+05 1.59149E+00
 -1       312 8.55739E+00 2.79025E+05 6.63083E+04-2.55949E+01 1.36456E+05-6.76649E+00
 -1       313-1.46861E+01 1.18625E+05 2.15672E+04-2.11934E+01 5.02028E+04 4.95738E+00
 -1       314-4.17790E+01 1.16758E+05 1.95110E+04 2.13134E+02 4.70343E+04 4.04272E+01
 -1       315-6.02747E+01 1.16767E+05 1.95353E+04 2.76911E+01 4.71536E+04 2.95535E+01
 -1       316 2.10001E+00 1.71881E+05 3.31554E+04 5.45799E+01 7.58149E+04 5.80850E+00
 -1       317-5.04523E+00 6.40269E+04 8.75122E+03 1.49817E+02 2.32462E+04 1.38533E+01
 -1       318 1.24233E+02 2.20074E+04 7.63272E+02-9.46686E+02 6.58846E+03-6.71914E+01
 -1       319 1.90566E+02 2.11262E+04 6.82794E+02-4.05393E+02 5.90719E+03-9.03190E+01
 -1       320 4.64954E+01 6.12376E+04 1.17427E+04-2.71382E+02 2.72204E+04-4.83770E+01
 -1       321-3.12064E+01 9.64262E+03-1.76361E+03-6.28703E+02 5.16605E+02 2.45323E+01
 -3
    1PSTEP                        19          10           1          
  100CL  110 5.00000E-01         321                     0   10           1
 -4  DISP        4    1
 -5  D1          1    2    1    0
 -5  D2          1    2    2    0
 -5  D3          1    2    3    0
 -5  ALL         1    2    0    0    1ALL
 -1         1 0.00000E+00 0.00000E+00 0.00000E+00
 -1         2 0.00000E+00 0.00000E+00 0.00000E+00
 -1         3-6.50811E-08 1.43493E-01-1.38734E-02
 -1         4-1.55897E-07 1.40546E-01-3.44142E-02
 -1         5 0.00000E+00 0.00000E+00 0.00000E+00
 -1         6 0.00000E+00 0.00000E+00 0.00000E+00
 -1         7-2.48828E-13 1.43493E-01-1.38734E-02
 -1         8-2.17838E-13 1.40546E-01-3.44142E-02
 -1         9 0.00000E+00 0.00000E+00 0.00000E+00
 -1        10 1.43885E-08 3.70250E-02-1.89954E-03
 -1        11-1.10488E-07 1.42018E-01-2.41403E-02
 -1        12 3.73561E-08 3.62324E-02-1.26513E-02
 -1        13 0.00000E+00 0.00000E+00 0.00000E+00
 -1        14 0.00000E+00 0.00000E+00 0.00000E+00
 -1        15-3.25415E-08 1.43493E-01-1.38734E-02
 -1        16-7.79496E-08 1.40546E-01-3.44142E-02
 -1        17 0.00000E+00 0.00000E+00 0.00000E+00
 -1        18-6.51395E-14 3.70250E-02-1.89955E-03
 -1        19-2.33351E-13 1.42018E-01-2.41403E-02
 -1        20-4.99953E-14 3.62324E-02-1.26513E-02
 -1        21-1.44055E-07 5.33852E-01-9.57951E-02
 -1        22-3.24284E-07 5.24203E-01-1.32198E-01
 -1        23-9.12982E-13 5.33852E-01-9.57951E-02
 -1        24-8.52007E-13 5.24203E-01-1.32197E-01
 -1        25 5.06857E-08 3.11861E-01-4.34514E-02
 -1        26-2.34161E-07 5.29028E-01-1.13994E-01
 -1        27 1.18525E-07 3.05937E-01-7.24706E-02
 -1        28-7.20281E-08 5.33852E-01-9.57951E-02
 -1        29-1.62141E-07 5.24203E-01-1.32197E-01
 -1        30-5.37946E-13 3.11861E-01-4.34514E-02
 -1        31-8.82329E-13 5.29028E-01-1.13994E-01
 -1        32-4.90511E-13 3.05937E-01-7.24707E-02
 -1        33-2.34918E-07 1.10881E+00-2.79504E-01
 -1        34-5.04636E-07 1.09111E+00-3.27384E-01
 -1        35-1.86833E-12 1.10881E+00-2.79504E-01
 -1        36-1.78321E-12 1.09111E+00-3.27384E-01
 -1        37 9.33593E-08 8.01931E-01-1.74002E-01
 -1        38-3.69785E-07 1.09996E+00-3.03442E-01
 -1        39 2.05759E-07 7.88410E-01-2.16650E-01
 -1        40-1.17459E-07 1.10881E+00-2.79504E-01
 -1        41-2.52317E-07 1.09111E+00-3.27384E-01
 -1        42-1.36303E-12 8.01931E-01-1.74002E-01
 -1        43-1.82588E-12 1.09996E+00-3.03442E-01
 -1        44-1.28803E-12 7.88410E-01-2.16650E-01
 -1        45-3.35905E-07 1.81449E+00-5.72338E-01
 -1        46-6.96674E-07 1.78890E+00-6.28172E-01
 -1        47-3.00834E-12 1.81449E+00-5.72338E-01
 -1        48-2.90381E-12 1.78890E+00-6.28172E-01
 -1        49 1.41558E-07 1.44822E+00-4.12525E-01
 -1        50-5.16229E-07 1.80170E+00-6.00254E-01
 -1        51 2.98883E-07 1.42658E+00-4.64809E-01
 -1        52-1.67952E-07 1.81449E+00-5.72338E-01
 -1        53-3.48339E-07 1.78890E+00-6.28172E-01
 -1        54-2.42310E-12 1.44822E+00-4.12525E-01
 -1        55-2.95603E-12 1.80170E+00-6.00254E-01
 -1        56-2.32620E-12 1.42658E+00-4.64809E-01
 -1        57-4.44868E-07 2.60940E+00-9.66537E-01
 -1        58-8.98626E-07 2.57684E+00-1.02772E+00
 -1        59-4.24997E-12 2.60940E+00-9.66537E-01
 -1        60-4.13985E-12 2.57684E+00-1.02772E+00
 -1        61 1.94355E-07 2.20293E+00-7.57600E-01
 -1        62-6.71915E-07 2.59312E+00-9.97126E-01
 -1        63 3.97776E-07 2.17377E+00-8.16450E-01
 -1        64-2.22429E-07 2.60940E+00-9.66537E-01
 -1        65-4.49304E-07 2.57684E+00-1.02772E+00
 -1        66-3.62211E-12 2.20293E+00-7.57601E-01
 -1        67-4.19433E-12 2.59312E+00-9.97126E-01
 -1        68-3.51100E-12 2.17377E+00-8.16450E-01
 -1        69-5.58433E-07 3.46357E+00-1.44711E+00
 -1        70-1.10967E-06 3.42528E+00-1.51179E+00
 -1        71-5.52100E-12 3.46357E+00-1.44711E+00
 -1        72-5.41145E-12 3.42528E+00-1.51179E+00
 -1        73 2.50546E-07 3.03058E+00-1.19709E+00
 -1        74-8.33391E-07 3.44443E+00-1.47945E+00
 -1        75 5.00881E-07 2.99503E+00-1.26030E+00
 -1        76-2.79223E-07 3.46357E+00-1.44711E+00
 -1        77-5.54872E-07 3.42528E+00-1.51179E+00
 -1        78-4.88032E-12 3.03058E+00-1.19709E+00
 -1        79-5.46560E-12 3.44443E+00-1.47945E+00
 -1        80-4.76789E-12 2.99503E+00-1.26030E+00
 -1        81-6.71734E-07 4.35611E+00-1.99641E+00
 -1        82-1.31845E-06 4.31342E+00-2.06333E+00
 -1        83-6.79652E-12 4.35611E+00-1.99641E+00
 -1        84-6.68371E-12 4.31342E+00-2.06333E+00
 -1        85 3.07892E-07 3.90608E+00-1.71429E+00
 -1        86-9.97388E-07 4.33477E+00-2.02987E+00
 -1        87 6.08627E-07 3.86544E+00-1.78031E+00
 -1        88-3.35832E-07 4.35611E+00-1.99641E+00
 -1        89-6.59087E-07 4.31342E+00-2.06333E+00
 -1        90-6.17103E-12 3.90608E+00-1.71429E+00
 -1        91-6.73936E-12 4.33477E+00-2.02987E+00
 -1        92-6.05386E-12 3.86544E+00-1.78031E+00
 -1        93-7.76181E-07 5.27263E+00-2.59644E+00
 -1        94-1.54034E-06 5.22685E+00-2.66471E+00
 -1        95-7.99643E-12 5.27262E+00-2.59644E+00
 -1        96-7.88687E-12 5.22685E+00-2.66471E+00
 -1        97 3.64040E-07 4.81210E+00-2.29118E+00
 -1        98-1.14977E-06 5.24974E+00-2.63057E+00
 -1        99 7.10245E-07 4.76771E+00-2.35896E+00
 -1       100-3.88167E-07 5.27262E+00-2.59644E+00
 -1       101-7.70717E-07 5.22685E+00-2.66471E+00
 -1       102-7.41193E-12 4.81210E+00-2.29118E+00
 -1       103-7.94123E-12 5.24974E+00-2.63057E+00
 -1       104-7.29443E-12 4.76771E+00-2.35896E+00
 -1       105-8.61941E-07 6.20300E+00-3.22971E+00
 -1       106-1.68255E-06 6.15542E+00-3.29870E+00
 -1       107-9.15113E-12 6.20300E+00-3.22971E+00
 -1       108-9.04865E-12 6.15541E+00-3.29870E+00
 -1       109 4.11695E-07 5.73662E+00-2.90997E+00
 -1       110-1.30346E-06 6.17921E+00-3.26421E+00
 -1       111 8.28645E-07 5.68976E+00-2.97877E+00
 -1       112-4.30752E-07 6.20300E+00-3.22971E+00
 -1       113-8.39162E-07 6.15542E+00-3.29870E+00
 -1       114-8.57429E-12 5.73662E+00-2.90997E+00
 -1       115-9.10013E-12 6.17921E+00-3.26421E+00
 -1       116-8.46052E-12 5.68976E+00-2.97877E+00
 -1       117-9.08942E-07 7.13972E+00-3.87940E+00
 -1       118-2.02987E-06 7.09155E+00-3.94861E+00
 -1       119-1.02535E-11 7.13971E+00-3.87940E+00
 -1       120-1.01596E-11 7.09154E+00-3.94861E+00
 -1       121 4.52381E-07 6.67101E+00-3.55351E+00
 -1       122-1.35217E-06 7.11563E+00-3.91401E+00
 -1       123 8.57934E-07 6.62294E+00-3.62278E+00
 -1       124-4.54847E-07 7.13972E+00-3.87940E+00
 -1       125-1.02316E-06 7.09154E+00-3.94861E+00
 -1       126-9.70445E-12 6.67101E+00-3.55351E+00
 -1       127-1.02082E-11 7.11563E+00-3.91401E+00
 -1       128-9.59049E-12 6.62294E+00-3.62278E+00
 -1       129 0.00000E+00 0.00000E+00 0.00000E+00
 -1       130 0.00000E+00 0.00000E+00 0.00000E+00
 -1       131 6.50806E-08 1.43493E-01-1.38734E-02
 -1       132 1.55897E-07 1.40546E-01-3.44142E-02
 -1       133 0.00000E+00 0.00000E+00 0.00000E+00
 -1       134 0.00000E+00 0.00000E+00 0.00000E+00
 -1       135 3.25410E-08 1.43493E-01-1.38734E-02
 -1       136 7.79491E-08 1.40546E-01-3.44142E-02
 -1       137 0.00000E+00 0.00000E+00 0.00000E+00
 -1       138-1.43886E-08 3.70250E-02-1.89954E-03
 -1       139 1.10487E-07 1.42018E-01-2.41403E-02
 -1       140-3.73562E-08 3.62324E-02-1.26513E-02
 -1       141 1.44053E-07 5.33852E-01-9.57951E-02
 -1       142 3.24282E-07 5.24203E-01-1.32198E-01
 -1       143 7.20263E-08 5.33852E-01-9.57951E-02
 -1       144 1.62139E-07 5.24203E-01-1.32197E-01
 -1       145-5.06867E-08 3.11861E-01-4.34514E-02
 -1       146 2.34160E-07 5.29028E-01-1.13994E-01
 -1       147-1.18526E-07 3.05937E-01-7.24706E-02
 -1       148 2.34914E-07 1.10881E+00-2.79504E-01
 -1       149 5.04633E-07 1.09111E+00-3.27384E-01
 -1       150 1.17455E-07 1.10881E+00-2.79504E-01
 -1       151 2.52313E-07 1.09111E+00-3.27384E-01
 -1       152-9.33620E-08 8.01931E-01-1.74002E-01
 -1       153 3.69782E-07 1.09996E+00-3.03442E-01
 -1       154-2.05762E-07 7.88410E-01-2.16650E-01
 -1       155 3.35899E-07 1.81449E+00-5.72338E-01
 -1       156 6.96668E-07 1.78890E+00-6.28172E-01
 -1       157 1.67946E-07 1.81449E+00-5.72338E-01
 -1       158 3.48333E-07 1.78890E+00-6.28172E-01
 -1       159-1.41562E-07 1.44822E+00-4.12525E-01
 -1       160 5.16223E-07 1.80170E+00-6.00254E-01
 -1       161-2.98888E-07 1.42658E+00-4.64809E-01
 -1       162 4.44860E-07 2.60940E+00-9.66537E-01
 -1       163 8.98618E-07 2.57684E+00-1.02772E+00
 -1       164 2.22420E-07 2.60940E+00-9.66537E-01
 -1       165 4.49295E-07 2.57684E+00-1.02772E+00
 -1       166-1.94362E-07 2.20293E+00-7.57600E-01
 -1       167 6.71906E-07 2.59312E+00-9.97126E-01
 -1       168-3.97783E-07 2.17377E+00-8.16450E-01
 -1       169 5.58422E-07 3.46357E+00-1.44711E+00
 -1       170 1.10966E-06 3.42528E+00-1.51179E+00
 -1       171 2.79212E-07 3.46357E+00-1.44711E+00
 -1       172 5.54861E-07 3.42528E+00-1.51179E+00
 -1       173-2.50556E-07 3.03058E+00-1.19709E+00
 -1       174 8.33380E-07 3.44443E+00-1.47945E+00
 -1       175-5.00891E-07 2.99503E+00-1.26030E+00
 -1       176 6.71720E-07 4.35611E+00-1.99641E+00
 -1       177 1.31844E-06 4.31342E+00-2.06333E+00
 -1       178 3.35819E-07 4.35611E+00-1.99641E+00
 -1       179 6.59074E-07 4.31342E+00-2.06333E+00
 -1       180-3.07904E-07 3.90608E+00-1.71429E+00
 -1       181 9.97375E-07 4.33477E+00-2.02987E+00
 -1       182-6.08639E-07 3.86544E+00-1.78031E+00
 -1       183 7.76165E-07 5.27263E+00-2.59644E+00
 -1       184 1.54033E-06 5.22685E+00-2.66471E+00
 -1       185 3.88151E-07 5.27262E+00-2.59644E+00
 -1       186 7.70701E-07 5.22685E+00-2.66471E+00
 -1       187-3.64055E-07 4.81210E+00-2.29118E+00
 -1       188 1.14976E-06 5.24974E+00-2.63057E+00
 -1       189-7.10260E-07 4.76771E+00-2.35896E+00
 -1       190 8.61922E-07 6.20300E+00-3.22971E+00
 -1       191 1.68254E-06 6.15542E+00-3.29870E+00
 -1       192 4.30733E-07 6.20300E+00-3.22971E+00
 -1       193 8.39143E-07 6.15542E+00-3.29870E+00
 -1       194-4.11712E-07 5.73662E+00-2.90997E+00
 -1       195 1.30345E-06 6.17921E+00-3.26421E+00
 -1       196-8.28662E-07 5.68976E+00-2.97877E+00
 -1       197 9.08922E-07 7.13972E+00-3.87940E+00
 -1       198 2.02985E-06 7.09155E+00-3.94861E+00
 -1       199 4.54827E-07 7.13972E+00-3.87940E+00
 -1       200 1.02314E-06 7.09154E+00-3.94861E+00
 -1       201-4.52400E-07 6.67101E+00-3.55351E+00
 -1       202 1.35215E-06 7.11563E+00-3.91401E+00
 -1       203-8.57953E-07 6.62294E+00-3.62278E+00
 -1       204 0.00000E+00 0.00000E+00 0.00000E+00
 -1       205-1.57818E-07 1.46427E-01 6.65281E-03
 -1       206 0.00000E+00 0.00000E+00 0.00000E+00
 -1       207-2.80802E-13 1.46427E-01 6.65296E-03
 -1       208 0.00000E+00 0.00000E+00 0.00000E+00
 -1       209 3.87207E-08 3.78209E-02 8.85869E-03
 -1       210-1.11451E-07 1.44962E-01-3.61370E-03
 -1       211 0.00000E+00 0.00000E+00 0.00000E+00
 -1       212-7.89066E-08 1.46427E-01 6.65289E-03
 -1       213 0.00000E+00 0.00000E+00 0.00000E+00
 -1       214-7.99878E-14 3.78210E-02 8.85865E-03
 -1       215-2.64847E-13 1.44962E-01-3.61361E-03
 -1       216-3.21546E-07 5.43482E-01-5.94035E-02
 -1       217-9.75208E-13 5.43482E-01-5.94033E-02
 -1       218 1.19112E-07 3.17793E-01-1.44250E-02
 -1       219-2.32802E-07 5.38667E-01-7.76017E-02
 -1       220-1.60771E-07 5.43482E-01-5.94034E-02
 -1       221-5.84657E-13 3.17793E-01-1.44252E-02
 -1       222-9.43915E-13 5.38667E-01-7.76015E-02
 -1       223-4.90254E-07 1.12648E+00-2.31623E-01
 -1       224-1.95639E-12 1.12648E+00-2.31623E-01
 -1       225 2.02439E-07 8.15462E-01-1.31351E-01
 -1       226-3.62565E-07 1.11764E+00-2.55565E-01
 -1       227-2.45127E-07 1.12648E+00-2.31623E-01
 -1       228-1.43642E-12 8.15463E-01-1.31351E-01
 -1       229-1.91252E-12 1.11764E+00-2.55565E-01
 -1       230-6.61126E-07 1.84007E+00-5.16493E-01
 -1       231-3.11675E-12 1.84007E+00-5.16493E-01
 -1       232 2.87815E-07 1.46986E+00-3.60245E-01
 -1       233-4.98569E-07 1.82728E+00-5.44417E-01
 -1       234-3.30558E-07 1.84007E+00-5.16493E-01
 -1       235-2.51815E-12 1.46986E+00-3.60245E-01
 -1       236-3.06239E-12 1.82728E+00-5.44417E-01
 -1       237-8.30458E-07 2.64197E+00-9.05336E-01
 -1       238-4.36586E-12 2.64197E+00-9.05336E-01
 -1       239 3.73324E-07 2.23208E+00-6.98759E-01
 -1       240-6.37451E-07 2.62569E+00-9.35938E-01
 -1       241-4.15242E-07 2.64197E+00-9.05336E-01
 -1       242-3.73156E-12 2.23208E+00-6.98759E-01
 -1       243-4.30725E-12 2.62568E+00-9.35938E-01
 -1       244-9.89857E-07 3.50188E+00-1.38239E+00
 -1       245-5.63616E-12 3.50188E+00-1.38239E+00
 -1       246 4.57142E-07 3.06613E+00-1.13390E+00
 -1       247-7.74864E-07 3.48273E+00-1.41475E+00
 -1       248-4.94875E-07 3.50188E+00-1.38239E+00
 -1       249-4.99053E-12 3.06613E+00-1.13390E+00
 -1       250-5.57779E-12 3.48273E+00-1.41475E+00
 -1       251-1.13648E-06 4.39884E+00-1.92945E+00
 -1       252-6.91907E-12 4.39883E+00-1.92945E+00
 -1       253 5.32790E-07 3.94671E+00-1.64828E+00
 -1       254-9.01558E-07 4.37747E+00-1.96293E+00
 -1       255-5.68417E-07 4.39884E+00-1.92945E+00
 -1       256-6.28369E-12 3.94671E+00-1.64828E+00
 -1       257-6.85688E-12 4.37747E+00-1.96293E+00
 -1       258-1.23249E-06 5.31845E+00-2.52812E+00
 -1       259-8.12202E-12 5.31845E+00-2.52812E+00
 -1       260 6.03759E-07 4.85647E+00-2.22341E+00
 -1       261-1.01339E-06 5.29554E+00-2.56228E+00
 -1       262-6.15581E-07 5.31845E+00-2.52812E+00
 -1       263-7.52160E-12 4.85647E+00-2.22341E+00
 -1       264-8.05843E-12 5.29553E+00-2.56228E+00
 -1       265-1.34074E-06 6.25067E+00-3.16067E+00
 -1       266-9.27174E-12 6.25066E+00-3.16067E+00
 -1       267 6.28600E-07 5.78344E+00-2.84118E+00
 -1       268-1.06874E-06 6.22683E+00-3.19519E+00
 -1       269-6.72692E-07 6.25066E+00-3.16067E+00
 -1       270-8.67883E-12 5.78344E+00-2.84118E+00
 -1       271-9.21169E-12 6.22683E+00-3.19519E+00
 -1       272-1.12785E-06 7.18800E+00-3.81012E+00
 -1       273-1.03714E-11 7.18800E+00-3.81012E+00
 -1       274 7.14515E-07 6.71904E+00-3.48427E+00
 -1       275-1.13740E-06 7.16386E+00-3.84476E+00
 -1       276-5.55663E-07 7.18800E+00-3.81012E+00
 -1       277-9.80878E-12 6.71904E+00-3.48427E+00
 -1       278-1.03139E-11 7.16385E+00-3.84476E+00
 -1       279 0.00000E+00 0.00000E+00 0.00000E+00
 -1       280 1.57818E-07 1.46427E-01 6.65281E-03
 -1       281 0.00000E+00 0.00000E+00 0.00000E+00
 -1       282 7.89060E-08 1.46427E-01 6.65289E-03
 -1       283 0.00000E+00 0.00000E+00 0.00000E+00
 -1       284-3.87209E-08 3.78209E-02 8.85869E-03
 -1       285 1.11451E-07 1.44962E-01-3.61370E-03
 -1       286 3.21544E-07 5.43482E-01-5.94035E-02
 -1       287 1.60769E-07 5.43482E-01-5.94034E-02
 -1       288-1.19114E-07 3.17793E-01-1.44250E-02
 -1       289 2.32801E-07 5.38667E-01-7.76017E-02
 -1       290 4.90250E-07 1.12648E+00-2.31623E-01
 -1       291 2.45123E-07 1.12648E+00-2.31623E-01
 -1       292-2.02442E-07 8.15462E-01-1.31351E-01
 -1       293 3.62561E-07 1.11764E+00-2.55565E-01
 -1       294 6.61120E-07 1.84007E+00-5.16493E-01
 -1       295 3.30552E-07 1.84007E+00-5.16493E-01
 -1       296-2.87820E-07 1.46986E+00-3.60245E-01
 -1       297 4.98563E-07 1.82728E+00-5.44417E-01
 -1       298 8.30449E-07 2.64197E+00-9.05336E-01
 -1       299 4.15233E-07 2.64197E+00-9.05336E-01
 -1       300-3.73331E-07 2.23208E+00-6.98759E-01
 -1       301 6.37442E-07 2.62569E+00-9.35938E-01
 -1       302 9.89846E-07 3.50188E+00-1.38239E+00
 -1       303 4.94863E-07 3.50188E+00-1.38239E+00
 -1       304-4.57152E-07 3.06613E+00-1.13390E+00
 -1       305 7.74852E-07 3.48273E+00-1.41475E+00
 -1       306 1.13646E-06 4.39884E+00-1.92945E+00
 -1       307 5.68403E-07 4.39884E+00-1.92945E+00
 -1       308-5.32803E-07 3.94671E+00-1.64828E+00
 -1       309 9.01545E-07 4.37747E+00-1.96293E+00
 -1       310 1.23247E-06 5.31845E+00-2.52812E+00
 -1       311 6.15565E-07 5.31845E+00-2.52812E+00
 -1       312-6.03774E-07 4.85647E+00-2.22341E+00
 -1       313 1.01338E-06 5.29554E+00-2.56228E+00
 -1       314 1.34072E-06 6.25067E+00-3.16067E+00
 -1       315 6.72673E-07 6.25066E+00-3.16067E+00
 -1       316-6.28618E-07 5.78344E+00-2.84118E+00
 -1       317 1.06872E-06 6.22683E+00-3.19519E+00
 -1       318 1.12782E-06 7.18800E+00-3.81012E+00
 -1       319 5.55643E-07 7.18800E+00-3.81012E+00
 -1       320-7.14535E-07 6.71904E+00-3.48427E+00
 -1       321 1.13738E-06 7.16386E+00-3.84476E+00
 -3
    1PSTEP                        20          10           1          
  100CL  110 5.00000E-01         321                     0   10           1
 -4  STRESS      6    1
 -5  SXX         1    4    1    1
 -5  SYY         1    4    2    2
 -5  SZZ         1    4    3    3
 -5  SXY         1    4    1    2
 -5  SYZ         1    4    2    3
 -5  SZX         1    4    3    1
 -1         1 1.56809E+02-1.55405E+04-2.22294E+06-3.44565E+01-1.19930E+04 3.67810E+01
 -1         2 6.25978E+01-4.33424E+04-3.81451E+04-5.82706E+00 1.10185E+04 2.71993E+01
 -1         3 4.63723E+00-1.44063E+04-3.44566E+04 1.36112E+00 1.54172E+04 4.15487E+00
 -1         4 4.05561E+00-1.31357E+05-1.73788E+06 3.67699E+00-5.22549E+05 7.16968E+00
 -1         5 1.56809E+02-1.54539E+04-2.22295E+06 9.75046E-08-1.19880E+04 8.24939E-07
 -1         6 6.25978E+01-4.33375E+04-3.81572E+04 5.67358E-08 1.10383E+04 1.08839E-07
 -1         7 4.62480E+00-1.44061E+04-3.44642E+04-1.29174E-07 1.54158E+04 1.69057E-08
 -1         8 4.03981E+00-1.31344E+05-1.73789E+06 6.77560E-07-5.22541E+05 2.14271E-06
 -1         9 1.09538E+02-2.73168E+04-1.13059E+06-4.45776E+00 9.38331E+02 3.05585E+01
 -1        10-2.49934E+00-1.68801E+04-3.43976E+04-1.77094E-01 1.02937E+04-1.90927E+00
 -1        11 4.35903E+00-7.32536E+04-8.85916E+05 1.91621E+00-2.54092E+05 4.46597E+00
 -1        12-2.10665E+00-6.22990E+04-1.99362E+06-1.06210E+00-2.77547E+05-3.64056E+00
 -1        13 1.56809E+02-1.54972E+04-2.22295E+06-5.11640E+01-1.19905E+04 3.10565E+01
 -1        14 6.25978E+01-4.33400E+04-3.81512E+04-6.01531E+00 1.10284E+04 2.41614E+01
 -1        15 4.63102E+00-1.44062E+04-3.44604E+04-6.02543E-01 1.54165E+04 1.03054E+00
 -1        16 4.04771E+00-1.31351E+05-1.73789E+06 1.67710E-01-5.22545E+05 1.49067E+00
 -1        17 1.09538E+02-2.72328E+04-1.13060E+06 1.88649E-07 9.37666E+02 4.54284E-07
 -1        18-2.50556E+00-1.68796E+04-3.43924E+04 4.24048E-08 1.02946E+04 2.41692E-08
 -1        19 4.34486E+00-7.32465E+04-8.85923E+05 2.12098E-07-2.54089E+05 9.84402E-07
 -1        20-2.11458E+00-6.23018E+04-1.99362E+06 3.66428E-07-2.77552E+05 1.53795E-06
 -1        21 3.96815E+00 9.56023E+02-2.62916E+04 3.10241E+00 7.18064E+03 4.03155E+00
 -1        22 3.87686E+00-3.76458E+05-1.16293E+06 6.04130E+00-6.74367E+05 6.07173E+00
 -1        23 3.96194E+00 9.60191E+02-2.62947E+04-1.61928E-07 7.18073E+03 2.26091E-08
 -1        24 3.89659E+00-3.76431E+05-1.16294E+06 1.32090E-06-6.74359E+05 2.02651E-06
 -1        25-2.11266E+00-9.25148E+03-2.89809E+04-1.16673E+00 9.99423E+03-2.15381E+00
 -1        26 3.93516E+00-1.88182E+05-5.94311E+05 3.90739E+00-3.33660E+05 4.24824E+00
 -1        27-1.96525E+00-2.63063E+05-1.43848E+06-2.57014E+00-6.01820E+05-3.42505E+00
 -1        28 3.96505E+00 9.58107E+02-2.62931E+04-4.43493E-01 7.18068E+03 1.23111E+00
 -1        29 3.88673E+00-3.76444E+05-1.16293E+06-4.81212E-01-6.74363E+05 1.20612E+00
 -1        30-2.12198E+00-9.25230E+03-2.89784E+04-3.04747E-08 9.99470E+03-1.30666E-08
 -1        31 3.94187E+00-1.88165E+05-5.94314E+05 5.71463E-07-3.33657E+05 9.03958E-07
 -1        32-1.96327E+00-2.63073E+05-1.43848E+06 1.11056E-06-6.01824E+05 2.07208E-06
 -1        33 3.37824E+00 5.99644E+03-1.95897E+04 3.95307E+00 3.51596E+03 3.09267E+00
 -1        34 3.75819E+00-5.26963E+05-7.12507E+05 6.69967E+00-6.20693E+05 4.20796E+00
 -1        35 3.40074E+00 6.00698E+03-1.95901E+04 1.91833E-07 3.51808E+03-2.82644E-07
 -1        36 3.79544E+00-5.26921E+05-7.12506E+05 7.90392E-07-6.20686E+05 1.65080E-06
 -1        37-1.83096E+00 6.17234E+02-2.20667E+04-1.87659E+00 5.04026E+03-1.81670E+00
 -1        38 3.56605E+00-2.60725E+05-3.65936E+05 4.67990E+00-3.08439E+05 3.15513E+00
 -1        39-1.90996E+00-4.57844E+05-9.29371E+05-3.37104E+00-6.44352E+05-2.57770E+00
 -1        40 3.38949E+00 6.00171E+03-1.95899E+04-7.74830E-01 3.51702E+03 9.56489E-01
 -1        41 3.77682E+00-5.26942E+05-7.12507E+05-1.83207E+00-6.20690E+05 5.99786E-01
 -1        42-1.82282E+00 6.13806E+02-2.20660E+04-3.26352E-07 5.03965E+03-6.22547E-08
 -1        43 3.59591E+00-2.60697E+05-3.65937E+05 7.12417E-07-3.08436E+05 6.10976E-07
 -1        44-1.88146E+00-4.57861E+05-9.29371E+05 1.14055E-06-6.44356E+05 1.62744E-06
 -1        45 2.66196E+00 9.27771E+03-1.35072E+04 4.01883E+00 6.26177E+02 1.85238E+00
 -1        46 3.27103E+00-5.66759E+05-4.14101E+05 6.21024E+00-4.89212E+05 2.40762E+00
 -1        47 2.69234E+00 9.29675E+03-1.35063E+04-4.23954E-07 6.30153E+02 5.15329E-07
 -1        48 3.26628E+00-5.66700E+05-4.14099E+05-5.28938E-07-4.89203E+05 5.56534E-07
 -1        49-1.52417E+00 5.09044E+03-1.65409E+04-2.00443E+00 2.38833E+03-1.24039E+00
 -1        50 3.01105E+00-2.78815E+05-2.13833E+05 4.52435E+00-2.44132E+05 1.89419E+00
 -1        51-1.83017E+00-5.49103E+05-5.59446E+05-3.20071E+00-5.49962E+05-1.60263E+00
 -1        52 2.67715E+00 9.28723E+03-1.35067E+04-1.69067E+00 6.28165E+02 4.22134E-01
 -1        53 3.26865E+00-5.66730E+05-4.14100E+05-4.06383E+00-4.89208E+05-2.91479E-02
 -1        54-1.49772E+00 5.08318E+03-1.65411E+04 4.15556E-07 2.38675E+03 1.43287E-07
 -1        55 3.02384E+00-2.78775E+05-2.13832E+05-4.56039E-07-2.44128E+05 3.46822E-07
 -1        56-1.81394E+00-5.49128E+05-5.59447E+05-3.99595E-07-5.49966E+05 9.53106E-07
 -1        57 1.53497E+00 1.06319E+04-9.06364E+03 2.23826E+00-7.26743E+02 7.33062E-01
 -1        58 2.63570E+00-5.25476E+05-2.33106E+05 2.56809E+00-3.53450E+05 7.46733E-01
 -1        59 1.65663E+00 1.06618E+04-9.06204E+03-1.32319E-06-7.21303E+02 3.41281E-07
 -1        60 2.82351E+00-5.25395E+05-2.33103E+05 3.33845E-07-3.53441E+05 8.50502E-08
 -1        61-1.12487E+00 7.83175E+03-1.18672E+04-1.92694E+00 5.00113E+02-5.89412E-01
 -1        62 1.96432E+00-2.57424E+05-1.21153E+05 1.87501E+00-1.76974E+05 7.07812E-01
 -1        63-1.44270E+00-5.45733E+05-3.23027E+05-2.86740E+00-4.16939E+05-8.00449E-01
 -1        64 1.59580E+00 1.06468E+04-9.06284E+03-3.39939E+00-7.24023E+02-1.76927E-02
 -1        65 2.72961E+00-5.25436E+05-2.33104E+05-7.07377E+00-3.53446E+05-7.62671E-01
 -1        66-1.04887E+00 7.81971E+03-1.18678E+04-1.09108E-06 4.97674E+02 7.94013E-08
 -1        67 2.11911E+00-2.57368E+05-1.21151E+05-4.15090E-07-1.76970E+05-2.07906E-07
 -1        68-1.35108E+00-5.45767E+05-3.23029E+05-4.34273E-07-4.16944E+05 2.72164E-08
 -1        69-8.44817E-02 1.13321E+04-5.91215E+03 2.32728E+00-1.33586E+03-7.25932E-01
 -1        70 1.87332E-01-4.39255E+05-1.28719E+05 3.89718E+00-2.40441E+05 3.73664E-01
 -1        71-1.33073E-01 1.13744E+04-5.90995E+03-2.90722E-07-1.32821E+03-2.57027E-07
 -1        72-3.45874E-01-4.39152E+05-1.28716E+05 3.84787E-06-2.40427E+05 1.30555E-06
 -1        73-3.79654E-01 9.23770E+03-8.44886E+03-2.30456E-01-4.90245E+02-1.22179E-01
 -1        74 5.16255E-01-2.13982E+05-6.73363E+04 2.68937E+00-1.20784E+05 7.39237E-02
 -1        75-1.10070E+00-4.80732E+05-1.82059E+05 4.39050E-01-2.93821E+05 2.21285E-02
 -1        76-1.08777E-01 1.13532E+04-5.91105E+03-5.47731E+00-1.33204E+03-1.10977E+00
 -1        77-7.92712E-02-4.39203E+05-1.28717E+05-1.14801E+01-2.40434E+05-8.41569E-01
 -1        78-3.43056E-01 9.21951E+03-8.44971E+03-7.00585E-07-4.93261E+02 2.64522E-07
 -1        79 2.25245E-01-2.13907E+05-6.73360E+04 2.05768E-06-1.20778E+05 4.60285E-07
 -1        80-1.27369E+00-4.80779E+05-1.82060E+05 8.37185E-07-2.93826E+05 1.46032E-06
 -1        81-2.94332E+00 1.17625E+04-3.87447E+03-9.42085E+00-1.48743E+03-3.97915E-01
 -1        82 3.59386E-01-3.33105E+05-6.94779E+04-2.07147E+01-1.54258E+05-2.90074E+00
 -1        83-2.33777E+00 1.18226E+04-3.87269E+03 3.42663E-06-1.47946E+03 1.33970E-06
 -1        84 2.65883E+00-3.32962E+05-6.94746E+04 2.79078E-06-1.54251E+05 4.98740E-08
 -1        85 4.05252E-01 9.99246E+03-6.04409E+03-1.94540E+00-1.02660E+03 8.50359E-01
 -1        86-2.90156E+00-1.60683E+05-3.66683E+04-1.56507E+01-7.77905E+04-1.39395E+00
 -1        87 6.76417E-01-3.84073E+05-1.00901E+05-4.14717E+00-1.95353E+05-3.67968E-01
 -1        88-2.64054E+00 1.17925E+04-3.87358E+03-9.50596E+00-1.48344E+03 6.94520E-02
 -1        89 1.50911E+00-3.33033E+05-6.94762E+04-1.57036E+01-1.54254E+05-3.07908E+00
 -1        90 6.83517E-01 9.96789E+03-6.04541E+03 1.47363E-06-1.03124E+03 2.70401E-07
 -1        91-1.44877E+00-1.60585E+05-3.66629E+04 2.88835E-06-7.77835E+04 1.51741E-07
 -1        92 1.56052E+00-3.84129E+05-1.00902E+05 6.22288E-06-1.95363E+05 6.20904E-07
 -1        93-6.30706E+00 1.20953E+04-2.62149E+03 1.62093E+01-1.33888E+03-6.50550E+00
 -1        94-1.19718E+01-2.20044E+05-3.57917E+04 4.47144E+01-9.05287E+04 6.75208E+00
 -1        95-7.45867E+00 1.21674E+04-2.61503E+03 4.26859E-06-1.31985E+03 1.17274E-06
 -1        96-2.06358E+01-2.19901E+05-3.57917E+04-9.18867E-07-9.04720E+04 4.49600E-06
 -1        97 2.79590E+00 1.03101E+04-4.42683E+03 1.14190E+01-1.28512E+03-3.92824E-01
 -1        98-3.28774E+00-1.04217E+05-1.89656E+04 3.08076E+01-4.56161E+04 1.40356E+00
 -1        99-1.46019E-01-2.74197E+05-5.44781E+04 2.48284E+01-1.21178E+05 3.10207E+00
 -1       100-6.88287E+00 1.21314E+04-2.61826E+03-1.09071E+01-1.32937E+03-7.31253E+00
 -1       101-1.63038E+01-2.19973E+05-3.57917E+04-2.56649E+01-9.05004E+04 2.68020E+00
 -1       102 2.52359E+00 1.02743E+04-4.42709E+03 3.95639E-06-1.28846E+03 2.01366E-07
 -1       103-8.19602E+00-1.04091E+05-1.89796E+04 1.68570E-06-4.55999E+04 7.57247E-07
 -1       104-3.33168E+00-2.74284E+05-5.44802E+04 2.32157E-06-1.21173E+05 2.00586E-06
 -1       105-1.23467E+01 1.27258E+04-2.15994E+03-1.02919E+02-1.30516E+03 1.07276E+01
 -1       106 1.24275E+01-1.08166E+05-1.35219E+04-2.36752E+02-3.93797E+04-3.20254E+01
 -1       107-8.78201E+00 1.28449E+04-2.17147E+03-6.74690E-06-1.30912E+03-2.71864E-06
 -1       108 4.63640E+01-1.07854E+05-1.35010E+04 2.29252E-06-3.94813E+04-5.41431E-07
 -1       109 2.56142E+00 1.04351E+04-3.51780E+03-2.72561E+01-1.52057E+03 6.83981E+00
 -1       110-2.12306E+01-4.74480E+04-8.05013E+03-1.73328E+02-2.06211E+04-1.14375E+01
 -1       111 9.16632E+00-1.61363E+05-2.62851E+04-6.86368E+01-6.42135E+04-9.39177E+00
 -1       112-1.05644E+01 1.27853E+04-2.16570E+03-2.55839E+01-1.30714E+03 1.62399E+01
 -1       113 2.93958E+01-1.08010E+05-1.35115E+04-2.14517E+01-3.94305E+04-2.15877E+01
 -1       114 3.76544E+00 1.03980E+04-3.52452E+03-2.23750E-06-1.53615E+03 9.08815E-07
 -1       115-2.47903E+00-4.72879E+04-7.99097E+03-1.59145E-06-2.06140E+04-6.05670E-07
 -1       116 2.18148E+01-1.61420E+05-2.62822E+04 8.76110E-07-6.42785E+04 4.48569E-08
 -1       117-3.22872E+01-2.48086E+03-4.93455E+03 3.74191E+02-7.23196E+03-9.73463E+01
 -1       118-2.18805E+02 2.21232E+04 5.65774E+03 8.84889E+02 1.01242E+04 2.04952E+01
 -1       119-3.82210E+01-3.64043E+03-4.86462E+03 8.10132E-06-7.35587E+03 3.93988E-06
 -1       120-3.50366E+02 1.90006E+04 5.56776E+03-9.48993E-06 1.02428E+04-3.23306E-06
 -1       121 1.33634E+01 1.00765E+04-2.72565E+03 1.30217E+02-1.45488E+03-1.75763E+01
 -1       122-4.68026E+01 1.04389E+04-1.76416E+02 6.46741E+02 7.12125E+02-2.87198E+01
 -1       123-1.17397E+01-4.58865E+04-9.01403E+03 3.02145E+02-2.06270E+04 4.01234E+01
 -1       124-3.52541E+01-3.06065E+03-4.89959E+03 2.02965E+02-7.29391E+03-8.34199E+01
 -1       125-2.84586E+02 2.05619E+04 5.61275E+03 3.15839E+02 1.01835E+04 5.32623E+01
 -1       126 1.21807E+01 9.99537E+03-2.70507E+03 1.38824E-06-1.43626E+03 3.57976E-07
 -1       127-1.15552E+02 8.43174E+03-3.68280E+02 8.24540E-07 5.59018E+02 5.42972E-07
 -1       128-6.05614E+01-4.61451E+04-9.04175E+03-6.13156E-06-2.04516E+04 2.17806E-07
 -1       129 1.56809E+02-1.55405E+04-2.22294E+06 3.44565E+01-1.19930E+04-3.67810E+01
 -1       130 6.25978E+01-4.33424E+04-3.81451E+04 5.82706E+00 1.10185E+04-2.71993E+01
 -1       131 4.63723E+00-1.44063E+04-3.44566E+04-1.36112E+00 1.54172E+04-4.15487E+00
 -1       132 4.05561E+00-1.31357E+05-1.73788E+06-3.67699E+00-5.22549E+05-7.16968E+00
 -1       133 1.56809E+02-1.54972E+04-2.22295E+06 5.11640E+01-1.19905E+04-3.10565E+01
 -1       134 6.25978E+01-4.33400E+04-3.81512E+04 6.01531E+00 1.10284E+04-2.41614E+01
 -1       135 4.63102E+00-1.44062E+04-3.44604E+04 6.02543E-01 1.54165E+04-1.03054E+00
 -1       136 4.04771E+00-1.31351E+05-1.73789E+06-1.67709E-01-5.22545E+05-1.49067E+00
 -1       137 1.09538E+02-2.73168E+04-1.13059E+06 4.45776E+00 9.38331E+02-3.05585E+01
 -1       138-2.49934E+00-1.68801E+04-3.43976E+04 1.77093E-01 1.02937E+04 1.90927E+00
 -1       139 4.35903E+00-7.32536E+04-8.85916E+05-1.91621E+00-2.54092E+05-4.46597E+00
 -1       140-2.10665E+00-6.22990E+04-1.99362E+06 1.06210E+00-2.77547E+05 3.64057E+00
 -1       141 3.96815E+00 9.56023E+02-2.62916E+04-3.10241E+00 7.18064E+03-4.03155E+00
 -1       142 3.87686E+00-3.76458E+05-1.16293E+06-6.04130E+00-6.74367E+05-6.07173E+00
 -1       143 3.96505E+00 9.58107E+02-2.62931E+04 4.43494E-01 7.18068E+03-1.23111E+00
 -1       144 3.88673E+00-3.76444E+05-1.16293E+06 4.81213E-01-6.74363E+05-1.20611E+00
 -1       145-2.11266E+00-9.25148E+03-2.89809E+04 1.16673E+00 9.99423E+03 2.15381E+00
 -1       146 3.93516E+00-1.88182E+05-5.94311E+05-3.90739E+00-3.33660E+05-4.24824E+00
 -1       147-1.96525E+00-2.63063E+05-1.43848E+06 2.57014E+00-6.01820E+05 3.42505E+00
 -1       148 3.37824E+00 5.99644E+03-1.95897E+04-3.95307E+00 3.51596E+03-3.09267E+00
 -1       149 3.75819E+00-5.26963E+05-7.12507E+05-6.69966E+00-6.20693E+05-4.20796E+00
 -1       150 3.38949E+00 6.00171E+03-1.95899E+04 7.74830E-01 3.51702E+03-9.56489E-01
 -1       151 3.77682E+00-5.26942E+05-7.12507E+05 1.83207E+00-6.20690E+05-5.99784E-01
 -1       152-1.83096E+00 6.17234E+02-2.20667E+04 1.87659E+00 5.04026E+03 1.81670E+00
 -1       153 3.56605E+00-2.60725E+05-3.65936E+05-4.67990E+00-3.08439E+05-3.15513E+00
 -1       154-1.90996E+00-4.57844E+05-9.29371E+05 3.37104E+00-6.44352E+05 2.57770E+00
 -1       155 2.66196E+00 9.27771E+03-1.35072E+04-4.01883E+00 6.26177E+02-1.85238E+00
 -1       156 3.27103E+00-5.66759E+05-4.14101E+05-6.21024E+00-4.89212E+05-2.40762E+00
 -1       157 2.67715E+00 9.28723E+03-1.35067E+04 1.69066E+00 6.28165E+02-4.22134E-01
 -1       158 3.26865E+00-5.66730E+05-4.14100E+05 4.06383E+00-4.89208E+05 2.91496E-02
 -1       159-1.52417E+00 5.09044E+03-1.65409E+04 2.00443E+00 2.38833E+03 1.24039E+00
 -1       160 3.01105E+00-2.78815E+05-2.13833E+05-4.52435E+00-2.44132E+05-1.89419E+00
 -1       161-1.83017E+00-5.49103E+05-5.59446E+05 3.20072E+00-5.49962E+05 1.60263E+00
 -1       162 1.53497E+00 1.06319E+04-9.06364E+03-2.23826E+00-7.26743E+02-7.33062E-01
 -1       163 2.63570E+00-5.25476E+05-2.33106E+05-2.56809E+00-3.53450E+05-7.46733E-01
 -1       164 1.59580E+00 1.06468E+04-9.06284E+03 3.39939E+00-7.24023E+02 1.76928E-02
 -1       165 2.72961E+00-5.25436E+05-2.33104E+05 7.07377E+00-3.53446E+05 7.62671E-01
 -1       166-1.12487E+00 7.83175E+03-1.18672E+04 1.92694E+00 5.00113E+02 5.89412E-01
 -1       167 1.96432E+00-2.57424E+05-1.21153E+05-1.87500E+00-1.76974E+05-7.07812E-01
 -1       168-1.44270E+00-5.45733E+05-3.23027E+05 2.86740E+00-4.16939E+05 8.00449E-01
 -1       169-8.44816E-02 1.13321E+04-5.91215E+03-2.32728E+00-1.33586E+03 7.25935E-01
 -1       170 1.87332E-01-4.39255E+05-1.28719E+05-3.89719E+00-2.40441E+05-3.73664E-01
 -1       171-1.08777E-01 1.13532E+04-5.91105E+03 5.47731E+00-1.33204E+03 1.10977E+00
 -1       172-7.92714E-02-4.39203E+05-1.28717E+05 1.14801E+01-2.40434E+05 8.41570E-01
 -1       173-3.79655E-01 9.23770E+03-8.44886E+03 2.30458E-01-4.90245E+02 1.22180E-01
 -1       174 5.16254E-01-2.13982E+05-6.73363E+04-2.68938E+00-1.20784E+05-7.39217E-02
 -1       175-1.10070E+00-4.80732E+05-1.82059E+05-4.39049E-01-2.93821E+05-2.21279E-02
 -1       176-2.94332E+00 1.17625E+04-3.87447E+03 9.42084E+00-1.48743E+03 3.97913E-01
 -1       177 3.59386E-01-3.33105E+05-6.94779E+04 2.07147E+01-1.54258E+05 2.90075E+00
 -1       178-2.64054E+00 1.17925E+04-3.87358E+03 9.50596E+00-1.48344E+03-6.94515E-02
 -1       179 1.50911E+00-3.33033E+05-6.94762E+04 1.57036E+01-1.54254E+05 3.07908E+00
 -1       180 4.05252E-01 9.99246E+03-6.04409E+03 1.94539E+00-1.02660E+03-8.50357E-01
 -1       181-2.90156E+00-1.60683E+05-3.66683E+04 1.56507E+01-7.77905E+04 1.39395E+00
 -1       182 6.76417E-01-3.84073E+05-1.00901E+05 4.14716E+00-1.95353E+05 3.67969E-01
 -1       183-6.30706E+00 1.20953E+04-2.62149E+03-1.62093E+01-1.33888E+03 6.50549E+00
 -1       184-1.19718E+01-2.20044E+05-3.57917E+04-4.47144E+01-9.05287E+04-6.75208E+00
 -1       185-6.88287E+00 1.21314E+04-2.61826E+03 1.09071E+01-1.32937E+03 7.31253E+00
 -1       186-1.63038E+01-2.19973E+05-3.57917E+04 2.56649E+01-9.05004E+04-2.68020E+00
 -1       187 2.79590E+00 1.03101E+04-4.42683E+03-1.14190E+01-1.28512E+03 3.92821E-01
 -1       188-3.28773E+00-1.04217E+05-1.89656E+04-3.08076E+01-4.56161E+04-1.40356E+00
 -1       189-1.46019E-01-2.74197E+05-5.44781E+04-2.48284E+01-1.21178E+05-3.10207E+00
 -1       190-1.23467E+01 1.27258E+04-2.15994E+03 1.02919E+02-1.30516E+03-1.07276E+01
 -1       191 1.24275E+01-1.08166E+05-1.35219E+04 2.36752E+02-3.93797E+04 3.20253E+01
 -1       192-1.05644E+01 1.27853E+04-2.16570E+03 2.55838E+01-1.30714E+03-1.62399E+01
 -1       193 2.93958E+01-1.08010E+05-1.35115E+04 2.14517E+01-3.94305E+04 2.15877E+01
 -1       194 2.56142E+00 1.04351E+04-3.51780E+03 2.72561E+01-1.52057E+03-6.83981E+00
 -1       195-2.12306E+01-4.74480E+04-8.05013E+03 1.73328E+02-2.06211E+04 1.14375E+01
 -1       196 9.16632E+00-1.61363E+05-2.62851E+04 6.86368E+01-6.42135E+04 9.39177E+00
 -1       197-3.22872E+01-2.48086E+03-4.93455E+03-3.74191E+02-7.23196E+03 9.73463E+01
 -1       198-2.18805E+02 2.21232E+04 5.65774E+03-8.84889E+02 1.01242E+04-2.04952E+01
 -1       199-3.52541E+01-3.06065E+03-4.89959E+03-2.02965E+02-7.29391E+03 8.34199E+01
 -1       200-2.84586E+02 2.05619E+04 5.61275E+03-3.15839E+02 1.01835E+04-5.32623E+01
 -1       201 1.33634E+01 1.00765E+04-2.72565E+03-1.30217E+02-1.45488E+03 1.75763E+01
 -1       202-4.68026E+01 1.04389E+04-1.76416E+02-6.46741E+02 7.12125E+02 2.87198E+01
 -1       203-1.17397E+01-4.58865E+04-9.01403E+03-3.02145E+02-2.06270E+04-4.01234E+01
 -1       204 1.53950E+02-7.19084E+04 2.29829E+06-8.72121E+01 3.86073E+04 1.03652E+02
 -1       205 2.09635E+00 1.43022E+05 1.78908E+06 3.71874E+00 5.44966E+05 7.46920E+00
 -1       206 1.53950E+02-7.19751E+04 2.29825E+06-4.52432E-08 3.86629E+04-1.05015E-06
 -1       207 2.13950E+00 1.43034E+05 1.78905E+06-5.80193E-07 5.44970E+05-2.17647E-06
 -1       208 1.08439E+02-5.97500E+04 1.13012E+06-6.22036E+01 2.33874E+04 6.68573E+01
 -1       209-1.01441E+00 4.74953E+04 2.05735E+06-1.21604E+00 2.95004E+05-4.05942E+00
 -1       210 3.35419E+00 6.46800E+04 8.77059E+05 3.14277E+00 2.80718E+05 7.00834E+00
 -1       211 1.53950E+02-7.19418E+04 2.29827E+06-7.28775E+01 3.86351E+04 9.41620E+01
 -1       212 2.11792E+00 1.43028E+05 1.78907E+06-1.18828E+00 5.44968E+05-9.02520E-01
 -1       213 1.08439E+02-5.98192E+04 1.13009E+06-1.05782E-07 2.34381E+04-4.58048E-07
 -1       214-9.92850E-01 4.74925E+04 2.05737E+06-2.92731E-07 2.95002E+05-1.63816E-06
 -1       215 3.36960E+00 6.46852E+04 8.77042E+05-2.92589E-07 2.80719E+05-9.84377E-07
 -1       216 1.79153E+00 3.91030E+05 1.18883E+06 5.49898E+00 7.00140E+05 5.62580E+00
 -1       217 1.82841E+00 3.91055E+05 1.18882E+06-7.00799E-07 7.00146E+05-1.76927E-06
 -1       218-1.03045E+00 2.69708E+05 1.48105E+06-2.51883E+00 6.22061E+05-3.31839E+00
 -1       219 2.86718E+00 1.96424E+05 5.80967E+05 4.96515E+00 3.53727E+05 5.63207E+00
 -1       220 1.80997E+00 3.91042E+05 1.18883E+06-2.40888E+00 7.00143E+05-6.78226E-01
 -1       221-9.90425E-01 2.69699E+05 1.48106E+06-7.85663E-07 6.22059E+05-2.04930E-06
 -1       222 2.88257E+00 1.96438E+05 5.80963E+05-4.23342E-07 3.53731E+05-7.52729E-07
 -1       223 8.88354E-01 5.47954E+05 7.26163E+05 5.41686E+00 6.38590E+05 3.24750E+00
 -1       224 9.08437E-01 5.47998E+05 7.26165E+05-5.35345E-07 6.38601E+05-1.10606E-06
 -1       225-7.22155E-01 4.69672E+05 9.52889E+05-2.95350E+00 6.66562E+05-2.20213E+00
 -1       226 2.13546E+00 2.77216E+05 3.53175E+05 5.33143E+00 3.20903E+05 3.66527E+00
 -1       227 8.98395E-01 5.47976E+05 7.26164E+05-4.02074E+00 6.38595E+05-8.19560E-01
 -1       228-6.93664E-01 4.69654E+05 9.52890E+05-1.12580E-06 6.66558E+05-1.53739E-06
 -1       229 2.15676E+00 2.77242E+05 3.53177E+05-3.93060E-07 3.20912E+05-6.21248E-07
 -1       230-4.85138E-01 5.87327E+05 4.21445E+05 4.01886E+00 5.01659E+05 8.08115E-01
 -1       231-3.77408E-01 5.87393E+05 4.21451E+05-7.25824E-07 5.01674E+05-1.70191E-06
 -1       232-1.35996E-01 5.65887E+05 5.72043E+05-2.38707E+00 5.67762E+05-9.42182E-01
 -1       233 1.04385E+00 2.98377E+05 2.03997E+05 4.60903E+00 2.50981E+05 1.56606E+00
 -1       234-4.31273E-01 5.87360E+05 4.21448E+05-6.36829E+00 5.01666E+05-1.32933E+00
 -1       235-7.21252E-02 5.65860E+05 5.72040E+05-1.11986E-06 5.67755E+05-1.21006E-06
 -1       236 1.11293E+00 2.98418E+05 2.04002E+05-5.95296E-07 2.50994E+05-4.04183E-07
 -1       237-2.79914E+00 5.44711E+05 2.37972E+05-7.10310E-01 3.61837E+05-1.83356E+00
 -1       238-2.96330E+00 5.44798E+05 2.37980E+05 1.35889E-06 3.61858E+05-1.29186E-06
 -1       239 6.48582E-01 5.63810E+05 3.29196E+05-1.53625E+00 4.30613E+05 2.18576E-01
 -1       240-5.11064E-01 2.77673E+05 1.14522E+05 1.29214E+00 1.80441E+05-5.18167E-01
 -1       241-2.88122E+00 5.44754E+05 2.37976E+05-9.57536E+00 3.61847E+05-2.38599E+00
 -1       242 6.20482E-01 5.63771E+05 3.29192E+05-9.91251E-07 4.30604E+05-8.92481E-07
 -1       243-5.32380E-01 2.77731E+05 1.14528E+05-6.17362E-08 1.80457E+05-5.42206E-08
 -1       244-5.49008E+00 4.56760E+05 1.32420E+05-1.19231E+00 2.46455E+05-3.43041E+00
 -1       245-4.58475E+00 4.56878E+05 1.32429E+05 5.08595E-07 2.46475E+05 3.06432E-07
 -1       246 2.18729E+00 4.98949E+05 1.85015E+05 2.41268E+00 3.04026E+05 1.70365E+00
 -1       247-3.25211E+00 2.34067E+05 6.32751E+04 9.90342E-01 1.22455E+05-2.32823E+00
 -1       248-5.03741E+00 4.56819E+05 1.32425E+05-1.43107E+01 2.46465E+05-3.10219E+00
 -1       249 2.55752E+00 4.98900E+05 1.85010E+05 7.36920E-07 3.04014E+05-1.78986E-06
 -1       250-2.82363E+00 2.34144E+05 6.32826E+04-1.70172E-07 1.22474E+05 8.86788E-08
 -1       251-1.18893E+01 3.49045E+05 7.25612E+04-2.69067E+01 1.58848E+05-8.68182E+00
 -1       252-1.46989E+01 3.49173E+05 7.25725E+04-5.12094E-06 1.58892E+05-2.01946E-06
 -1       253 3.27195E+00 4.01919E+05 1.02308E+05-1.17890E+00 2.03188E+05 1.77818E+00
 -1       254-5.80672E+00 1.80416E+05 3.43355E+04-1.75808E+01 7.85983E+04-4.79525E+00
 -1       255-1.32941E+01 3.49109E+05 7.25668E+04-1.95517E+01 1.58870E+05-6.61881E+00
 -1       256 2.32096E+00 4.01850E+05 1.02304E+05 5.27855E-09 2.03180E+05-1.65084E-07
 -1       257-6.90902E+00 1.80513E+05 3.43392E+04-6.26798E-07 7.86245E+04 2.03165E-07
 -1       258-1.33238E+01 2.34678E+05 3.82152E+04 3.22293E+01 9.41322E+04-1.52343E+00
 -1       259-2.66873E+00 2.34897E+05 3.82189E+04 4.99920E-06 9.41151E+04-5.86201E-06
 -1       260 9.01918E+00 2.91786E+05 5.52334E+04 2.86083E+01 1.27460E+05 7.08694E+00
 -1       261-1.56671E+01 1.23629E+05 1.75558E+04 2.38735E+01 4.60790E+04-5.29473E+00
 -1       262-7.99627E+00 2.34787E+05 3.82170E+04-2.92616E+01 9.41236E+04-1.72368E+00
 -1       263 1.29383E+01 2.91724E+05 5.52260E+04-2.06200E-06 1.27423E+05-2.26408E-06
 -1       264-1.09149E+01 1.23756E+05 1.75781E+04 4.62306E-06 4.61016E+04-2.67508E-07
 -1       265-4.33893E+01 1.21120E+05 1.56382E+04-2.39655E+02 4.27027E+04-4.14013E+01
 -1       266-8.04180E+01 1.21165E+05 1.56820E+04-4.82927E-07 4.29650E+04 6.05834E-06
 -1       267 2.67936E+00 1.78800E+05 2.69677E+04-6.17546E+01 6.98266E+04-5.86804E+00
 -1       268-6.59704E+00 6.66504E+04 6.94834E+03-1.67795E+02 2.09775E+04-1.45482E+01
 -1       269-6.19037E+01 1.21142E+05 1.56601E+04-3.24123E+01 4.28339E+04-2.99360E+01
 -1       270-1.04955E+01 1.78647E+05 2.69718E+04 1.54105E-06 6.98782E+04-1.62533E-06
 -1       271-2.33300E+01 6.67882E+04 6.91000E+03-4.25065E-06 2.10467E+04 6.45489E-07
 -1       272 1.17938E+02 2.49603E+04 5.48489E+02 1.04770E+03 6.50420E+03 6.31137E+01
 -1       273 2.50106E+02 2.28701E+04 4.03548E+02-6.44106E-07 5.04366E+03-6.61744E-06
 -1       274 4.84397E+01 6.41457E+04 9.68963E+03 3.05186E+02 2.53828E+04 4.92656E+01
 -1       275-3.59185E+01 1.06219E+04-1.65502E+03 6.93744E+02 3.70113E+02-2.68221E+01
 -1       276 1.84022E+02 2.39152E+04 4.76018E+02 4.49970E+02 5.77393E+03 8.73352E+01
 -1       277 9.60005E+01 6.42402E+04 9.63757E+03 2.47004E-06 2.50759E+04-2.24326E-07
 -1       278 2.72010E+01 8.86319E+03-1.51069E+03 2.20976E-06-2.71653E+02-1.52835E-06
 -1       279 1.53950E+02-7.19084E+04 2.29829E+06 8.72121E+01 3.86073E+04-1.03652E+02
 -1       280 2.09635E+00 1.43022E+05 1.78908E+06-3.71874E+00 5.44966E+05-7.46920E+00
 -1       281 1.53950E+02-7.19418E+04 2.29827E+06 7.28775E+01 3.86351E+04-9.41620E+01
 -1       282 2.11792E+00 1.43028E+05 1.78907E+06 1.18828E+00 5.44968E+05 9.02517E-01
 -1       283 1.08439E+02-5.97500E+04 1.13012E+06 6.22036E+01 2.33874E+04-6.68573E+01
 -1       284-1.01441E+00 4.74953E+04 2.05735E+06 1.21604E+00 2.95004E+05 4.05942E+00
 -1       285 3.35419E+00 6.46800E+04 8.77059E+05-3.14277E+00 2.80718E+05-7.00834E+00
 -1       286 1.79153E+00 3.91030E+05 1.18883E+06-5.49898E+00 7.00140E+05-5.62581E+00
 -1       287 1.80997E+00 3.91042E+05 1.18883E+06 2.40888E+00 7.00143E+05 6.78223E-01
 -1       288-1.03045E+00 2.69708E+05 1.48105E+06 2.51883E+00 6.22061E+05 3.31839E+00
 -1       289 2.86718E+00 1.96424E+05 5.80967E+05-4.96515E+00 3.53727E+05-5.63207E+00
 -1       290 8.88353E-01 5.47954E+05 7.26163E+05-5.41686E+00 6.38590E+05-3.24750E+00
 -1       291 8.98395E-01 5.47976E+05 7.26164E+05 4.02074E+00 6.38595E+05 8.19558E-01
 -1       292-7.22156E-01 4.69672E+05 9.52889E+05 2.95350E+00 6.66562E+05 2.20213E+00
 -1       293 2.13546E+00 2.77216E+05 3.53175E+05-5.33143E+00 3.20903E+05-3.66527E+00
 -1       294-4.85138E-01 5.87327E+05 4.21445E+05-4.01886E+00 5.01659E+05-8.08117E-01
 -1       295-4.31273E-01 5.87360E+05 4.21448E+05 6.36829E+00 5.01666E+05 1.32932E+00
 -1       296-1.35996E-01 5.65887E+05 5.72043E+05 2.38707E+00 5.67762E+05 9.42180E-01
 -1       297 1.04385E+00 2.98377E+05 2.03997E+05-4.60903E+00 2.50981E+05-1.56606E+00
 -1       298-2.79914E+00 5.44711E+05 2.37972E+05 7.10311E-01 3.61837E+05 1.83357E+00
 -1       299-2.88122E+00 5.44754E+05 2.37976E+05 9.57536E+00 3.61847E+05 2.38599E+00
 -1       300 6.48582E-01 5.63810E+05 3.29196E+05 1.53624E+00 4.30613E+05-2.18575E-01
 -1       301-5.11064E-01 2.77673E+05 1.14522E+05-1.29214E+00 1.80441E+05 5.18168E-01
 -1       302-5.49008E+00 4.56760E+05 1.32420E+05 1.19231E+00 2.46455E+05 3.43041E+00
 -1       303-5.03741E+00 4.56819E+05 1.32425E+05 1.43107E+01 2.46465E+05 3.10219E+00
 -1       304 2.18729E+00 4.98949E+05 1.85015E+05-2.41268E+00 3.04026E+05-1.70365E+00
 -1       305-3.25211E+00 2.34067E+05 6.32751E+04-9.90343E-01 1.22455E+05 2.32823E+00
 -1       306-1.18893E+01 3.49045E+05 7.25612E+04 2.69067E+01 1.58848E+05 8.68182E+00
 -1       307-1.32941E+01 3.49109E+05 7.25668E+04 1.95517E+01 1.58870E+05 6.61881E+00
 -1       308 3.27195E+00 4.01919E+05 1.02308E+05 1.17890E+00 2.03188E+05-1.77819E+00
 -1       309-5.80672E+00 1.80416E+05 3.43355E+04 1.75808E+01 7.85983E+04 4.79525E+00
 -1       310-1.33238E+01 2.34678E+05 3.82152E+04-3.22293E+01 9.41322E+04 1.52344E+00
 -1       311-7.99627E+00 2.34787E+05 3.82170E+04 2.92616E+01 9.41236E+04 1.72368E+00
 -1       312 9.01918E+00 2.91786E+05 5.52334E+04-2.86083E+01 1.27460E+05-7.08694E+00
 -1       313-1.56671E+01 1.23629E+05 1.75558E+04-2.38735E+01 4.60790E+04 5.29474E+00
 -1       314-4.33893E+01 1.21120E+05 1.56382E+04 2.39655E+02 4.27027E+04 4.14013E+01
 -1       315-6.19037E+01 1.21142E+05 1.56601E+04 3.24123E+01 4.28339E+04 2.99360E+01
 -1       316 2.67936E+00 1.78800E+05 2.69677E+04 6.17547E+01 6.98266E+04 5.86804E+00
 -1       317-6.59704E+00 6.66504E+04 6.94834E+03 1.67795E+02 2.09775E+04 1.45482E+01
 -1       318 1.17938E+02 2.49603E+04 5.48489E+02-1.04770E+03 6.50420E+03-6.31137E+01
 -1       319 1.84022E+02 2.39152E+04 4.76018E+02-4.49970E+02 5.77393E+03-8.73352E+01
 -1       320 4.84397E+01 6.41457E+04 9.68963E+03-3.05186E+02 2.53828E+04-4.92656E+01
 -1       321-3.59185E+01 1.06219E+04-1.65502E+03-6.93744E+02 3.70113E+02 2.68221E+01
 -3
    1PSTEP                        21          11           1          
  100CL  111 5.50000E-01         321                     0   11           1
 -4  DISP        4    1
 -5  D1          1    2    1    0
 -5  D2          1    2    2    0
 -5  D3          1    2    3    0
 -5  ALL         1    2    0    0    1ALL
 -1         1 0.00000E+00 0.00000E+00 0.00000E+00
 -1         2 0.00000E+00 0.00000E+00 0.00000E+00
 -1         3-7.40018E-08 1.50930E-01-1.53565E-02
 -1         4-1.78266E-07 1.47670E-01-3.69294E-02
 -1         5 0.00000E+00 0.00000E+00 0.00000E+00
 -1         6 0.00000E+00 0.00000E+00 0.00000E+00
 -1         7 5.66520E-13 1.50930E-01-1.53565E-02
 -1         8 3.85407E-13 1.47670E-01-3.69294E-02
 -1         9 0.00000E+00 0.00000E+00 0.00000E+00
 -1        10 1.64366E-08 3.90005E-02-2.10611E-03
 -1        11-1.26133E-07 1.49298E-01-2.61391E-02
 -1        12 4.29277E-08 3.81226E-02-1.34224E-02
 -1        13 0.00000E+00 0.00000E+00 0.00000E+00
 -1        14 0.00000E+00 0.00000E+00 0.00000E+00
 -1        15-3.70015E-08 1.50930E-01-1.53565E-02
 -1        16-8.91335E-08 1.47670E-01-3.69294E-02
 -1        17 0.00000E+00 0.00000E+00 0.00000E+00
 -1        18 1.46163E-13 3.90005E-02-2.10612E-03
 -1        19 4.75983E-13 1.49298E-01-2.61391E-02
 -1        20 6.04933E-14 3.81226E-02-1.34224E-02
 -1        21-1.63191E-07 5.59383E-01-1.05409E-01
 -1        22-3.69257E-07 5.48810E-01-1.43378E-01
 -1        23 2.16364E-12 5.59382E-01-1.05409E-01
 -1        24 1.80404E-12 5.48810E-01-1.43378E-01
 -1        25 5.75610E-08 3.27443E-01-4.79620E-02
 -1        26-2.66216E-07 5.54097E-01-1.24391E-01
 -1        27 1.35330E-07 3.20928E-01-7.83360E-02
 -1        28-8.15952E-08 5.59382E-01-1.05409E-01
 -1        29-1.84626E-07 5.48810E-01-1.43378E-01
 -1        30 1.24823E-12 3.27443E-01-4.79621E-02
 -1        31 1.98395E-12 5.54097E-01-1.24391E-01
 -1        32 9.75453E-13 3.20928E-01-7.83360E-02
 -1        33-2.65290E-07 1.15692E+00-3.05627E-01
 -1        34-5.72504E-07 1.13771E+00-3.55219E-01
 -1        35 4.61273E-12 1.15692E+00-3.05627E-01
 -1        36 4.10347E-12 1.13771E+00-3.55219E-01
 -1        37 1.05629E-07 8.38512E-01-1.90862E-01
 -1        38-4.18905E-07 1.14732E+00-3.30421E-01
 -1        39 2.33941E-07 8.23771E-01-2.35193E-01
 -1        40-1.32641E-07 1.15692E+00-3.05627E-01
 -1        41-2.86248E-07 1.13771E+00-3.55219E-01
 -1        42 3.29642E-12 8.38512E-01-1.90862E-01
 -1        43 4.35786E-12 1.14732E+00-3.30421E-01
 -1        44 2.85968E-12 8.23771E-01-2.35193E-01
 -1        45-3.78332E-07 1.88550E+00-6.22132E-01
 -1        46-7.87674E-07 1.85795E+00-6.79597E-01
 -1        47 7.69143E-12 1.88550E+00-6.22132E-01
 -1        48 7.05493E-12 1.85794E+00-6.79597E-01
 -1        49 1.59680E-07 1.50791E+00-4.49717E-01
 -1        50-5.82940E-07 1.87172E+00-6.50863E-01
 -1        51 3.38591E-07 1.48453E+00-5.03702E-01
 -1        52-1.89160E-07 1.88550E+00-6.22132E-01
 -1        53-3.93834E-07 1.85794E+00-6.79597E-01
 -1        54 6.08473E-12 1.50791E+00-4.49717E-01
 -1        55 7.37332E-12 1.87172E+00-6.50863E-01
 -1        56 5.51094E-12 1.48453E+00-5.03702E-01
 -1        57-4.99962E-07 2.70149E+00-1.04506E+00
 -1        58-1.01273E-06 2.66667E+00-1.10769E+00
 -1        59 1.12241E-11 2.70149E+00-1.04506E+00
 -1        60 1.04849E-11 2.66667E+00-1.10769E+00
 -1        61 2.18693E-07 2.28477E+00-8.21256E-01
 -1        62-7.56512E-07 2.68408E+00-1.07637E+00
 -1        63 4.49096E-07 2.25349E+00-8.81670E-01
 -1        64-2.49966E-07 2.70149E+00-1.04506E+00
 -1        65-5.06349E-07 2.66667E+00-1.10769E+00
 -1        66 9.41022E-12 2.28477E+00-8.21256E-01
 -1        67 1.08550E-11 2.68408E+00-1.07637E+00
 -1        68 8.71531E-12 2.25349E+00-8.81670E-01
 -1        69-6.26492E-07 3.57423E+00-1.55746E+00
 -1        70-1.24638E-06 3.53351E+00-1.62342E+00
 -1        71 1.50723E-11 3.57423E+00-1.55746E+00
 -1        72 1.42442E-11 3.53350E+00-1.62342E+00
 -1        73 2.81354E-07 3.13227E+00-1.29124E+00
 -1        74-9.35771E-07 3.55387E+00-1.59044E+00
 -1        75 5.63714E-07 3.09436E+00-1.35582E+00
 -1        76-3.13242E-07 3.57423E+00-1.55746E+00
 -1        77-6.23214E-07 3.53350E+00-1.62342E+00
 -1        78 1.31253E-11 3.13227E+00-1.29124E+00
 -1        79 1.46583E-11 3.55387E+00-1.59044E+00
 -1        80 1.23339E-11 3.09436E+00-1.35582E+00
 -1        81-7.52578E-07 4.48293E+00-2.14028E+00
 -1        82-1.47637E-06 4.43773E+00-2.20831E+00
 -1        83 1.91150E-11 4.48293E+00-2.14028E+00
 -1        84 1.82244E-11 4.43772E+00-2.20831E+00
 -1        85 3.45207E-07 4.02510E+00-1.84126E+00
 -1        86-1.11675E-06 4.46033E+00-2.17430E+00
 -1        87 6.82539E-07 3.98198E+00-1.90848E+00
 -1        88-3.76237E-07 4.48293E+00-2.14028E+00
 -1        89-7.38039E-07 4.43773E+00-2.20831E+00
 -1        90 1.70729E-11 4.02510E+00-1.84126E+00
 -1        91 1.86710E-11 4.46033E+00-2.17430E+00
 -1        92 1.62080E-11 3.98198E+00-1.90848E+00
 -1        93-8.68760E-07 5.41367E+00-2.77462E+00
 -1        94-1.71676E-06 5.36535E+00-2.84388E+00
 -1        95 2.32572E-11 5.41367E+00-2.77462E+00
 -1        96 2.23247E-11 5.36535E+00-2.84388E+00
 -1        97 4.07675E-07 4.94624E+00-2.45214E+00
 -1        98-1.28435E-06 5.38951E+00-2.80925E+00
 -1        99 7.94375E-07 4.89931E+00-2.52098E+00
 -1       100-4.34449E-07 5.41367E+00-2.77462E+00
 -1       101-8.58895E-07 5.36535E+00-2.84388E+00
 -1       102 2.11824E-11 4.94624E+00-2.45214E+00
 -1       103 2.27907E-11 5.38951E+00-2.80925E+00
 -1       104 2.02639E-11 4.89931E+00-2.52098E+00
 -1       105-9.64148E-07 6.35697E+00-3.44250E+00
 -1       106-1.87343E-06 6.30683E+00-3.51241E+00
 -1       107 2.74473E-11 6.35697E+00-3.44250E+00
 -1       108 2.64871E-11 6.30682E+00-3.51241E+00
 -1       109 4.60683E-07 5.88425E+00-3.10543E+00
 -1       110-1.44965E-06 6.33190E+00-3.47746E+00
 -1       111 9.20862E-07 5.83484E+00-3.17519E+00
 -1       112-4.81811E-07 6.35697E+00-3.44250E+00
 -1       113-9.34618E-07 6.30683E+00-3.51241E+00
 -1       114 2.53555E-11 5.88425E+00-3.10543E+00
 -1       115 2.69681E-11 6.33190E+00-3.47746E+00
 -1       116 2.44020E-11 5.83484E+00-3.17519E+00
 -1       117-1.01647E-06 7.30595E+00-4.12689E+00
 -1       118-2.22588E-06 7.25522E+00-4.19700E+00
 -1       119 3.16770E-11 7.30594E+00-4.12689E+00
 -1       120 3.07022E-11 7.25521E+00-4.19700E+00
 -1       121 5.05965E-07 6.83115E+00-3.78365E+00
 -1       122-1.50518E-06 7.28058E+00-4.16194E+00
 -1       123 9.57140E-07 6.78051E+00-3.85383E+00
 -1       124-5.08633E-07 7.30595E+00-4.12689E+00
 -1       125-1.12106E-06 7.25522E+00-4.19700E+00
 -1       126 2.95777E-11 6.83116E+00-3.78365E+00
 -1       127 3.11874E-11 7.28058E+00-4.16194E+00
 -1       128 2.85956E-11 6.78052E+00-3.85383E+00
 -1       129 0.00000E+00 0.00000E+00 0.00000E+00
 -1       130 0.00000E+00 0.00000E+00 0.00000E+00
 -1       131 7.40030E-08 1.50930E-01-1.53565E-02
 -1       132 1.78267E-07 1.47670E-01-3.69294E-02
 -1       133 0.00000E+00 0.00000E+00 0.00000E+00
 -1       134 0.00000E+00 0.00000E+00 0.00000E+00
 -1       135 3.70026E-08 1.50930E-01-1.53565E-02
 -1       136 8.91342E-08 1.47670E-01-3.69294E-02
 -1       137 0.00000E+00 0.00000E+00 0.00000E+00
 -1       138-1.64363E-08 3.90005E-02-2.10611E-03
 -1       139 1.26134E-07 1.49298E-01-2.61391E-02
 -1       140-4.29276E-08 3.81226E-02-1.34224E-02
 -1       141 1.63196E-07 5.59383E-01-1.05409E-01
 -1       142 3.69260E-07 5.48810E-01-1.43378E-01
 -1       143 8.15995E-08 5.59382E-01-1.05409E-01
 -1       144 1.84630E-07 5.48810E-01-1.43378E-01
 -1       145-5.75585E-08 3.27443E-01-4.79620E-02
 -1       146 2.66220E-07 5.54097E-01-1.24391E-01
 -1       147-1.35328E-07 3.20928E-01-7.83360E-02
 -1       148 2.65299E-07 1.15692E+00-3.05627E-01
 -1       149 5.72513E-07 1.13771E+00-3.55219E-01
 -1       150 1.32650E-07 1.15692E+00-3.05627E-01
 -1       151 2.86256E-07 1.13771E+00-3.55219E-01
 -1       152-1.05622E-07 8.38512E-01-1.90862E-01
 -1       153 4.18914E-07 1.14732E+00-3.30421E-01
 -1       154-2.33935E-07 8.23771E-01-2.35193E-01
 -1       155 3.78347E-07 1.88550E+00-6.22132E-01
 -1       156 7.87688E-07 1.85795E+00-6.79597E-01
 -1       157 1.89175E-07 1.88550E+00-6.22132E-01
 -1       158 3.93848E-07 1.85794E+00-6.79597E-01
 -1       159-1.59667E-07 1.50791E+00-4.49717E-01
 -1       160 5.82954E-07 1.87172E+00-6.50863E-01
 -1       161-3.38580E-07 1.48453E+00-5.03702E-01
 -1       162 4.99984E-07 2.70149E+00-1.04506E+00
 -1       163 1.01275E-06 2.66667E+00-1.10769E+00
 -1       164 2.49989E-07 2.70149E+00-1.04506E+00
 -1       165 5.06370E-07 2.66667E+00-1.10769E+00
 -1       166-2.18675E-07 2.28477E+00-8.21256E-01
 -1       167 7.56534E-07 2.68408E+00-1.07637E+00
 -1       168-4.49078E-07 2.25349E+00-8.81670E-01
 -1       169 6.26522E-07 3.57423E+00-1.55746E+00
 -1       170 1.24641E-06 3.53351E+00-1.62342E+00
 -1       171 3.13272E-07 3.57423E+00-1.55746E+00
 -1       172 6.23243E-07 3.53350E+00-1.62342E+00
 -1       173-2.81327E-07 3.13227E+00-1.29124E+00
 -1       174 9.35800E-07 3.55387E+00-1.59044E+00
 -1       175-5.63689E-07 3.09436E+00-1.35582E+00
 -1       176 7.52617E-07 4.48293E+00-2.14028E+00
 -1       177 1.47641E-06 4.43773E+00-2.20831E+00
 -1       178 3.76275E-07 4.48293E+00-2.14028E+00
 -1       179 7.38075E-07 4.43773E+00-2.20831E+00
 -1       180-3.45173E-07 4.02510E+00-1.84126E+00
 -1       181 1.11679E-06 4.46033E+00-2.17430E+00
 -1       182-6.82507E-07 3.98198E+00-1.90848E+00
 -1       183 8.68807E-07 5.41367E+00-2.77462E+00
 -1       184 1.71680E-06 5.36535E+00-2.84388E+00
 -1       185 4.34496E-07 5.41367E+00-2.77462E+00
 -1       186 8.58939E-07 5.36535E+00-2.84388E+00
 -1       187-4.07632E-07 4.94624E+00-2.45214E+00
 -1       188 1.28439E-06 5.38951E+00-2.80925E+00
 -1       189-7.94334E-07 4.89931E+00-2.52098E+00
 -1       190 9.64203E-07 6.35697E+00-3.44250E+00
 -1       191 1.87348E-06 6.30683E+00-3.51241E+00
 -1       192 4.81865E-07 6.35697E+00-3.44250E+00
 -1       193 9.34671E-07 6.30683E+00-3.51241E+00
 -1       194-4.60632E-07 5.88425E+00-3.10543E+00
 -1       195 1.44971E-06 6.33190E+00-3.47746E+00
 -1       196-9.20813E-07 5.83484E+00-3.17519E+00
 -1       197 1.01653E-06 7.30595E+00-4.12689E+00
 -1       198 2.22594E-06 7.25522E+00-4.19700E+00
 -1       199 5.08697E-07 7.30595E+00-4.12689E+00
 -1       200 1.12112E-06 7.25522E+00-4.19700E+00
 -1       201-5.05906E-07 6.83115E+00-3.78365E+00
 -1       202 1.50524E-06 7.28058E+00-4.16194E+00
 -1       203-9.57083E-07 6.78051E+00-3.85383E+00
 -1       204 0.00000E+00 0.00000E+00 0.00000E+00
 -1       205-1.77286E-07 1.54175E-01 6.20080E-03
 -1       206 0.00000E+00 0.00000E+00 0.00000E+00
 -1       207 7.48512E-13 1.54175E-01 6.20096E-03
 -1       208 0.00000E+00 0.00000E+00 0.00000E+00
 -1       209 4.36283E-08 3.98822E-02 9.21736E-03
 -1       210-1.25645E-07 1.52554E-01-4.58159E-03
 -1       211 0.00000E+00 0.00000E+00 0.00000E+00
 -1       212-8.86394E-08 1.54175E-01 6.20088E-03
 -1       213 0.00000E+00 0.00000E+00 0.00000E+00
 -1       214 2.31558E-13 3.98822E-02 9.21731E-03
 -1       215 6.57621E-13 1.52554E-01-4.58149E-03
 -1       216-3.60410E-07 5.69933E-01-6.74502E-02
 -1       217 2.52427E-12 5.69933E-01-6.74499E-02
 -1       218 1.33675E-07 3.33968E-01-1.75809E-02
 -1       219-2.61803E-07 5.64658E-01-8.64320E-02
 -1       220-1.80201E-07 5.69933E-01-6.74500E-02
 -1       221 1.52060E-12 3.33968E-01-1.75810E-02
 -1       222 2.34404E-12 5.64657E-01-8.64319E-02
 -1       223-5.48787E-07 1.17611E+00-2.56033E-01
 -1       224 5.12329E-12 1.17611E+00-2.56033E-01
 -1       225 2.26751E-07 8.53264E-01-1.46529E-01
 -1       226-4.07016E-07 1.16651E+00-2.80832E-01
 -1       227-2.74390E-07 1.17611E+00-2.56033E-01
 -1       228 3.73275E-12 8.53264E-01-1.46529E-01
 -1       229 4.86791E-12 1.16651E+00-2.80832E-01
 -1       230-7.39661E-07 1.91305E+00-5.64652E-01
 -1       231 8.32887E-12 1.91304E+00-5.64652E-01
 -1       232 3.22055E-07 1.53131E+00-3.95738E-01
 -1       233-5.59050E-07 1.89927E+00-5.93394E-01
 -1       234-3.69820E-07 1.91304E+00-5.64652E-01
 -1       235 6.65854E-12 1.53131E+00-3.95738E-01
 -1       236 8.01037E-12 1.89927E+00-5.93393E-01
 -1       237-9.29227E-07 2.73632E+00-9.82392E-01
 -1       238 1.19682E-11 2.73632E+00-9.82392E-01
 -1       239 4.17650E-07 2.31605E+00-7.60854E-01
 -1       240-7.14377E-07 2.71890E+00-1.01372E+00
 -1       241-4.64618E-07 2.73632E+00-9.82392E-01
 -1       242 1.01027E-11 2.31605E+00-7.60854E-01
 -1       243 1.15964E-11 2.71890E+00-1.01372E+00
 -1       244-1.10873E-06 3.61497E+00-1.49147E+00
 -1       245 1.59077E-11 3.61497E+00-1.49147E+00
 -1       246 5.11628E-07 3.17017E+00-1.22668E+00
 -1       247-8.68337E-07 3.59460E+00-1.52447E+00
 -1       248-5.54302E-07 3.61497E+00-1.49147E+00
 -1       249 1.39128E-11 3.17017E+00-1.22668E+00
 -1       250 1.54907E-11 3.59460E+00-1.52447E+00
 -1       251-1.27480E-06 4.52817E+00-2.07222E+00
 -1       252 2.00141E-11 4.52817E+00-2.07222E+00
 -1       253 5.97247E-07 4.06820E+00-1.77405E+00
 -1       254-1.01113E-06 4.50555E+00-2.10625E+00
 -1       255-6.37566E-07 4.52817E+00-2.07222E+00
 -1       256 1.79343E-11 4.06820E+00-1.77405E+00
 -1       257 1.95657E-11 4.50555E+00-2.10625E+00
 -1       258-1.38854E-06 5.46205E+00-2.70531E+00
 -1       259 2.41964E-11 5.46205E+00-2.70531E+00
 -1       260 6.77708E-07 4.99315E+00-2.38333E+00
 -1       261-1.13769E-06 5.43786E+00-2.73997E+00
 -1       262-6.93588E-07 5.46205E+00-2.70531E+00
 -1       263 2.20996E-11 4.99315E+00-2.38333E+00
 -1       264 2.37271E-11 5.43786E+00-2.73997E+00
 -1       265-1.51083E-06 6.40720E+00-3.37254E+00
 -1       266 2.84181E-11 6.40720E+00-3.37254E+00
 -1       267 7.10762E-07 5.93363E+00-3.03570E+00
 -1       268-1.20508E-06 6.38209E+00-3.40752E+00
 -1       269-7.57708E-07 6.40720E+00-3.37254E+00
 -1       270 2.63021E-11 5.93363E+00-3.03570E+00
 -1       271 2.79328E-11 6.38208E+00-3.40752E+00
 -1       272-1.30817E-06 7.35680E+00-4.05672E+00
 -1       273 3.26617E-11 7.35680E+00-4.05672E+00
 -1       274 8.02848E-07 6.88175E+00-3.71350E+00
 -1       275-1.28027E-06 7.33137E+00-4.09181E+00
 -1       276-6.45887E-07 7.35680E+00-4.05672E+00
 -1       277 3.05506E-11 6.88175E+00-3.71350E+00
 -1       278 3.21685E-11 7.33137E+00-4.09181E+00
 -1       279 0.00000E+00 0.00000E+00 0.00000E+00
 -1       280 1.77288E-07 1.54175E-01 6.20080E-03
 -1       281 0.00000E+00 0.00000E+00 0.00000E+00
 -1       282 8.86409E-08 1.54175E-01 6.20088E-03
 -1       283 0.00000E+00 0.00000E+00 0.00000E+00
 -1       284-4.36278E-08 3.98822E-02 9.21736E-03
 -1       285 1.25646E-07 1.52554E-01-4.58159E-03
 -1       286 3.60415E-07 5.69933E-01-6.74502E-02
 -1       287 1.80206E-07 5.69933E-01-6.74500E-02
 -1       288-1.33672E-07 3.33968E-01-1.75809E-02
 -1       289 2.61807E-07 5.64658E-01-8.64320E-02
 -1       290 5.48798E-07 1.17611E+00-2.56033E-01
 -1       291 2.74400E-07 1.17611E+00-2.56033E-01
 -1       292-2.26743E-07 8.53264E-01-1.46529E-01
 -1       293 4.07026E-07 1.16651E+00-2.80832E-01
 -1       294 7.39678E-07 1.91305E+00-5.64652E-01
 -1       295 3.69836E-07 1.91304E+00-5.64652E-01
 -1       296-3.22042E-07 1.53131E+00-3.95738E-01
 -1       297 5.59066E-07 1.89927E+00-5.93394E-01
 -1       298 9.29251E-07 2.73632E+00-9.82392E-01
 -1       299 4.64642E-07 2.73632E+00-9.82392E-01
 -1       300-4.17630E-07 2.31605E+00-7.60854E-01
 -1       301 7.14400E-07 2.71890E+00-1.01372E+00
 -1       302 1.10877E-06 3.61497E+00-1.49147E+00
 -1       303 5.54333E-07 3.61497E+00-1.49147E+00
 -1       304-5.11601E-07 3.17017E+00-1.22668E+00
 -1       305 8.68368E-07 3.59460E+00-1.52447E+00
 -1       306 1.27484E-06 4.52817E+00-2.07222E+00
 -1       307 6.37606E-07 4.52817E+00-2.07222E+00
 -1       308-5.97211E-07 4.06820E+00-1.77405E+00
 -1       309 1.01117E-06 4.50555E+00-2.10625E+00
 -1       310 1.38858E-06 5.46205E+00-2.70531E+00
 -1       311 6.93636E-07 5.46205E+00-2.70531E+00
 -1       312-6.77664E-07 4.99315E+00-2.38333E+00
 -1       313 1.13774E-06 5.43786E+00-2.73997E+00
 -1       314 1.51089E-06 6.40720E+00-3.37254E+00
 -1       315 7.57765E-07 6.40720E+00-3.37254E+00
 -1       316-7.10709E-07 5.93363E+00-3.03570E+00
 -1       317 1.20514E-06 6.38209E+00-3.40752E+00
 -1       318 1.30824E-06 7.35680E+00-4.05672E+00
 -1       319 6.45952E-07 7.35680E+00-4.05672E+00
 -1       320-8.02787E-07 6.88175E+00-3.71350E+00
 -1       321 1.28033E-06 7.33137E+00-4.09181E+00
 -3
    1PSTEP                        22          11           1          
  100CL  111 5.50000E-01         321                     0   11           1
 -4  STRESS      6    1
 -5  SXX         1    4    1    1
 -5  SYY         1    4    2    2
 -5  SZZ         1    4    3    3
 -5  SXY         1    4    1    2
 -5  SYZ         1    4    2    3
 -5  SZX         1    4    3    1
 -1         1 1.79788E+02-1.61189E+04-2.34347E+06-3.17484E+01-1.43066E+04 3.69877E+01
 -1         2 7.12763E+01-4.83326E+04-4.23900E+04-3.82807E+00 1.22836E+04 2.88004E+01
 -1         3 5.07206E+00-1.52785E+04-3.81812E+04 1.66363E+00 1.67139E+04 4.59390E+00
 -1         4 4.09298E+00-1.52141E+05-1.80416E+06 4.25471E+00-5.73254E+05 7.80046E+00
 -1         5 1.79788E+02-1.60270E+04-2.34348E+06 1.99004E-07-1.43004E+04-5.52729E-06
 -1         6 7.12763E+01-4.83271E+04-4.24031E+04 2.95859E-07 1.23053E+04-1.38575E-07
 -1         7 5.05832E+00-1.52785E+04-3.81893E+04-3.23463E-07 1.67121E+04-2.28584E-07
 -1         8 4.08110E+00-1.52126E+05-1.80417E+06-3.05511E-06-5.73246E+05-1.10600E-05
 -1         9 1.25335E+02-2.97491E+04-1.19298E+06-4.64041E-02 5.26598E+02 3.11852E+01
 -1        10-2.74092E+00-1.85055E+04-3.81171E+04-2.37829E-01 1.10644E+04-2.13680E+00
 -1        11 4.59746E+00-8.41687E+04-9.20859E+05 2.20895E+00-2.78863E+05 4.80055E+00
 -1        12-2.11694E+00-7.19263E+04-2.08902E+06-1.21235E+00-3.05974E+05-4.02061E+00
 -1        13 1.79788E+02-1.60730E+04-2.34347E+06-5.10229E+01-1.43035E+04 3.05513E+01
 -1        14 7.12763E+01-4.83299E+04-4.23965E+04-4.34192E+00 1.22945E+04 2.53696E+01
 -1        15 5.06519E+00-1.52785E+04-3.81852E+04-6.31163E-01 1.67130E+04 1.12121E+00
 -1        16 4.08704E+00-1.52134E+05-1.80416E+06 1.48381E-01-5.73250E+05 1.50490E+00
 -1        17 1.25335E+02-2.96600E+04-1.19299E+06 1.96912E-07 5.26872E+02-2.82725E-06
 -1        18-2.74780E+00-1.85050E+04-3.81115E+04-7.99512E-08 1.10657E+04-2.17700E-07
 -1        19 4.58458E+00-8.41610E+04-9.20866E+05-1.33800E-06-2.78860E+05-4.99301E-06
 -1        20-2.12291E+00-7.19294E+04-2.08901E+06-1.39031E-06-3.05979E+05-8.20795E-06
 -1        21 4.31025E+00 1.81615E+03-2.86128E+04 3.67966E+00 7.23038E+03 4.31873E+00
 -1        22 3.93944E+00-4.25531E+05-1.17141E+06 6.97475E+00-7.20149E+05 6.34945E+00
 -1        23 4.30196E+00 1.82053E+03-2.86158E+04-2.62193E-07 7.23038E+03-1.79137E-07
 -1        24 3.96456E+00-4.25500E+05-1.17141E+06-4.57783E-06-7.20141E+05-8.17621E-06
 -1        25-2.29817E+00-9.71467E+03-3.17419E+04-1.40530E+00 1.05028E+04-2.34970E+00
 -1        26 4.13966E+00-2.12362E+05-5.99665E+05 4.52269E+00-3.56499E+05 4.42225E+00
 -1        27-1.99359E+00-2.99821E+05-1.47332E+06-2.98548E+00-6.50111E+05-3.66446E+00
 -1        28 4.30611E+00 1.81834E+03-2.86143E+04-4.22158E-01 7.23038E+03 1.30185E+00
 -1        29 3.95200E+00-4.25516E+05-1.17141E+06-6.01793E-01-7.20145E+05 1.13703E+00
 -1        30-2.30919E+00-9.71543E+03-3.17394E+04-1.53352E-07 1.05033E+04-1.68084E-07
 -1        31 4.14800E+00-2.12343E+05-5.99668E+05-2.35431E-06-3.56497E+05-3.87348E-06
 -1        32-1.98696E+00-2.99833E+05-1.47332E+06-4.20030E-06-6.50115E+05-9.56962E-06
 -1        33 3.65291E+00 7.08783E+03-2.08227E+04 4.60857E+00 3.12856E+03 3.15413E+00
 -1        34 3.80805E+00-5.81570E+05-6.92123E+05 7.63448E+00-6.43290E+05 4.10527E+00
 -1        35 3.67895E+00 7.09942E+03-2.08229E+04 1.85135E-07 3.13083E+03-4.93466E-08
 -1        36 3.84820E+00-5.81523E+05-6.92122E+05-4.90428E-06-6.43282E+05-6.24496E-06
 -1        37-1.98120E+00 1.13615E+03-2.37012E+04-2.20454E+00 4.90569E+03-1.90090E+00
 -1        38 3.72951E+00-2.87498E+05-3.56370E+05 5.35849E+00-3.19887E+05 3.08450E+00
 -1        39-1.94086E+00-5.10363E+05-9.22218E+05-3.86895E+00-6.77407E+05-2.60976E+00
 -1        40 3.66593E+00 7.09363E+03-2.08228E+04-7.91967E-01 3.12970E+03 9.59176E-01
 -1        41 3.82812E+00-5.81546E+05-6.92122E+05-2.15318E+00-6.43286E+05 4.56464E-01
 -1        42-1.97233E+00 1.13243E+03-2.37005E+04 6.61199E-08 4.90504E+03-1.56816E-07
 -1        43 3.76258E+00-2.87467E+05-3.56370E+05-2.32023E-06-3.19884E+05-2.90874E-06
 -1        44-1.90822E+00-5.10383E+05-9.22218E+05-4.80773E-06-6.77411E+05-7.27801E-06
 -1        45 2.86763E+00 1.03773E+04-1.39373E+04 4.60864E+00 6.81151E+01 1.72498E+00
 -1        46 3.23720E+00-6.11806E+05-3.86979E+05 6.94255E+00-4.91935E+05 2.03836E+00
 -1        47 2.90366E+00 1.03985E+04-1.39361E+04-1.63600E-06 7.22820E+01 4.37395E-07
 -1        48 3.23720E+00-6.11740E+05-3.86977E+05-9.43713E-06-4.91926E+05-4.33824E-06
 -1        49-1.64362E+00 5.84828E+03-1.73867E+04-2.32123E+00 2.03439E+03-1.21534E+00
 -1        50 3.09904E+00-3.00773E+05-2.00519E+05 5.09454E+00-2.45749E+05 1.63461E+00
 -1        51-1.84234E+00-5.98717E+05-5.35592E+05-3.61418E+00-5.61598E+05-1.46893E+00
 -1        52 2.88565E+00 1.03879E+04-1.39367E+04-1.83447E+00 7.01986E+01 3.60514E-01
 -1        53 3.23720E+00-6.11773E+05-3.86978E+05-4.68380E+00-4.91931E+05-2.10748E-01
 -1        54-1.61258E+00 5.84022E+03-1.73870E+04-3.67006E-07 2.03271E+03-6.44204E-08
 -1        55 3.11703E+00-3.00728E+05-2.00518E+05-5.06570E-06-2.45746E+05-1.78871E-06
 -1        56-1.82230E+00-5.98745E+05-5.35593E+05-6.83886E-06-5.61602E+05-5.66127E-06
 -1        57 1.63465E+00 1.16178E+04-9.05009E+03 2.57435E+00-1.23654E+03 4.97502E-01
 -1        58 2.45460E+00-5.56449E+05-2.09427E+05 2.71513E+00-3.45331E+05 2.39381E-01
 -1        59 1.77458E+00 1.16511E+04-9.04836E+03 6.82399E-07-1.23102E+03-1.37146E-06
 -1        60 2.63736E+00-5.56359E+05-2.09424E+05-8.34832E-07-3.45322E+05-4.16447E-06
 -1        61-1.20833E+00 8.64865E+03-1.21781E+04-2.18886E+00 9.12676E+01-4.86884E-01
 -1        62 1.92312E+00-2.72397E+05-1.09336E+05 2.05050E+00-1.73165E+05 3.52295E-01
 -1        63-1.39246E+00-5.83207E+05-2.98020E+05-3.16264E+00-4.13677E+05-5.70582E-01
 -1        64 1.70462E+00 1.16344E+04-9.04922E+03-3.74167E+00-1.23378E+03-1.12005E-01
 -1        65 2.54598E+00-5.56404E+05-2.09425E+05-8.09883E+00-3.45327E+05-9.53856E-01
 -1        66-1.12036E+00 8.63522E+03-1.21788E+04 3.62909E-07 8.87529E+01-7.81059E-08
 -1        67 2.08455E+00-2.72335E+05-1.09334E+05-1.02878E-06-1.73161E+05-2.30780E-06
 -1        68-1.30099E+00-5.83245E+05-2.98022E+05-4.34857E-06-4.13682E+05-4.25245E-06
 -1        69-1.42494E-01 1.22242E+04-5.68286E+03 2.55266E+00-1.74499E+03-1.01563E+00
 -1        70-3.15860E-01-4.57799E+05-1.11272E+05 4.02305E+00-2.28792E+05-1.41881E-01
 -1        71-1.93870E-01 1.22715E+04-5.68067E+03 1.15030E-06-1.73739E+03 1.42924E-06
 -1        72-8.22417E-01-4.57684E+05-1.11269E+05-4.51866E-06-2.28778E+05-9.64681E-07
 -1        73-3.91803E-01 1.00334E+04-8.46538E+03-2.93715E-01-8.49540E+02 1.34607E-02
 -1        74 2.39041E-01-2.22793E+05-5.85157E+04 2.81712E+00-1.15162E+05-2.87042E-01
 -1        75-9.53125E-01-5.04972E+05-1.61987E+05 6.10102E-01-2.83747E+05 2.88391E-01
 -1        76-1.68182E-01 1.22478E+04-5.68177E+03-6.11299E+00-1.74119E+03-1.23022E+00
 -1        77-5.69138E-01-4.57742E+05-1.11270E+05-1.30041E+01-2.28785E+05-9.94294E-01
 -1        78-3.47453E-01 1.00131E+04-8.46628E+03-8.41082E-07-8.52547E+02 2.49915E-07
 -1        79-4.00457E-02-2.22710E+05-5.85154E+04-3.08021E-06-1.15157E+05 1.20896E-07
 -1        80-1.11532E+00-5.05024E+05-1.61988E+05-3.35085E-06-2.83751E+05-3.13242E-06
 -1        81-3.29449E+00 1.26025E+04-3.57006E+03-1.03328E+01-1.80061E+03-6.43573E-01
 -1        82-4.68128E-01-3.42800E+05-5.78953E+04-2.35430E+01-1.43396E+05-3.35849E+00
 -1        83-2.61074E+00 1.26692E+04-3.56808E+03 4.21916E-07-1.79295E+03 7.60285E-07
 -1        84 1.76458E+00-3.42640E+05-5.78928E+04-1.43277E-06-1.43392E+05-2.74245E-06
 -1        85 4.68309E-01 1.07554E+04-5.91397E+03-2.09164E+00-1.31797E+03 9.99710E-01
 -1        86-3.48775E+00-1.65101E+05-3.07323E+04-1.75468E+01-7.25146E+04-1.68075E+00
 -1        87 1.00751E+00-3.97788E+05-8.68131E+04-4.42250E+00-1.84118E+05-1.25343E-01
 -1        88-2.95262E+00 1.26359E+04-3.56907E+03-1.04364E+01-1.79678E+03-1.41244E-02
 -1        89 6.48224E-01-3.42720E+05-5.78940E+04-1.79571E+01-1.43394E+05-3.22328E+00
 -1        90 7.84279E-01 1.07279E+04-5.91522E+03 3.34554E-07-1.32256E+03 1.21460E-06
 -1        91-2.02920E+00-1.64992E+05-3.07270E+04-1.05870E-06-7.25085E+04-1.46568E-06
 -1        92 1.87155E+00-3.97851E+05-8.68146E+04-2.43167E-06-1.84129E+05-1.76839E-06
 -1        93-7.01621E+00 1.29186E+04-2.30635E+03 1.73811E+01-1.56418E+03-6.74675E+00
 -1        94-1.36428E+01-2.24251E+05-2.89115E+04 4.89245E+01-8.26471E+04 6.43701E+00
 -1        95-8.30111E+00 1.30002E+04-2.30066E+03 5.68644E-07-1.54522E+03 9.08061E-07
 -1        96-2.20880E+01-2.24089E+05-2.89105E+04-9.79964E-06-8.25867E+04-1.37653E-06
 -1        97 3.11366E+00 1.10356E+04-4.22869E+03 1.24936E+01-1.50890E+03-2.81489E-01
 -1        98-4.50968E+00-1.05901E+05-1.53711E+04 3.34711E+01-4.17475E+04 1.21553E+00
 -1        99 4.58252E-01-2.80836E+05-4.55707E+04 2.79493E+01-1.11921E+05 3.29888E+00
 -1       100-7.65866E+00 1.29594E+04-2.30350E+03-1.25656E+01-1.55470E+03-7.44251E+00
 -1       101-1.78654E+01-2.24170E+05-2.89110E+04-2.84772E+01-8.26169E+04 2.68296E+00
 -1       102 2.81380E+00 1.09962E+04-4.22920E+03 9.69941E-07-1.51198E+03-1.65991E-07
 -1       103-9.37528E+00-1.05761E+05-1.53854E+04-4.63268E-06-4.17334E+04-2.16377E-07
 -1       104-2.65133E+00-2.80932E+05-4.55723E+04-2.94496E-06-1.11914E+05-1.50579E-06
 -1       105-1.37201E+01 1.35974E+04-1.88446E+03-1.12430E+02-1.54203E+03 1.06559E+01
 -1       106 1.03595E+01-1.09267E+05-1.03318E+04-2.63971E+02-3.50195E+04-3.21779E+01
 -1       107-9.72928E+00 1.37262E+04-1.89364E+03 1.69161E-06-1.54715E+03-1.93743E-06
 -1       108 4.37261E+01-1.08926E+05-1.03161E+04-4.93985E-06-3.51414E+04 3.65943E-06
 -1       109 2.84101E+00 1.11329E+04-3.29805E+03-2.94744E+01-1.72147E+03 6.93813E+00
 -1       110-2.27676E+01-4.75655E+04-6.30855E+03-1.91663E+02-1.85999E+04-1.13383E+01
 -1       111 9.90304E+00-1.63743E+05-2.14828E+04-7.59482E+01-5.82442E+04-9.26855E+00
 -1       112-1.17247E+01 1.36618E+04-1.88905E+03-2.68670E+01-1.54459E+03 1.62685E+01
 -1       113 2.70428E+01-1.09097E+05-1.03239E+04-2.63071E+01-3.50804E+04-2.18164E+01
 -1       114 4.19147E+00 1.10900E+04-3.30386E+03-1.66498E-06-1.73717E+03-6.82671E-07
 -1       115-4.08789E+00-4.73873E+04-6.24970E+03-1.55587E-06-1.85922E+04 1.88351E-07
 -1       116 2.23756E+01-1.63810E+05-2.14810E+04-5.23267E-06-5.83156E+04 1.39451E-06
 -1       117-3.59440E+01-3.43691E+03-4.48333E+03 4.03718E+02-7.50389E+03-9.78255E+01
 -1       118-2.23053E+02 2.51431E+04 5.37087E+03 9.83870E+02 1.05115E+04 2.45243E+01
 -1       119-4.25599E+01-4.71336E+03-4.42083E+03-1.35141E-05-7.62315E+03-2.61073E-06
 -1       120-3.53219E+02 2.16919E+04 5.29131E+03 7.06668E-06 1.07076E+04 2.17345E-06
 -1       121 1.48715E+01 1.07083E+04-2.45332E+03 1.41974E+02-1.55820E+03-1.75535E+01
 -1       122-5.15212E+01 1.14455E+04-6.98195E+01 7.10874E+02 6.85598E+02-2.73616E+01
 -1       123-9.29689E+00-4.57289E+04-7.54068E+03 3.36671E+02-1.89134E+04 4.01886E+01
 -1       124-3.92519E+01-4.07513E+03-4.45208E+03 2.16647E+02-7.56352E+03-8.37693E+01
 -1       125-2.88136E+02 2.34175E+04 5.33109E+03 3.59921E+02 1.06095E+04 5.71123E+01
 -1       126 1.35608E+01 1.06232E+04-2.43564E+03-2.75791E-06-1.53833E+03-1.53635E-06
 -1       127-1.19915E+02 9.21889E+03-2.63114E+02-5.48002E-06 5.42276E+02 1.52556E-07
 -1       128-5.77063E+01-4.60047E+04-7.56411E+03-4.32134E-06-1.87111E+04 2.89634E-06
 -1       129 1.79788E+02-1.61189E+04-2.34347E+06 3.17484E+01-1.43066E+04-3.69877E+01
 -1       130 7.12763E+01-4.83326E+04-4.23900E+04 3.82807E+00 1.22836E+04-2.88004E+01
 -1       131 5.07206E+00-1.52785E+04-3.81812E+04-1.66363E+00 1.67139E+04-4.59390E+00
 -1       132 4.09298E+00-1.52141E+05-1.80416E+06-4.25471E+00-5.73254E+05-7.80046E+00
 -1       133 1.79788E+02-1.60730E+04-2.34347E+06 5.10229E+01-1.43035E+04-3.05513E+01
 -1       134 7.12763E+01-4.83299E+04-4.23965E+04 4.34192E+00 1.22945E+04-2.53696E+01
 -1       135 5.06519E+00-1.52785E+04-3.81852E+04 6.31163E-01 1.67130E+04-1.12121E+00
 -1       136 4.08704E+00-1.52134E+05-1.80416E+06-1.48385E-01-5.73250E+05-1.50491E+00
 -1       137 1.25335E+02-2.97491E+04-1.19298E+06 4.64040E-02 5.26598E+02-3.11852E+01
 -1       138-2.74092E+00-1.85055E+04-3.81171E+04 2.37829E-01 1.10644E+04 2.13680E+00
 -1       139 4.59746E+00-8.41687E+04-9.20859E+05-2.20895E+00-2.78863E+05-4.80055E+00
 -1       140-2.11694E+00-7.19263E+04-2.08902E+06 1.21235E+00-3.05974E+05 4.02060E+00
 -1       141 4.31025E+00 1.81615E+03-2.86128E+04-3.67966E+00 7.23038E+03-4.31873E+00
 -1       142 3.93944E+00-4.25531E+05-1.17141E+06-6.97476E+00-7.20149E+05-6.34945E+00
 -1       143 4.30611E+00 1.81834E+03-2.86143E+04 4.22158E-01 7.23038E+03-1.30185E+00
 -1       144 3.95200E+00-4.25516E+05-1.17141E+06 6.01786E-01-7.20145E+05-1.13704E+00
 -1       145-2.29817E+00-9.71467E+03-3.17419E+04 1.40530E+00 1.05028E+04 2.34970E+00
 -1       146 4.13966E+00-2.12362E+05-5.99665E+05-4.52269E+00-3.56499E+05-4.42225E+00
 -1       147-1.99359E+00-2.99821E+05-1.47332E+06 2.98548E+00-6.50111E+05 3.66445E+00
 -1       148 3.65291E+00 7.08783E+03-2.08227E+04-4.60857E+00 3.12856E+03-3.15413E+00
 -1       149 3.80805E+00-5.81570E+05-6.92123E+05-7.63449E+00-6.43290E+05-4.10528E+00
 -1       150 3.66593E+00 7.09363E+03-2.08228E+04 7.91967E-01 3.12970E+03-9.59176E-01
 -1       151 3.82812E+00-5.81546E+05-6.92122E+05 2.15317E+00-6.43286E+05-4.56474E-01
 -1       152-1.98120E+00 1.13615E+03-2.37012E+04 2.20454E+00 4.90569E+03 1.90090E+00
 -1       153 3.72951E+00-2.87498E+05-3.56370E+05-5.35849E+00-3.19887E+05-3.08450E+00
 -1       154-1.94086E+00-5.10363E+05-9.22218E+05 3.86894E+00-6.77407E+05 2.60976E+00
 -1       155 2.86763E+00 1.03773E+04-1.39373E+04-4.60864E+00 6.81151E+01-1.72498E+00
 -1       156 3.23720E+00-6.11806E+05-3.86979E+05-6.94255E+00-4.91935E+05-2.03836E+00
 -1       157 2.88565E+00 1.03879E+04-1.39367E+04 1.83447E+00 7.01986E+01-3.60514E-01
 -1       158 3.23720E+00-6.11773E+05-3.86978E+05 4.68379E+00-4.91931E+05 2.10742E-01
 -1       159-1.64362E+00 5.84828E+03-1.73867E+04 2.32123E+00 2.03439E+03 1.21534E+00
 -1       160 3.09904E+00-3.00773E+05-2.00519E+05-5.09454E+00-2.45749E+05-1.63461E+00
 -1       161-1.84234E+00-5.98717E+05-5.35592E+05 3.61417E+00-5.61598E+05 1.46892E+00
 -1       162 1.63465E+00 1.16178E+04-9.05009E+03-2.57435E+00-1.23654E+03-4.97501E-01
 -1       163 2.45460E+00-5.56449E+05-2.09427E+05-2.71514E+00-3.45331E+05-2.39382E-01
 -1       164 1.70462E+00 1.16344E+04-9.04922E+03 3.74166E+00-1.23378E+03 1.12004E-01
 -1       165 2.54598E+00-5.56404E+05-2.09425E+05 8.09883E+00-3.45327E+05 9.53852E-01
 -1       166-1.20833E+00 8.64865E+03-1.21781E+04 2.18885E+00 9.12676E+01 4.86883E-01
 -1       167 1.92312E+00-2.72397E+05-1.09336E+05-2.05051E+00-1.73165E+05-3.52297E-01
 -1       168-1.39246E+00-5.83207E+05-2.98020E+05 3.16264E+00-4.13677E+05 5.70580E-01
 -1       169-1.42494E-01 1.22242E+04-5.68286E+03-2.55266E+00-1.74499E+03 1.01563E+00
 -1       170-3.15860E-01-4.57799E+05-1.11272E+05-4.02304E+00-2.28792E+05 1.41877E-01
 -1       171-1.68182E-01 1.22478E+04-5.68177E+03 6.11300E+00-1.74119E+03 1.23022E+00
 -1       172-5.69138E-01-4.57742E+05-1.11270E+05 1.30041E+01-2.28785E+05 9.94291E-01
 -1       173-3.91803E-01 1.00334E+04-8.46538E+03 2.93715E-01-8.49540E+02-1.34604E-02
 -1       174 2.39041E-01-2.22793E+05-5.85157E+04-2.81712E+00-1.15162E+05 2.87040E-01
 -1       175-9.53125E-01-5.04972E+05-1.61987E+05-6.10110E-01-2.83747E+05-2.88394E-01
 -1       176-3.29449E+00 1.26025E+04-3.57006E+03 1.03328E+01-1.80061E+03 6.43569E-01
 -1       177-4.68129E-01-3.42800E+05-5.78953E+04 2.35430E+01-1.43396E+05 3.35849E+00
 -1       178-2.95262E+00 1.26359E+04-3.56907E+03 1.04364E+01-1.79678E+03 1.41230E-02
 -1       179 6.48223E-01-3.42720E+05-5.78940E+04 1.79571E+01-1.43394E+05 3.22328E+00
 -1       180 4.68309E-01 1.07554E+04-5.91397E+03 2.09164E+00-1.31797E+03-9.99712E-01
 -1       181-3.48775E+00-1.65101E+05-3.07323E+04 1.75468E+01-7.25146E+04 1.68075E+00
 -1       182 1.00751E+00-3.97788E+05-8.68131E+04 4.42251E+00-1.84118E+05 1.25340E-01
 -1       183-7.01621E+00 1.29186E+04-2.30635E+03-1.73811E+01-1.56418E+03 6.74675E+00
 -1       184-1.36428E+01-2.24251E+05-2.89115E+04-4.89245E+01-8.26471E+04-6.43701E+00
 -1       185-7.65866E+00 1.29594E+04-2.30350E+03 1.25656E+01-1.55470E+03 7.44252E+00
 -1       186-1.78654E+01-2.24170E+05-2.89110E+04 2.84772E+01-8.26169E+04-2.68296E+00
 -1       187 3.11366E+00 1.10356E+04-4.22869E+03-1.24936E+01-1.50890E+03 2.81489E-01
 -1       188-4.50968E+00-1.05901E+05-1.53711E+04-3.34711E+01-4.17475E+04-1.21553E+00
 -1       189 4.58252E-01-2.80836E+05-4.55707E+04-2.79493E+01-1.11921E+05-3.29888E+00
 -1       190-1.37201E+01 1.35974E+04-1.88446E+03 1.12430E+02-1.54203E+03-1.06559E+01
 -1       191 1.03595E+01-1.09267E+05-1.03318E+04 2.63971E+02-3.50195E+04 3.21779E+01
 -1       192-1.17247E+01 1.36618E+04-1.88905E+03 2.68670E+01-1.54459E+03-1.62685E+01
 -1       193 2.70428E+01-1.09097E+05-1.03239E+04 2.63071E+01-3.50804E+04 2.18165E+01
 -1       194 2.84101E+00 1.11329E+04-3.29805E+03 2.94744E+01-1.72147E+03-6.93814E+00
 -1       195-2.27676E+01-4.75655E+04-6.30855E+03 1.91663E+02-1.85999E+04 1.13383E+01
 -1       196 9.90304E+00-1.63743E+05-2.14828E+04 7.59482E+01-5.82442E+04 9.26855E+00
 -1       197-3.59440E+01-3.43691E+03-4.48333E+03-4.03718E+02-7.50389E+03 9.78255E+01
 -1       198-2.23053E+02 2.51431E+04 5.37087E+03-9.83870E+02 1.05115E+04-2.45243E+01
 -1       199-3.92519E+01-4.07513E+03-4.45208E+03-2.16647E+02-7.56352E+03 8.37693E+01
 -1       200-2.88136E+02 2.34175E+04 5.33109E+03-3.59921E+02 1.06095E+04-5.71122E+01
 -1       201 1.48715E+01 1.07083E+04-2.45332E+03-1.41974E+02-1.55820E+03 1.75535E+01
 -1       202-5.15212E+01 1.14455E+04-6.98195E+01-7.10874E+02 6.85598E+02 2.73616E+01
 -1       203-9.29689E+00-4.57289E+04-7.54068E+03-3.36671E+02-1.89134E+04-4.01886E+01
 -1       204 1.72946E+02-8.14764E+04 2.42705E+06-9.15396E+01 4.42681E+04 1.12034E+02
 -1       205 2.10922E+00 1.66120E+05 1.85961E+06 4.51971E+00 5.98970E+05 8.33564E+00
 -1       206 1.72946E+02-8.15462E+04 2.42701E+06 1.61779E-07 4.43274E+04 5.73681E-06
 -1       207 2.16097E+00 1.66132E+05 1.85959E+06 3.47138E-06 5.98973E+05 1.12374E-05
 -1       208 1.22308E+02-6.73811E+04 1.19239E+06-6.54257E+01 2.67378E+04 7.21261E+01
 -1       209-9.71007E-01 5.56518E+04 2.15945E+06-1.50241E+00 3.25654E+05-4.60972E+00
 -1       210 3.57569E+00 7.58800E+04 9.10404E+05 3.84189E+00 3.08435E+05 7.86140E+00
 -1       211 1.72946E+02-8.15112E+04 2.42703E+06-7.56697E+01 4.42978E+04 1.01285E+02
 -1       212 2.13510E+00 1.66126E+05 1.85960E+06-1.24559E+00 5.98972E+05-9.79035E-01
 -1       213 1.22308E+02-6.74537E+04 1.19235E+06 2.79338E-07 2.67920E+04 2.79344E-06
 -1       214-9.45153E-01 5.56488E+04 2.15947E+06 1.55744E-06 3.25652E+05 8.54220E-06
 -1       215 3.59477E+00 7.58854E+04 9.10386E+05 1.22267E-06 3.08436E+05 4.85310E-06
 -1       216 1.91556E+00 4.43028E+05 1.19808E+06 6.57554E+00 7.48572E+05 6.02242E+00
 -1       217 1.95669E+00 4.43056E+05 1.19807E+06 5.65998E-06 7.48579E+05 8.31093E-06
 -1       218-1.07372E+00 3.07975E+05 1.51924E+06-3.03686E+00 6.72954E+05-3.62620E+00
 -1       219 3.09809E+00 2.22926E+05 5.84386E+05 5.93212E+00 3.77942E+05 6.08242E+00
 -1       220 1.93612E+00 4.43042E+05 1.19808E+06-2.57501E+00 7.48576E+05-7.53349E-01
 -1       221-1.02727E+00 3.07965E+05 1.51925E+06 4.52771E-06 6.72952E+05 9.72079E-06
 -1       222 3.11458E+00 2.22941E+05 5.84382E+05 2.63320E-06 3.77946E+05 3.76170E-06
 -1       223 1.02885E+00 6.05737E+05 7.05663E+05 6.44076E+00 6.62276E+05 3.23706E+00
 -1       224 1.05044E+00 6.05786E+05 7.05666E+05 5.52224E-06 6.62288E+05 6.37522E-06
 -1       225-7.91845E-01 5.24445E+05 9.46618E+05-3.51267E+00 7.01872E+05-2.27873E+00
 -1       226 2.34186E+00 3.06669E+05 3.42317E+05 6.28771E+00 3.32509E+05 3.74079E+00
 -1       227 1.03965E+00 6.05761E+05 7.05665E+05-4.33324E+00 6.62282E+05-9.04700E-01
 -1       228-7.60473E-01 5.24426E+05 9.46618E+05 6.05602E-06 7.01867E+05 7.56779E-06
 -1       229 2.36568E+00 3.06698E+05 3.42320E+05 2.81434E-06 3.32518E+05 2.92453E-06
 -1       230-3.85337E-01 6.35020E+05 3.94145E+05 4.82223E+00 5.04765E+05 5.15549E-01
 -1       231-2.76134E-01 6.35094E+05 3.94152E+05 8.57121E-06 5.04781E+05 4.14226E-06
 -1       232-1.97594E-01 6.18103E+05 5.48115E+05-2.84631E+00 5.80730E+05-8.43925E-01
 -1       233 1.19453E+00 3.22757E+05 1.90164E+05 5.39649E+00 2.52232E+05 1.36732E+00
 -1       234-3.30735E-01 6.35057E+05 3.94148E+05-6.90673E+00 5.04773E+05-1.44284E+00
 -1       235-1.32237E-01 6.18073E+05 5.48112E+05 6.13397E-06 5.80722E+05 5.53084E-06
 -1       236 1.26717E+00 3.22803E+05 1.90170E+05 2.99674E-06 2.52245E+05 2.12811E-06
 -1       237-2.81568E+00 5.77939E+05 2.14288E+05-4.83442E-01 3.53820E+05-2.29917E+00
 -1       238-2.98219E+00 5.78036E+05 2.14297E+05 5.81288E-06 3.53841E+05 3.49023E-06
 -1       239 6.18621E-01 6.03784E+05 3.03805E+05-1.87241E+00 4.28069E+05 4.21935E-01
 -1       240-4.69013E-01 2.94760E+05 1.02716E+05 1.63969E+00 1.76173E+05-8.84688E-01
 -1       241-2.89894E+00 5.77988E+05 2.14292E+05-1.04549E+01 3.53831E+05-2.53944E+00
 -1       242 5.90086E-01 6.03741E+05 3.03801E+05 5.24156E-06 4.28061E+05 3.47629E-06
 -1       243-4.82377E-01 2.94824E+05 1.02722E+05 4.20021E-06 1.76190E+05 5.99225E-07
 -1       244-5.70496E+00 4.77332E+05 1.15074E+05-9.87976E-01 2.34858E+05-3.92252E+00
 -1       245-4.78931E+00 4.77463E+05 1.15082E+05 3.24270E-06 2.34878E+05 1.90649E-06
 -1       246 2.24164E+00 5.25540E+05 1.64547E+05 2.53448E+00 2.94299E+05 1.96960E+00
 -1       247-3.39194E+00 2.44784E+05 5.47338E+04 1.25308E+00 1.16450E+05-2.76079E+00
 -1       248-5.24714E+00 4.77398E+05 1.15078E+05-1.56457E+01 2.34868E+05-3.26749E+00
 -1       249 2.61584E+00 5.25486E+05 1.64543E+05 6.18708E-06 2.94287E+05 2.37500E-06
 -1       250-2.95969E+00 2.44871E+05 5.47414E+04 3.59253E-06 1.16469E+05 1.77925E-06
 -1       251-1.24287E+01 3.60651E+05 6.11162E+04-2.95626E+01 1.48052E+05-9.22325E+00
 -1       252-1.52489E+01 3.60796E+05 6.11269E+04 4.39687E-06 1.48098E+05-5.49625E-07
 -1       253 3.43117E+00 4.17875E+05 8.78881E+04-1.49647E+00 1.92115E+05 2.01573E+00
 -1       254-6.25516E+00 1.86629E+05 2.87727E+04-1.93388E+01 7.30421E+04-5.25369E+00
 -1       255-1.38388E+01 3.60723E+05 6.11215E+04-2.15754E+01 1.48075E+05-6.81887E+00
 -1       256 2.48007E+00 4.17798E+05 8.78840E+04 6.57843E-06 1.92108E+05 4.09545E-07
 -1       257-7.32369E+00 1.86739E+05 2.87760E+04 2.96266E-06 7.30687E+04 5.79929E-07
 -1       258-1.45453E+01 2.40730E+05 3.14462E+04 3.64084E+01 8.62986E+04-1.79115E+00
 -1       259-3.87262E+00 2.40968E+05 3.14507E+04-8.10026E-07 8.62756E+04-3.35534E-06
 -1       260 9.44936E+00 3.00626E+05 4.60591E+04 3.16032E+01 1.18261E+05 7.37350E+00
 -1       261-1.66005E+01 1.27059E+05 1.43322E+04 2.65764E+01 4.20091E+04-5.63935E+00
 -1       262-9.20894E+00 2.40849E+05 3.14485E+04-3.18483E+01 8.62871E+04-1.88339E+00
 -1       263 1.33720E+01 3.00554E+05 4.60522E+04-9.36785E-07 1.18223E+05-1.55527E-07
 -1       264-1.19061E+01 1.27201E+05 1.43548E+04-1.03502E-07 4.20326E+04-1.24150E-06
 -1       265-4.48108E+01 1.23927E+05 1.25640E+04-2.66041E+02 3.85010E+04-4.20337E+01
 -1       266-8.16584E+01 1.24002E+05 1.26032E+04 1.52038E-06 3.87856E+04-1.21927E-07
 -1       267 3.27363E+00 1.83373E+05 2.19604E+04-6.89301E+01 6.39136E+04-5.82904E+00
 -1       268-8.17811E+00 6.84930E+04 5.54020E+03-1.85774E+02 1.87986E+04-1.51115E+01
 -1       269-6.32346E+01 1.23965E+05 1.25836E+04-3.69847E+01 3.86433E+04-3.00898E+01
 -1       270-9.80215E+00 1.83209E+05 2.19636E+04 4.34722E-06 6.39730E+04-2.21574E-06
 -1       271-2.46075E+01 6.86514E+04 5.49961E+03 1.53774E-06 1.88671E+04-3.57025E-07
 -1       272 1.10651E+02 2.78076E+04 3.72631E+02 1.14766E+03 6.36581E+03 5.89171E+01
 -1       273 2.41510E+02 2.53897E+04 2.43145E+02 5.13650E-06 4.81440E+03-2.78028E-07
 -1       274 5.01810E+01 6.62790E+04 8.02456E+03 3.38811E+02 2.35620E+04 4.97233E+01
 -1       275-4.06236E+01 1.15930E+04-1.54176E+03 7.58610E+02 2.49164E+02-2.87432E+01
 -1       276 1.76080E+02 2.65987E+04 3.07888E+02 4.93565E+02 5.59010E+03 8.39140E+01
 -1       277 9.71776E+01 6.63545E+04 7.97639E+03 3.44118E-07 2.32254E+04-1.08620E-06
 -1       278 2.15001E+01 9.60857E+03-1.39049E+03-1.93246E-06-4.04436E+02-1.81557E-06
 -1       279 1.72946E+02-8.14764E+04 2.42705E+06 9.15396E+01 4.42681E+04-1.12034E+02
 -1       280 2.10922E+00 1.66120E+05 1.85961E+06-4.51971E+00 5.98970E+05-8.33564E+00
 -1       281 1.72946E+02-8.15112E+04 2.42703E+06 7.56697E+01 4.42978E+04-1.01285E+02
 -1       282 2.13509E+00 1.66126E+05 1.85960E+06 1.24559E+00 5.98972E+05 9.79049E-01
 -1       283 1.22308E+02-6.73811E+04 1.19239E+06 6.54257E+01 2.67378E+04-7.21261E+01
 -1       284-9.71007E-01 5.56518E+04 2.15945E+06 1.50241E+00 3.25654E+05 4.60973E+00
 -1       285 3.57569E+00 7.58800E+04 9.10404E+05-3.84189E+00 3.08435E+05-7.86140E+00
 -1       286 1.91556E+00 4.43028E+05 1.19808E+06-6.57554E+00 7.48572E+05-6.02241E+00
 -1       287 1.93612E+00 4.43042E+05 1.19808E+06 2.57502E+00 7.48576E+05 7.53362E-01
 -1       288-1.07372E+00 3.07975E+05 1.51924E+06 3.03687E+00 6.72954E+05 3.62621E+00
 -1       289 3.09809E+00 2.22926E+05 5.84386E+05-5.93212E+00 3.77942E+05-6.08241E+00
 -1       290 1.02885E+00 6.05737E+05 7.05663E+05-6.44075E+00 6.62276E+05-3.23705E+00
 -1       291 1.03964E+00 6.05761E+05 7.05665E+05 4.33325E+00 6.62282E+05 9.04710E-01
 -1       292-7.91845E-01 5.24445E+05 9.46618E+05 3.51268E+00 7.01872E+05 2.27874E+00
 -1       293 2.34186E+00 3.06669E+05 3.42317E+05-6.28771E+00 3.32509E+05-3.74079E+00
 -1       294-3.85337E-01 6.35020E+05 3.94145E+05-4.82222E+00 5.04765E+05-5.15544E-01
 -1       295-3.30736E-01 6.35057E+05 3.94148E+05 6.90674E+00 5.04773E+05 1.44284E+00
 -1       296-1.97594E-01 6.18103E+05 5.48115E+05 2.84632E+00 5.80730E+05 8.43931E-01
 -1       297 1.19453E+00 3.22757E+05 1.90164E+05-5.39649E+00 2.52232E+05-1.36732E+00
 -1       298-2.81568E+00 5.77939E+05 2.14288E+05 4.83447E-01 3.53820E+05 2.29917E+00
 -1       299-2.89894E+00 5.77988E+05 2.14292E+05 1.04549E+01 3.53831E+05 2.53944E+00
 -1       300 6.18621E-01 6.03784E+05 3.03805E+05 1.87242E+00 4.28069E+05-4.21929E-01
 -1       301-4.69013E-01 2.94760E+05 1.02716E+05-1.63969E+00 1.76173E+05 8.84691E-01
 -1       302-5.70496E+00 4.77332E+05 1.15074E+05 9.87975E-01 2.34858E+05 3.92252E+00
 -1       303-5.24714E+00 4.77398E+05 1.15078E+05 1.56457E+01 2.34868E+05 3.26750E+00
 -1       304 2.24164E+00 5.25540E+05 1.64547E+05-2.53448E+00 2.94299E+05-1.96960E+00
 -1       305-3.39194E+00 2.44784E+05 5.47338E+04-1.25308E+00 1.16450E+05 2.76079E+00
 -1       306-1.24287E+01 3.60651E+05 6.11162E+04 2.95626E+01 1.48052E+05 9.22325E+00
 -1       307-1.38388E+01 3.60723E+05 6.11215E+04 2.15754E+01 1.48075E+05 6.81887E+00
 -1       308 3.43117E+00 4.17875E+05 8.78881E+04 1.49648E+00 1.92115E+05-2.01573E+00
 -1       309-6.25516E+00 1.86629E+05 2.87727E+04 1.93388E+01 7.30421E+04 5.25369E+00
 -1       310-1.45453E+01 2.40730E+05 3.14462E+04-3.64084E+01 8.62986E+04 1.79116E+00
 -1       311-9.20894E+00 2.40849E+05 3.14485E+04 3.18483E+01 8.62871E+04 1.88339E+00
 -1       312 9.44936E+00 3.00626E+05 4.60591E+04-3.16032E+01 1.18261E+05-7.37350E+00
 -1       313-1.66005E+01 1.27059E+05 1.43322E+04-2.65764E+01 4.20091E+04 5.63935E+00
 -1       314-4.48108E+01 1.23927E+05 1.25640E+04 2.66041E+02 3.85010E+04 4.20337E+01
 -1       315-6.32346E+01 1.23965E+05 1.25836E+04 3.69847E+01 3.86433E+04 3.00898E+01
 -1       316 3.27363E+00 1.83373E+05 2.19604E+04 6.89301E+01 6.39136E+04 5.82904E+00
 -1       317-8.17811E+00 6.84930E+04 5.54020E+03 1.85774E+02 1.87986E+04 1.51115E+01
 -1       318 1.10651E+02 2.78076E+04 3.72631E+02-1.14766E+03 6.36581E+03-5.89171E+01
 -1       319 1.76080E+02 2.65987E+04 3.07888E+02-4.93565E+02 5.59010E+03-8.39140E+01
 -1       320 5.01810E+01 6.62790E+04 8.02456E+03-3.38811E+02 2.35620E+04-4.97233E+01
 -1       321-4.06236E+01 1.15930E+04-1.54176E+03-7.58610E+02 2.49164E+02 2.87432E+01
 -3
    1PSTEP                        23          12           1          
  100CL  112 6.25000E-01         321                     0   12           1
 -4  DISP        4    1
 -5  D1          1    2    1    0
 -5  D2          1    2    2    0
 -5  D3          1    2    3    0
 -5  ALL         1    2    0    0    1ALL
 -1         1 0.00000E+00 0.00000E+00 0.00000E+00
 -1         2 0.00000E+00 0.00000E+00 0.00000E+00
 -1         3-8.74948E-08 1.61166E-01-1.75233E-02
 -1         4-2.12276E-07 1.57450E-01-4.05090E-02
 -1         5 0.00000E+00 0.00000E+00 0.00000E+00
 -1         6 0.00000E+00 0.00000E+00 0.00000E+00
 -1         7-1.11719E-13 1.61166E-01-1.75232E-02
 -1         8-9.89638E-14 1.57450E-01-4.05089E-02
 -1         9 0.00000E+00 0.00000E+00 0.00000E+00
 -1        10 1.95388E-08 4.17331E-02-2.40906E-03
 -1        11-1.49887E-07 1.59307E-01-2.90117E-02
 -1        12 5.14489E-08 4.07305E-02-1.45042E-02
 -1        13 0.00000E+00 0.00000E+00 0.00000E+00
 -1        14 0.00000E+00 0.00000E+00 0.00000E+00
 -1        15-4.37485E-08 1.61166E-01-1.75232E-02
 -1        16-1.06139E-07 1.57450E-01-4.05090E-02
 -1        17 0.00000E+00 0.00000E+00 0.00000E+00
 -1        18-2.83036E-14 4.17331E-02-2.40907E-03
 -1        19-1.05302E-13 1.59307E-01-2.90117E-02
 -1        20-2.22527E-14 4.07306E-02-1.45042E-02
 -1        21-1.92073E-07 5.94047E-01-1.19256E-01
 -1        22-4.37295E-07 5.82160E-01-1.59311E-01
 -1        23-4.08374E-13 5.94047E-01-1.19256E-01
 -1        24-3.84208E-13 5.82160E-01-1.59311E-01
 -1        25 6.79490E-08 3.48757E-01-5.45087E-02
 -1        26-3.14675E-07 5.88104E-01-1.39281E-01
 -1        27 1.60827E-07 3.41391E-01-8.67136E-02
 -1        28-9.60375E-08 5.94047E-01-1.19256E-01
 -1        29-2.18646E-07 5.82160E-01-1.59311E-01
 -1        30-2.41071E-13 3.48757E-01-5.45088E-02
 -1        31-3.96161E-13 5.88104E-01-1.39281E-01
 -1        32-2.21911E-13 3.41391E-01-8.67137E-02
 -1        33-3.11008E-07 1.22123E+00-3.42668E-01
 -1        34-6.74761E-07 1.19991E+00-3.94468E-01
 -1        35-8.20136E-13 1.22123E+00-3.42667E-01
 -1        36-7.87474E-13 1.19991E+00-3.94468E-01
 -1        37 1.24112E-07 8.87795E-01-2.14956E-01
 -1        38-4.92891E-07 1.21057E+00-3.68565E-01
 -1        39 2.76483E-07 8.71340E-01-2.61498E-01
 -1        40-1.55502E-07 1.22123E+00-3.42668E-01
 -1        41-3.37378E-07 1.19991E+00-3.94468E-01
 -1        42-6.03859E-13 8.87795E-01-2.14956E-01
 -1        43-8.04038E-13 1.21057E+00-3.68565E-01
 -1        44-5.75292E-13 8.71340E-01-2.61498E-01
 -1        45-4.42032E-07 1.97892E+00-6.91666E-01
 -1        46-9.24315E-07 1.94870E+00-7.51169E-01
 -1        47-1.28154E-12 1.97892E+00-6.91666E-01
 -1        48-1.23730E-12 1.94869E+00-7.51169E-01
 -1        49 1.86898E-07 1.58707E+00-5.02046E-01
 -1        50-6.83106E-07 1.96381E+00-7.21416E-01
 -1        51 3.98294E-07 1.56128E+00-5.58195E-01
 -1        52-2.21014E-07 1.97892E+00-6.91666E-01
 -1        53-4.62158E-07 1.94870E+00-7.51169E-01
 -1        54-1.04896E-12 1.58707E+00-5.02046E-01
 -1        55-1.25916E-12 1.96381E+00-7.21416E-01
 -1        56-1.01068E-12 1.56128E+00-5.58195E-01
 -1        57-5.82497E-07 2.82086E+00-1.15316E+00
 -1        58-1.18357E-06 2.78303E+00-1.21756E+00
 -1        59-1.75470E-12 2.82086E+00-1.15316E+00
 -1        60-1.70874E-12 2.78303E+00-1.21756E+00
 -1        61 2.55151E-07 2.39164E+00-9.09508E-01
 -1        62-8.83197E-07 2.80195E+00-1.18536E+00
 -1        63 5.26003E-07 2.35750E+00-9.71846E-01
 -1        64-2.91239E-07 2.82086E+00-1.15316E+00
 -1        65-5.91777E-07 2.78303E+00-1.21756E+00
 -1        66-1.51604E-12 2.39164E+00-9.09508E-01
 -1        67-1.73157E-12 2.80195E+00-1.18536E+00
 -1        68-1.47410E-12 2.35750E+00-9.71846E-01
 -1        69-7.28268E-07 3.71574E+00-1.70748E+00
 -1        70-1.45055E-06 3.67185E+00-1.77493E+00
 -1        71-2.22424E-12 3.71574E+00-1.70748E+00
 -1        72-2.18523E-12 3.67185E+00-1.77493E+00
 -1        73 3.27401E-07 3.26318E+00-1.42003E+00
 -1        74-1.08874E-06 3.69380E+00-1.74120E+00
 -1        75 6.57615E-07 3.22217E+00-1.48625E+00
 -1        76-3.64139E-07 3.71574E+00-1.70748E+00
 -1        77-7.25303E-07 3.67185E+00-1.77493E+00
 -1        78-1.98709E-12 3.26318E+00-1.42003E+00
 -1        79-2.20400E-12 3.69380E+00-1.74120E+00
 -1        80-1.94416E-12 3.22217E+00-1.48625E+00
 -1        81-8.73315E-07 4.64315E+00-2.33369E+00
 -1        82-1.71174E-06 4.59472E+00-2.40299E+00
 -1        83-2.70260E-12 4.64315E+00-2.33369E+00
 -1        84-2.67166E-12 4.59472E+00-2.40299E+00
 -1        85 4.00888E-07 4.17635E+00-2.01287E+00
 -1        86-1.29476E-06 4.61894E+00-2.36834E+00
 -1        87 7.92722E-07 4.13002E+00-2.08147E+00
 -1        88-4.36608E-07 4.64315E+00-2.33369E+00
 -1        89-8.55742E-07 4.59472E+00-2.40299E+00
 -1        90-2.47174E-12 4.17635E+00-2.01287E+00
 -1        91-2.68635E-12 4.61894E+00-2.36834E+00
 -1        92-2.44442E-12 4.13002E+00-2.08147E+00
 -1        93-1.00690E-06 5.58996E+00-3.01184E+00
 -1        94-1.97906E-06 5.53840E+00-3.08221E+00
 -1        95-3.13873E-12 5.58996E+00-3.01184E+00
 -1        96-3.11869E-12 5.53840E+00-3.08221E+00
 -1        97 4.72706E-07 5.11477E+00-2.66745E+00
 -1        98-1.48475E-06 5.56418E+00-3.04703E+00
 -1        99 9.19565E-07 5.06460E+00-2.73747E+00
 -1       100-5.03542E-07 5.58996E+00-3.01184E+00
 -1       101-9.90035E-07 5.53840E+00-3.08221E+00
 -1       102-2.92167E-12 5.11477E+00-2.66745E+00
 -1       103-3.12788E-12 5.56418E+00-3.04703E+00
 -1       104-2.89889E-12 5.06460E+00-2.73747E+00
 -1       105-1.11657E-06 6.54756E+00-3.72352E+00
 -1       106-2.15707E-06 6.49420E+00-3.79443E+00
 -1       107-3.55360E-12 6.54756E+00-3.72352E+00
 -1       108-3.53117E-12 6.49419E+00-3.79443E+00
 -1       109 5.33633E-07 6.06786E+00-3.36456E+00
 -1       110-1.66692E-06 6.52088E+00-3.75897E+00
 -1       111 1.05767E-06 6.01520E+00-3.43538E+00
 -1       112-5.57996E-07 6.54756E+00-3.72352E+00
 -1       113-1.07652E-06 6.49419E+00-3.79443E+00
 -1       114-3.34206E-12 6.06786E+00-3.36456E+00
 -1       115-3.54300E-12 6.52088E+00-3.75897E+00
 -1       116-3.32156E-12 6.01520E+00-3.43538E+00
 -1       117-1.17680E-06 7.50998E+00-4.45159E+00
 -1       118-2.51506E-06 7.45604E+00-4.52267E+00
 -1       119-3.93345E-12 7.50998E+00-4.45159E+00
 -1       120-3.90597E-12 7.45603E+00-4.52267E+00
 -1       121 5.85721E-07 7.02853E+00-4.08651E+00
 -1       122-1.73266E-06 7.48301E+00-4.48713E+00
 -1       123 1.10452E-06 6.97465E+00-4.15769E+00
 -1       124-5.88878E-07 7.50998E+00-4.45159E+00
 -1       125-1.26548E-06 7.45603E+00-4.52267E+00
 -1       126-3.73555E-12 7.02853E+00-4.08651E+00
 -1       127-3.92178E-12 7.48300E+00-4.48713E+00
 -1       128-3.70799E-12 6.97466E+00-4.15769E+00
 -1       129 0.00000E+00 0.00000E+00 0.00000E+00
 -1       130 0.00000E+00 0.00000E+00 0.00000E+00
 -1       131 8.74946E-08 1.61166E-01-1.75233E-02
 -1       132 2.12276E-07 1.57450E-01-4.05090E-02
 -1       133 0.00000E+00 0.00000E+00 0.00000E+00
 -1       134 0.00000E+00 0.00000E+00 0.00000E+00
 -1       135 4.37483E-08 1.61166E-01-1.75232E-02
 -1       136 1.06138E-07 1.57450E-01-4.05090E-02
 -1       137 0.00000E+00 0.00000E+00 0.00000E+00
 -1       138-1.95389E-08 4.17331E-02-2.40906E-03
 -1       139 1.49886E-07 1.59307E-01-2.90117E-02
 -1       140-5.14490E-08 4.07305E-02-1.45042E-02
 -1       141 1.92072E-07 5.94047E-01-1.19256E-01
 -1       142 4.37294E-07 5.82160E-01-1.59311E-01
 -1       143 9.60367E-08 5.94047E-01-1.19256E-01
 -1       144 2.18645E-07 5.82160E-01-1.59311E-01
 -1       145-6.79495E-08 3.48757E-01-5.45087E-02
 -1       146 3.14674E-07 5.88104E-01-1.39281E-01
 -1       147-1.60828E-07 3.41391E-01-8.67136E-02
 -1       148 3.11006E-07 1.22123E+00-3.42668E-01
 -1       149 6.74760E-07 1.19991E+00-3.94468E-01
 -1       150 1.55501E-07 1.22123E+00-3.42668E-01
 -1       151 3.37377E-07 1.19991E+00-3.94468E-01
 -1       152-1.24113E-07 8.87795E-01-2.14956E-01
 -1       153 4.92889E-07 1.21057E+00-3.68565E-01
 -1       154-2.76484E-07 8.71340E-01-2.61498E-01
 -1       155 4.42029E-07 1.97892E+00-6.91666E-01
 -1       156 9.24313E-07 1.94870E+00-7.51169E-01
 -1       157 2.21011E-07 1.97892E+00-6.91666E-01
 -1       158 4.62155E-07 1.94870E+00-7.51169E-01
 -1       159-1.86900E-07 1.58707E+00-5.02046E-01
 -1       160 6.83103E-07 1.96381E+00-7.21416E-01
 -1       161-3.98296E-07 1.56128E+00-5.58195E-01
 -1       162 5.82493E-07 2.82086E+00-1.15316E+00
 -1       163 1.18357E-06 2.78303E+00-1.21756E+00
 -1       164 2.91235E-07 2.82086E+00-1.15316E+00
 -1       165 5.91774E-07 2.78303E+00-1.21756E+00
 -1       166-2.55154E-07 2.39164E+00-9.09508E-01
 -1       167 8.83193E-07 2.80195E+00-1.18536E+00
 -1       168-5.26005E-07 2.35750E+00-9.71846E-01
 -1       169 7.28264E-07 3.71574E+00-1.70748E+00
 -1       170 1.45054E-06 3.67185E+00-1.77493E+00
 -1       171 3.64134E-07 3.71574E+00-1.70748E+00
 -1       172 7.25299E-07 3.67185E+00-1.77493E+00
 -1       173-3.27405E-07 3.26318E+00-1.42003E+00
 -1       174 1.08874E-06 3.69380E+00-1.74120E+00
 -1       175-6.57619E-07 3.22217E+00-1.48625E+00
 -1       176 8.73309E-07 4.64315E+00-2.33369E+00
 -1       177 1.71174E-06 4.59472E+00-2.40299E+00
 -1       178 4.36603E-07 4.64315E+00-2.33369E+00
 -1       179 8.55736E-07 4.59472E+00-2.40299E+00
 -1       180-4.00893E-07 4.17635E+00-2.01287E+00
 -1       181 1.29475E-06 4.61894E+00-2.36834E+00
 -1       182-7.92727E-07 4.13002E+00-2.08147E+00
 -1       183 1.00689E-06 5.58996E+00-3.01184E+00
 -1       184 1.97906E-06 5.53840E+00-3.08221E+00
 -1       185 5.03536E-07 5.58996E+00-3.01184E+00
 -1       186 9.90029E-07 5.53840E+00-3.08221E+00
 -1       187-4.72711E-07 5.11477E+00-2.66745E+00
 -1       188 1.48474E-06 5.56418E+00-3.04703E+00
 -1       189-9.19571E-07 5.06460E+00-2.73747E+00
 -1       190 1.11656E-06 6.54756E+00-3.72352E+00
 -1       191 2.15706E-06 6.49420E+00-3.79443E+00
 -1       192 5.57989E-07 6.54756E+00-3.72352E+00
 -1       193 1.07652E-06 6.49419E+00-3.79443E+00
 -1       194-5.33640E-07 6.06786E+00-3.36456E+00
 -1       195 1.66691E-06 6.52088E+00-3.75897E+00
 -1       196-1.05768E-06 6.01520E+00-3.43538E+00
 -1       197 1.17679E-06 7.50998E+00-4.45159E+00
 -1       198 2.51506E-06 7.45604E+00-4.52267E+00
 -1       199 5.88870E-07 7.50998E+00-4.45159E+00
 -1       200 1.26547E-06 7.45603E+00-4.52267E+00
 -1       201-5.85729E-07 7.02853E+00-4.08651E+00
 -1       202 1.73265E-06 7.48301E+00-4.48713E+00
 -1       203-1.10453E-06 6.97465E+00-4.15769E+00
 -1       204 0.00000E+00 0.00000E+00 0.00000E+00
 -1       205-2.06507E-07 1.64865E-01 5.44550E-03
 -1       206 0.00000E+00 0.00000E+00 0.00000E+00
 -1       207-1.23699E-13 1.64864E-01 5.44568E-03
 -1       208 0.00000E+00 0.00000E+00 0.00000E+00
 -1       209 5.10083E-08 4.27404E-02 9.69422E-03
 -1       210-1.47000E-07 1.63017E-01-6.04313E-03
 -1       211 0.00000E+00 0.00000E+00 0.00000E+00
 -1       212-1.03250E-07 1.64864E-01 5.44559E-03
 -1       213 0.00000E+00 0.00000E+00 0.00000E+00
 -1       214-3.45382E-14 4.27405E-02 9.69417E-03
 -1       215-1.17691E-13 1.63017E-01-6.04302E-03
 -1       216-4.18659E-07 6.05909E-01-7.92089E-02
 -1       217-4.31368E-13 6.05908E-01-7.92086E-02
 -1       218 1.55511E-07 3.56134E-01-2.22965E-02
 -1       219-3.05368E-07 5.99977E-01-9.92351E-02
 -1       220-2.09327E-07 6.05908E-01-7.92088E-02
 -1       221-2.60670E-13 3.56135E-01-2.22966E-02
 -1       222-4.19706E-13 5.99977E-01-9.92349E-02
 -1       223-6.36440E-07 1.24252E+00-2.90860E-01
 -1       224-8.50719E-13 1.24252E+00-2.90860E-01
 -1       225 2.63153E-07 9.04263E-01-1.68414E-01
 -1       226-4.73698E-07 1.23187E+00-3.16766E-01
 -1       227-3.18219E-07 1.24252E+00-2.90860E-01
 -1       228-6.32834E-13 9.04263E-01-1.68414E-01
 -1       229-8.35733E-13 1.23187E+00-3.16766E-01
 -1       230-8.57211E-07 2.00914E+00-6.32142E-01
 -1       231-1.32213E-12 2.00914E+00-6.32141E-01
 -1       232 3.73281E-07 1.61287E+00-4.45904E-01
 -1       233-6.49675E-07 1.99403E+00-6.61906E-01
 -1       234-4.28599E-07 2.00914E+00-6.32142E-01
 -1       235-1.08761E-12 1.61287E+00-4.45905E-01
 -1       236-1.30143E-12 1.99403E+00-6.61905E-01
 -1       237-1.07704E-06 2.85870E+00-1.08873E+00
 -1       238-1.79401E-12 2.85870E+00-1.08873E+00
 -1       239 4.83939E-07 2.42577E+00-8.47184E-01
 -1       240-8.29542E-07 2.83978E+00-1.12095E+00
 -1       241-5.38531E-07 2.85870E+00-1.08873E+00
 -1       242-1.56096E-12 2.42578E+00-8.47184E-01
 -1       243-1.77429E-12 2.83978E+00-1.12095E+00
 -1       244-1.28667E-06 3.75966E+00-1.64000E+00
 -1       245-2.25529E-12 3.75966E+00-1.64000E+00
 -1       246 5.93099E-07 3.30419E+00-1.35382E+00
 -1       247-1.00820E-06 3.73770E+00-1.67374E+00
 -1       248-6.43278E-07 3.75966E+00-1.64000E+00
 -1       249-2.03406E-12 3.30419E+00-1.35382E+00
 -1       250-2.23946E-12 3.73770E+00-1.67374E+00
 -1       251-1.48190E-06 4.69163E+00-2.26436E+00
 -1       252-2.72704E-12 4.69163E+00-2.26436E+00
 -1       253 6.93657E-07 4.22267E+00-1.94428E+00
 -1       254-1.17505E-06 4.66739E+00-2.29903E+00
 -1       255-7.41128E-07 4.69163E+00-2.26436E+00
 -1       256-2.50243E-12 4.22267E+00-1.94428E+00
 -1       257-2.71338E-12 4.66739E+00-2.29903E+00
 -1       258-1.62247E-06 5.64158E+00-2.94143E+00
 -1       259-3.15851E-12 5.64157E+00-2.94143E+00
 -1       260 7.88333E-07 5.16492E+00-2.59744E+00
 -1       261-1.32363E-06 5.61577E+00-2.97664E+00
 -1       262-8.10569E-07 5.64158E+00-2.94143E+00
 -1       263-2.94607E-12 5.16492E+00-2.59744E+00
 -1       264-3.14785E-12 5.61577E+00-2.97664E+00
 -1       265-1.76576E-06 6.60103E+00-3.65254E+00
 -1       266-3.57188E-12 6.60103E+00-3.65254E+00
 -1       267 8.33925E-07 6.12047E+00-3.29377E+00
 -1       268-1.40929E-06 6.57430E+00-3.68803E+00
 -1       269-8.85155E-07 6.60103E+00-3.65254E+00
 -1       270-3.36665E-12 6.12047E+00-3.29377E+00
 -1       271-3.56386E-12 6.57429E+00-3.68803E+00
 -1       272-1.58039E-06 7.56407E+00-4.38044E+00
 -1       273-3.96051E-12 7.56407E+00-4.38044E+00
 -1       274 9.34956E-07 7.08234E+00-4.01537E+00
 -1       275-1.49410E-06 7.53703E+00-4.41602E+00
 -1       276-7.82195E-07 7.56407E+00-4.38044E+00
 -1       277-3.76582E-12 7.08235E+00-4.01537E+00
 -1       278-3.94750E-12 7.53702E+00-4.41602E+00
 -1       279 0.00000E+00 0.00000E+00 0.00000E+00
 -1       280 2.06507E-07 1.64865E-01 5.44550E-03
 -1       281 0.00000E+00 0.00000E+00 0.00000E+00
 -1       282 1.03249E-07 1.64864E-01 5.44559E-03
 -1       283 0.00000E+00 0.00000E+00 0.00000E+00
 -1       284-5.10083E-08 4.27404E-02 9.69422E-03
 -1       285 1.47000E-07 1.63017E-01-6.04313E-03
 -1       286 4.18659E-07 6.05909E-01-7.92089E-02
 -1       287 2.09326E-07 6.05908E-01-7.92088E-02
 -1       288-1.55511E-07 3.56134E-01-2.22965E-02
 -1       289 3.05367E-07 5.99977E-01-9.92351E-02
 -1       290 6.36438E-07 1.24252E+00-2.90860E-01
 -1       291 3.18217E-07 1.24252E+00-2.90860E-01
 -1       292-2.63154E-07 9.04263E-01-1.68414E-01
 -1       293 4.73696E-07 1.23187E+00-3.16766E-01
 -1       294 8.57209E-07 2.00914E+00-6.32142E-01
 -1       295 4.28597E-07 2.00914E+00-6.32142E-01
 -1       296-3.73284E-07 1.61287E+00-4.45904E-01
 -1       297 6.49672E-07 1.99403E+00-6.61906E-01
 -1       298 1.07703E-06 2.85870E+00-1.08873E+00
 -1       299 5.38527E-07 2.85870E+00-1.08873E+00
 -1       300-4.83942E-07 2.42577E+00-8.47184E-01
 -1       301 8.29539E-07 2.83978E+00-1.12095E+00
 -1       302 1.28667E-06 3.75966E+00-1.64000E+00
 -1       303 6.43273E-07 3.75966E+00-1.64000E+00
 -1       304-5.93103E-07 3.30419E+00-1.35382E+00
 -1       305 1.00819E-06 3.73770E+00-1.67374E+00
 -1       306 1.48189E-06 4.69163E+00-2.26436E+00
 -1       307 7.41122E-07 4.69163E+00-2.26436E+00
 -1       308-6.93662E-07 4.22267E+00-1.94428E+00
 -1       309 1.17505E-06 4.66739E+00-2.29903E+00
 -1       310 1.62246E-06 5.64158E+00-2.94143E+00
 -1       311 8.10563E-07 5.64158E+00-2.94143E+00
 -1       312-7.88339E-07 5.16492E+00-2.59744E+00
 -1       313 1.32362E-06 5.61577E+00-2.97664E+00
 -1       314 1.76575E-06 6.60103E+00-3.65254E+00
 -1       315 8.85148E-07 6.60103E+00-3.65254E+00
 -1       316-8.33932E-07 6.12047E+00-3.29377E+00
 -1       317 1.40928E-06 6.57430E+00-3.68803E+00
 -1       318 1.58038E-06 7.56407E+00-4.38044E+00
 -1       319 7.82187E-07 7.56407E+00-4.38044E+00
 -1       320-9.34964E-07 7.08234E+00-4.01537E+00
 -1       321 1.49409E-06 7.53703E+00-4.41602E+00
 -3
    1PSTEP                        24          12           1          
  100CL  112 6.25000E-01         321                     0   12           1
 -4  STRESS      6    1
 -5  SXX         1    4    1    1
 -5  SYY         1    4    2    2
 -5  SZZ         1    4    3    3
 -5  SXY         1    4    1    2
 -5  SYZ         1    4    2    3
 -5  SZX         1    4    3    1
 -1         1 2.14856E+02-1.67448E+04-2.51073E+06-2.75537E+01-1.79781E+04 3.63990E+01
 -1         2 8.44074E+01-5.57132E+04-4.86502E+04-7.63708E-01 1.42140E+04 3.09031E+01
 -1         3 5.70821E+00-1.63317E+04-4.36381E+04 2.14062E+00 1.85900E+04 5.23175E+00
 -1         4 4.02326E+00-1.83964E+05-1.89000E+06 5.12749E+00-6.45650E+05 8.69348E+00
 -1         5 2.14856E+02-1.66448E+04-2.51074E+06 7.24423E-08-1.79696E+04 2.83208E-07
 -1         6 8.44074E+01-5.57068E+04-4.86647E+04 1.61998E-07 1.42387E+04 8.21118E-08
 -1         7 5.69169E+00-1.63321E+04-4.36467E+04 8.52959E-08 1.85876E+04 5.60242E-09
 -1         8 4.01871E+00-1.83948E+05-1.89001E+06-1.98628E-07-6.45641E+05 1.00095E-06
 -1         9 1.49383E+02-3.32122E+04-1.27975E+06 6.69279E+00-1.91846E+02 3.14975E+01
 -1        10-3.09878E+00-2.08235E+04-4.35628E+04-3.35565E-01 1.21691E+04-2.47501E+00
 -1        11 4.88466E+00-1.00751E+05-9.66410E+05 2.64120E+00-3.14219E+05 5.25607E+00
 -1        12-2.05996E+00-8.67005E+04-2.21859E+06-1.43574E+00-3.47082E+05-4.57614E+00
 -1        13 2.14856E+02-1.66948E+04-2.51073E+06-5.07737E+01-1.79738E+04 2.89182E+01
 -1        14 8.44074E+01-5.57100E+04-4.86574E+04-1.81522E+00 1.42264E+04 2.68878E+01
 -1        15 5.69995E+00-1.63319E+04-4.36424E+04-6.67323E-01 1.85888E+04 1.25340E+00
 -1        16 4.02098E+00-1.83956E+05-1.89000E+06 9.63292E-02-6.45645E+05 1.51674E+00
 -1        17 1.49383E+02-3.31155E+04-1.27976E+06 8.34336E-08-1.89771E+02 1.89653E-07
 -1        18-3.10705E+00-2.08226E+04-4.35566E+04 5.84232E-08 1.21708E+04-1.37192E-08
 -1        19 4.87402E+00-1.00743E+05-9.66417E+05 1.88394E-08-3.14216E+05 4.55370E-07
 -1        20-2.06227E+00-8.67039E+04-2.21858E+06 9.99349E-08-3.47087E+05 6.74441E-07
 -1        21 4.79588E+00 3.27831E+03-3.18366E+04 4.56696E+00 7.18458E+03 4.69737E+00
 -1        22 3.94242E+00-4.96728E+05-1.17447E+06 8.37089E+00-7.79980E+05 6.67824E+00
 -1        23 4.78398E+00 3.28301E+03-3.18394E+04-1.36163E-07 7.18451E+03 6.04465E-08
 -1        24 3.97591E+00-4.96694E+05-1.17447E+06 6.03037E-07-7.79971E+05 4.74955E-07
 -1        25-2.56309E+00-1.02330E+04-3.56633E+04-1.77854E+00 1.11868E+04-2.62457E+00
 -1        26 4.38752E+00-2.47338E+05-6.02742E+05 5.44145E+00-3.86386E+05 4.61795E+00
 -1        27-1.98386E+00-3.54239E+05-1.51367E+06-3.61497E+00-7.16054E+05-3.98532E+00
 -1        28 4.78993E+00 3.28066E+03-3.18380E+04-3.85641E-01 7.18455E+03 1.39211E+00
 -1        29 3.95917E+00-4.96711E+05-1.17447E+06-8.19406E-01-7.79976E+05 1.02432E+00
 -1        30-2.57731E+00-1.02337E+04-3.56608E+04-1.72506E-07 1.11876E+04 3.32278E-08
 -1        31 4.39823E+00-2.47317E+05-6.02745E+05 1.66736E-07-3.86383E+05 2.32680E-07
 -1        32-1.96938E+00-3.54252E+05-1.51367E+06 3.34148E-07-7.16058E+05 7.76544E-07
 -1        33 4.03701E+00 8.78729E+03-2.23848E+04 5.58640E+00 2.49090E+03 3.18131E+00
 -1        34 3.81472E+00-6.55911E+05-6.58577E+05 8.99148E+00-6.67421E+05 3.86375E+00
 -1        35 4.06901E+00 8.80050E+03-2.23846E+04-5.93128E-07 2.49342E+03 1.77824E-07
 -1        36 3.85830E+00-6.55857E+05-6.58575E+05 1.08421E-06-6.67412E+05 1.40212E-07
 -1        37-2.19130E+00 2.01925E+03-2.58827E+04-2.70122E+00 4.64673E+03-1.99467E+00
 -1        38 3.92692E+00-3.23832E+05-3.40402E+05 6.34675E+00-3.32203E+05 2.91040E+00
 -1        39-1.94792E+00-5.83984E+05-9.05279E+05-4.60301E+00-7.17471E+05-2.60880E+00
 -1        40 4.05301E+00 8.79389E+03-2.23847E+04-8.23925E-01 2.49216E+03 9.42919E-01
 -1        41 3.83651E+00-6.55884E+05-6.58576E+05-2.68002E+00-6.67416E+05 2.46481E-01
 -1        42-2.18126E+00 2.01508E+03-2.58822E+04-9.22987E-08 4.64599E+03 3.48614E-08
 -1        43 3.96470E+00-3.23797E+05-3.40402E+05-6.82239E-08-3.32200E+05 2.08364E-07
 -1        44-1.90938E+00-5.84006E+05-9.05280E+05 3.19180E-07-7.17475E+05 2.42016E-07
 -1        45 3.15384E+00 1.20226E+04-1.43488E+04 5.46199E+00-7.46886E+02 1.48122E+00
 -1        46 3.13572E+00-6.68664E+05-3.48343E+05 7.96127E+00-4.88884E+05 1.43085E+00
 -1        47 3.19959E+00 1.20471E+04-1.43474E+04-2.98714E-07-7.42449E+02 4.74968E-07
 -1        48 3.14181E+00-6.68588E+05-3.48340E+05 4.55901E-07-4.88874E+05 1.93579E-07
 -1        49-1.80955E+00 7.02664E+03-1.84127E+04-2.78591E+00 1.50679E+03-1.14593E+00
 -1        50 3.19434E+00-3.28347E+05-1.81461E+05 5.89553E+00-2.44602E+05 1.19937E+00
 -1        51-1.83041E+00-6.63793E+05-4.99540E+05-4.19977E+00-5.70601E+05-1.23123E+00
 -1        52 3.17671E+00 1.20348E+04-1.43481E+04-2.06543E+00-7.44667E+02 2.54066E-01
 -1        53 3.13877E+00-6.68626E+05-3.48341E+05-5.65860E+00-4.88879E+05-4.59301E-01
 -1        54-1.77067E+00 7.01737E+03-1.84131E+04-6.11781E-07 1.50495E+03 2.61122E-07
 -1        55 3.22024E+00-3.28296E+05-1.81460E+05 7.53830E-07-2.44598E+05 1.63663E-07
 -1        56-1.80560E+00-6.63826E+05-4.99542E+05 1.14005E-06-5.70606E+05 1.73053E-07
 -1        57 1.77034E+00 1.30726E+04-8.88233E+03 3.03565E+00-1.92622E+03 1.14746E-01
 -1        58 2.14410E+00-5.91927E+05-1.78133E+05 2.83985E+00-3.29445E+05-5.23355E-01
 -1        59 1.93922E+00 1.31110E+04-8.88046E+03 2.96136E-06-1.92062E+03-3.27176E-07
 -1        60 2.31632E+00-5.91823E+05-1.78130E+05 7.42058E-07-3.29436E+05-8.20342E-07
 -1        61-1.32418E+00 9.88325E+03-1.24706E+04-2.56087E+00-4.66709E+02-3.12381E-01
 -1        62 1.83605E+00-2.89375E+05-9.36494E+04 2.24874E+00-1.65567E+05-1.91646E-01
 -1        63-1.29514E+00-6.28473E+05-2.63756E+05-3.55879E+00-4.03469E+05-2.11205E-01
 -1        64 1.85478E+00 1.30918E+04-8.88139E+03-4.27269E+00-1.92342E+03-2.58544E-01
 -1        65 2.23021E+00-5.91875E+05-1.78132E+05-9.67480E+00-3.29440E+05-1.19553E+00
 -1        66-1.21689E+00 9.86775E+03-1.24714E+04 1.24683E-06-4.69316E+02 3.15000E-07
 -1        67 2.00670E+00-2.89304E+05-9.36477E+04 8.60744E-07-1.65564E+05-9.35344E-07
 -1        68-1.20590E+00-6.28517E+05-2.63758E+05 1.37675E-06-4.03474E+05-3.89435E-07
 -1        69-2.34284E-01 1.35389E+04-5.26946E+03 2.85016E+00-2.26083E+03-1.44842E+00
 -1        70-1.09098E+00-4.76238E+05-8.94765E+04 4.11371E+00-2.10212E+05-8.78471E-01
 -1        71-2.88248E-01 1.35935E+04-5.26731E+03 5.37235E-07-2.25340E+03-8.88076E-07
 -1        72-1.55402E+00-4.76105E+05-8.94738E+04 2.54364E-06-2.10198E+05 1.55874E-06
 -1        73-4.05510E-01 1.12290E+04-8.39065E+03-3.65862E-01-1.30377E+03 2.25958E-01
 -1        74-1.92877E-01-2.31333E+05-4.74360E+04 2.94427E+00-1.06132E+05-8.06122E-01
 -1        75-7.13917E-01-5.31149E+05-1.36203E+05 9.16310E-01-2.66341E+05 6.72505E-01
 -1        76-2.61266E-01 1.35662E+04-5.26838E+03-7.07913E+00-2.25712E+03-1.39761E+00
 -1        77-1.32250E+00-4.76171E+05-8.94751E+04-1.53197E+01-2.10205E+05-1.16779E+00
 -1        78-3.47984E-01 1.12057E+04-8.39162E+03 1.76460E-06-1.30674E+03-8.30225E-07
 -1        79-4.51508E-01-2.31238E+05-4.74358E+04 1.94169E-06-1.06128E+05 2.91983E-07
 -1        80-8.59604E-01-5.31209E+05-1.36204E+05 8.79430E-07-2.66345E+05 7.35858E-07
 -1        81-3.81557E+00 1.38448E+04-3.09932E+03-1.17349E+01-2.16896E+03-1.00808E+00
 -1        82-1.74025E+00-3.50326E+05-4.40621E+04-2.78575E+01-1.27398E+05-3.92609E+00
 -1        83-3.01357E+00 1.39213E+04-3.09706E+03 2.50086E-06-2.16179E+03 1.70075E-06
 -1        84 3.72615E-01-3.50142E+05-4.40608E+04-1.48180E-06-1.27398E+05-3.56486E-06
 -1        85 5.63129E-01 1.19047E+04-5.67878E+03-2.29340E+00-1.65966E+03 1.21359E+00
 -1        86-4.36714E+00-1.68230E+05-2.35893E+04-2.04358E+01-6.47010E+04-2.05060E+00
 -1        87 1.50862E+00-4.10210E+05-6.96149E+04-4.78731E+00-1.66939E+05 2.14901E-01
 -1        88-3.41457E+00 1.38830E+04-3.09819E+03-1.18464E+01-2.16537E+03-1.41174E-01
 -1        89-6.83816E-01-3.50234E+05-4.40614E+04-2.13505E+01-1.27398E+05-3.33905E+00
 -1        90 9.36936E-01 1.18729E+04-5.67994E+03 6.14753E-08-1.66409E+03 1.55665E-07
 -1        91-2.90932E+00-1.68104E+05-2.35841E+04 9.00187E-07-6.46967E+04-1.49202E-06
 -1        92 2.33446E+00-4.10283E+05-6.96163E+04-1.50438E-06-1.66950E+05-1.59778E-06
 -1        93-8.06540E+00 1.41421E+04-1.85488E+03 1.91587E+01-1.80444E+03-7.01995E+00
 -1        94-1.61145E+01-2.26018E+05-2.09657E+04 5.51017E+01-7.15366E+04 5.98384E+00
 -1        95-9.54748E+00 1.42378E+04-1.85024E+03-1.31287E-07-1.78596E+03-1.60892E-06
 -1        96-2.41639E+01-2.25826E+05-2.09635E+04 3.81056E-06-7.14707E+04 3.96111E-06
 -1        97 3.58389E+00 1.21354E+04-3.93308E+03 1.41255E+01-1.74767E+03-1.09223E-01
 -1        98-6.36189E+00-1.06159E+05-1.11788E+04 3.74026E+01-3.62578E+04 9.93674E-01
 -1        99 1.38735E+00-2.85075E+05-3.51261E+04 3.26543E+01-9.85856E+04 3.49581E+00
 -1       100-8.80644E+00 1.41899E+04-1.85256E+03-1.50134E+01-1.79520E+03-7.53902E+00
 -1       101-2.01392E+01-2.25922E+05-2.09646E+04-3.27357E+01-7.15037E+04 2.71078E+00
 -1       102 3.24456E+00 1.20905E+04-3.93396E+03 2.66258E-06-1.75040E+03 6.61301E-07
 -1       103-1.11282E+01-1.05997E+05-1.11932E+04 1.39377E-06-3.62469E+04 1.18270E-07
 -1       104-1.58404E+00-2.85186E+05-3.51269E+04 3.06863E-06-9.85748E+04-1.30609E-06
 -1       105-1.57531E+01 1.48856E+04-1.50113E+03-1.26808E+02-1.80938E+03 1.04147E+01
 -1       106 7.09058E+00-1.08680E+05-6.74948E+03-3.04604E+02-2.90148E+04-3.18482E+01
 -1       107-1.11266E+01 1.50292E+04-1.50707E+03 7.21470E-06-1.81565E+03-7.58926E-07
 -1       108 3.93474E+01-1.08298E+05-6.74091E+03-5.60745E-07-2.91688E+04-3.44163E-06
 -1       109 3.25324E+00 1.21942E+04-2.99171E+03-3.28459E+01-1.92880E+03 6.99500E+00
 -1       110-2.49871E+01-4.66364E+04-4.30839E+03-2.19074E+02-1.57857E+04-1.10093E+01
 -1       111 1.09637E+01-1.63981E+05-1.60264E+04-8.68086E+01-4.99350E+04-9.00254E+00
 -1       112-1.34398E+01 1.49574E+04-1.50410E+03-2.89246E+01-1.81252E+03 1.60970E+01
 -1       113 2.32190E+01-1.08489E+05-6.74520E+03-3.34825E+01-2.90918E+04-2.17581E+01
 -1       114 4.82305E+00 1.21427E+04-2.99628E+03 2.76857E-06-1.94431E+03-3.29649E-07
 -1       115-6.54426E+00-4.64310E+04-4.25084E+03 2.03104E-06-1.57780E+04-3.54120E-07
 -1       116 2.30788E+01-1.64065E+05-1.60260E+04-2.88258E-07-5.00161E+04 1.77320E-06
 -1       117-4.13693E+01-4.72294E+03-3.87502E+03 4.48718E+02-7.73545E+03-9.72441E+01
 -1       118-2.28111E+02 2.95267E+04 4.93201E+03 1.13296E+03 1.09048E+04 2.94273E+01
 -1       119-4.89981E+01-6.17407E+03-3.82248E+03-1.14879E-06-7.84915E+03 2.93464E-07
 -1       120-3.55237E+02 2.55902E+04 4.86785E+03 3.28716E-08 1.12252E+04 4.33743E-06
 -1       121 1.71081E+01 1.16864E+04-2.09164E+03 1.59777E+02-1.61486E+03-1.72986E+01
 -1       122-5.84833E+01 1.29497E+04 5.73278E+01 8.07506E+02 6.60549E+02-2.50875E+01
 -1       123-5.45090E+00-4.44602E+04-5.87723E+03 3.88188E+02-1.65991E+04 3.96192E+01
 -1       124-4.51837E+01-5.44851E+03-3.84875E+03 2.37806E+02-7.79230E+03-8.31921E+01
 -1       125-2.91674E+02 2.75585E+04 4.89993E+03 4.26375E+02 1.10650E+04 6.13687E+01
 -1       126 1.56088E+01 1.15951E+04-2.07794E+03 3.96087E-06-1.59404E+03-1.26331E-06
 -1       127-1.25863E+02 1.03951E+04-1.34272E+02 9.47501E-07 5.36449E+02 3.46410E-06
 -1       128-5.28942E+01-4.47597E+04-5.89503E+03 1.62541E-06-1.63551E+04 7.31227E-07
 -1       129 2.14856E+02-1.67448E+04-2.51073E+06 2.75537E+01-1.79781E+04-3.63990E+01
 -1       130 8.44074E+01-5.57132E+04-4.86502E+04 7.63708E-01 1.42140E+04-3.09031E+01
 -1       131 5.70821E+00-1.63317E+04-4.36381E+04-2.14062E+00 1.85900E+04-5.23175E+00
 -1       132 4.02326E+00-1.83964E+05-1.89000E+06-5.12749E+00-6.45650E+05-8.69348E+00
 -1       133 2.14856E+02-1.66948E+04-2.51073E+06 5.07737E+01-1.79738E+04-2.89182E+01
 -1       134 8.44074E+01-5.57100E+04-4.86574E+04 1.81522E+00 1.42264E+04-2.68878E+01
 -1       135 5.69995E+00-1.63319E+04-4.36424E+04 6.67323E-01 1.85888E+04-1.25340E+00
 -1       136 4.02098E+00-1.83956E+05-1.89000E+06-9.63290E-02-6.45645E+05-1.51674E+00
 -1       137 1.49383E+02-3.32122E+04-1.27975E+06-6.69279E+00-1.91846E+02-3.14975E+01
 -1       138-3.09878E+00-2.08235E+04-4.35628E+04 3.35564E-01 1.21691E+04 2.47501E+00
 -1       139 4.88466E+00-1.00751E+05-9.66410E+05-2.64120E+00-3.14219E+05-5.25607E+00
 -1       140-2.05996E+00-8.67005E+04-2.21859E+06 1.43574E+00-3.47082E+05 4.57614E+00
 -1       141 4.79588E+00 3.27831E+03-3.18366E+04-4.56696E+00 7.18458E+03-4.69737E+00
 -1       142 3.94242E+00-4.96728E+05-1.17447E+06-8.37089E+00-7.79980E+05-6.67824E+00
 -1       143 4.78993E+00 3.28066E+03-3.18380E+04 3.85641E-01 7.18455E+03-1.39211E+00
 -1       144 3.95917E+00-4.96711E+05-1.17447E+06 8.19407E-01-7.79976E+05-1.02432E+00
 -1       145-2.56309E+00-1.02330E+04-3.56633E+04 1.77854E+00 1.11868E+04 2.62457E+00
 -1       146 4.38752E+00-2.47338E+05-6.02742E+05-5.44145E+00-3.86386E+05-4.61795E+00
 -1       147-1.98386E+00-3.54239E+05-1.51367E+06 3.61497E+00-7.16054E+05 3.98533E+00
 -1       148 4.03701E+00 8.78729E+03-2.23848E+04-5.58640E+00 2.49090E+03-3.18131E+00
 -1       149 3.81472E+00-6.55911E+05-6.58577E+05-8.99148E+00-6.67421E+05-3.86374E+00
 -1       150 4.05301E+00 8.79389E+03-2.23847E+04 8.23925E-01 2.49216E+03-9.42919E-01
 -1       151 3.83651E+00-6.55884E+05-6.58576E+05 2.68002E+00-6.67416E+05-2.46480E-01
 -1       152-2.19130E+00 2.01925E+03-2.58827E+04 2.70122E+00 4.64673E+03 1.99467E+00
 -1       153 3.92692E+00-3.23832E+05-3.40402E+05-6.34675E+00-3.32203E+05-2.91040E+00
 -1       154-1.94792E+00-5.83984E+05-9.05279E+05 4.60301E+00-7.17471E+05 2.60880E+00
 -1       155 3.15384E+00 1.20226E+04-1.43488E+04-5.46199E+00-7.46886E+02-1.48122E+00
 -1       156 3.13572E+00-6.68664E+05-3.48343E+05-7.96127E+00-4.88884E+05-1.43085E+00
 -1       157 3.17671E+00 1.20348E+04-1.43481E+04 2.06543E+00-7.44667E+02-2.54066E-01
 -1       158 3.13877E+00-6.68626E+05-3.48341E+05 5.65860E+00-4.88879E+05 4.59301E-01
 -1       159-1.80955E+00 7.02664E+03-1.84127E+04 2.78591E+00 1.50679E+03 1.14593E+00
 -1       160 3.19434E+00-3.28347E+05-1.81461E+05-5.89553E+00-2.44602E+05-1.19937E+00
 -1       161-1.83041E+00-6.63793E+05-4.99540E+05 4.19977E+00-5.70601E+05 1.23124E+00
 -1       162 1.77034E+00 1.30726E+04-8.88233E+03-3.03566E+00-1.92622E+03-1.14744E-01
 -1       163 2.14410E+00-5.91927E+05-1.78133E+05-2.83985E+00-3.29445E+05 5.23359E-01
 -1       164 1.85478E+00 1.30918E+04-8.88139E+03 4.27269E+00-1.92342E+03 2.58545E-01
 -1       165 2.23021E+00-5.91875E+05-1.78132E+05 9.67480E+00-3.29440E+05 1.19553E+00
 -1       166-1.32418E+00 9.88325E+03-1.24706E+04 2.56086E+00-4.66709E+02 3.12380E-01
 -1       167 1.83605E+00-2.89375E+05-9.36494E+04-2.24874E+00-1.65567E+05 1.91647E-01
 -1       168-1.29514E+00-6.28473E+05-2.63756E+05 3.55879E+00-4.03469E+05 2.11206E-01
 -1       169-2.34284E-01 1.35389E+04-5.26946E+03-2.85017E+00-2.26083E+03 1.44842E+00
 -1       170-1.09098E+00-4.76238E+05-8.94765E+04-4.11371E+00-2.10212E+05 8.78470E-01
 -1       171-2.61266E-01 1.35662E+04-5.26838E+03 7.07912E+00-2.25712E+03 1.39761E+00
 -1       172-1.32250E+00-4.76171E+05-8.94751E+04 1.53197E+01-2.10205E+05 1.16779E+00
 -1       173-4.05510E-01 1.12290E+04-8.39065E+03 3.65858E-01-1.30377E+03-2.25957E-01
 -1       174-1.92877E-01-2.31333E+05-4.74360E+04-2.94427E+00-1.06132E+05 8.06120E-01
 -1       175-7.13917E-01-5.31149E+05-1.36203E+05-9.16311E-01-2.66341E+05-6.72503E-01
 -1       176-3.81557E+00 1.38448E+04-3.09932E+03 1.17349E+01-2.16896E+03 1.00808E+00
 -1       177-1.74025E+00-3.50326E+05-4.40621E+04 2.78575E+01-1.27398E+05 3.92609E+00
 -1       178-3.41457E+00 1.38830E+04-3.09819E+03 1.18464E+01-2.16537E+03 1.41176E-01
 -1       179-6.83816E-01-3.50234E+05-4.40614E+04 2.13505E+01-1.27398E+05 3.33905E+00
 -1       180 5.63129E-01 1.19047E+04-5.67878E+03 2.29339E+00-1.65966E+03-1.21358E+00
 -1       181-4.36714E+00-1.68230E+05-2.35893E+04 2.04358E+01-6.47010E+04 2.05061E+00
 -1       182 1.50862E+00-4.10210E+05-6.96149E+04 4.78731E+00-1.66939E+05-2.14899E-01
 -1       183-8.06540E+00 1.41421E+04-1.85488E+03-1.91588E+01-1.80444E+03 7.01996E+00
 -1       184-1.61145E+01-2.26018E+05-2.09657E+04-5.51017E+01-7.15366E+04-5.98384E+00
 -1       185-8.80644E+00 1.41899E+04-1.85256E+03 1.50134E+01-1.79520E+03 7.53902E+00
 -1       186-2.01392E+01-2.25922E+05-2.09646E+04 3.27357E+01-7.15037E+04-2.71078E+00
 -1       187 3.58389E+00 1.21354E+04-3.93308E+03-1.41255E+01-1.74767E+03 1.09223E-01
 -1       188-6.36189E+00-1.06159E+05-1.11788E+04-3.74026E+01-3.62578E+04-9.93669E-01
 -1       189 1.38735E+00-2.85075E+05-3.51261E+04-3.26543E+01-9.85856E+04-3.49581E+00
 -1       190-1.57531E+01 1.48856E+04-1.50113E+03 1.26808E+02-1.80938E+03-1.04147E+01
 -1       191 7.09058E+00-1.08680E+05-6.74948E+03 3.04604E+02-2.90148E+04 3.18482E+01
 -1       192-1.34398E+01 1.49574E+04-1.50410E+03 2.89246E+01-1.81252E+03-1.60970E+01
 -1       193 2.32190E+01-1.08489E+05-6.74520E+03 3.34825E+01-2.90918E+04 2.17581E+01
 -1       194 3.25324E+00 1.21942E+04-2.99171E+03 3.28459E+01-1.92880E+03-6.99500E+00
 -1       195-2.49871E+01-4.66364E+04-4.30839E+03 2.19074E+02-1.57857E+04 1.10093E+01
 -1       196 1.09637E+01-1.63981E+05-1.60264E+04 8.68086E+01-4.99350E+04 9.00254E+00
 -1       197-4.13693E+01-4.72294E+03-3.87502E+03-4.48718E+02-7.73545E+03 9.72441E+01
 -1       198-2.28111E+02 2.95267E+04 4.93201E+03-1.13296E+03 1.09048E+04-2.94273E+01
 -1       199-4.51837E+01-5.44851E+03-3.84875E+03-2.37806E+02-7.79230E+03 8.31921E+01
 -1       200-2.91674E+02 2.75585E+04 4.89993E+03-4.26375E+02 1.10650E+04-6.13687E+01
 -1       201 1.71081E+01 1.16864E+04-2.09164E+03-1.59777E+02-1.61486E+03 1.72986E+01
 -1       202-5.84833E+01 1.29497E+04 5.73278E+01-8.07506E+02 6.60549E+02 2.50874E+01
 -1       203-5.45090E+00-4.44602E+04-5.87723E+03-3.88188E+02-1.65991E+04-3.96192E+01
 -1       204 2.01432E+02-9.58831E+04 2.60640E+06-9.78781E+01 5.30894E+04 1.24008E+02
 -1       205 2.10660E+00 2.01660E+05 1.95129E+06 5.77590E+00 6.76328E+05 9.59185E+00
 -1       206 2.01432E+02-9.59575E+04 2.60636E+06 2.77601E-07 5.31539E+04-4.86209E-07
 -1       207 2.17203E+00 2.01674E+05 1.95126E+06-6.07280E-07 6.76330E+05-1.00988E-06
 -1       208 1.43168E+02-7.88149E+04 1.27894E+06-7.01724E+01 3.19615E+04 7.96092E+01
 -1       209-8.87485E-01 6.83156E+04 2.29876E+06-1.95923E+00 3.70149E+05-5.43094E+00
 -1       210 3.88848E+00 9.32677E+04 9.53414E+05 4.95112E+00 3.48148E+05 9.11835E+00
 -1       211 2.01432E+02-9.59203E+04 2.60638E+06-7.97468E+01 5.31216E+04 1.11349E+02
 -1       212 2.13931E+00 2.01667E+05 1.95127E+06-1.33402E+00 6.76329E+05-1.10698E+00
 -1       213 1.43168E+02-7.88924E+04 1.27891E+06 2.53586E-07 3.20207E+04-2.09042E-07
 -1       214-8.54807E-01 6.83124E+04 2.29878E+06-2.18163E-07 3.70147E+05-6.56332E-07
 -1       215 3.91303E+00 9.32733E+04 9.53396E+05-3.36497E-07 3.48149E+05-4.54233E-07
 -1       216 2.09555E+00 5.18765E+05 1.20182E+06 8.22647E+00 8.12058E+05 6.52660E+00
 -1       217 2.14301E+00 5.18797E+05 1.20181E+06 2.65273E-07 8.12065E+05-8.41255E-07
 -1       218-1.13168E+00 3.64806E+05 1.56416E+06-3.84339E+00 7.42719E+05-4.04870E+00
 -1       219 3.42734E+00 2.61635E+05 5.84578E+05 7.42419E+00 4.09610E+05 6.68184E+00
 -1       220 2.11928E+00 5.18781E+05 1.20181E+06-2.82767E+00 8.12062E+05-8.76309E-01
 -1       221-1.07522E+00 3.64795E+05 1.56417E+06-1.15619E-07 7.42717E+05-8.75351E-07
 -1       222 3.44521E+00 2.61652E+05 5.84574E+05 1.31255E-07 4.09615E+05-3.55384E-07
 -1       223 1.24139E+00 6.84736E+05 6.71770E+05 7.97422E+00 6.87669E+05 3.12305E+00
 -1       224 1.26425E+00 6.84793E+05 6.71775E+05-2.94499E-06 6.87682E+05-5.38502E-07
 -1       225-8.94274E-01 6.01521E+05 9.30630E+05-4.36019E+00 7.45067E+05-2.34088E+00
 -1       226 2.63814E+00 3.47032E+05 3.24613E+05 7.72250E+00 3.44818E+05 3.76430E+00
 -1       227 1.25282E+00 6.84765E+05 6.71772E+05-4.80135E+00 6.87676E+05-1.04150E+00
 -1       228-8.59100E-01 6.01498E+05 9.30629E+05-1.42618E-06 7.45062E+05-5.08685E-07
 -1       229 2.66558E+00 3.47065E+05 3.24617E+05-1.45529E-06 3.44829E+05-2.29685E-07
 -1       230-2.28207E-01 6.95644E+05 3.55241E+05 5.99872E+00 5.02041E+05-1.65185E-03
 -1       231-1.18706E-01 6.95729E+05 3.55249E+05 3.49905E-06 5.02058E+05-1.24732E-06
 -1       232-2.91346E-01 6.87028E+05 5.11763E+05-3.52560E+00 5.91450E+05-6.49885E-01
 -1       233 1.41326E+00 3.53860E+05 1.70561E+05 6.54645E+00 2.50433E+05 9.96447E-01
 -1       234-1.73457E-01 6.95686E+05 3.55245E+05-7.71035E+00 5.02049E+05-1.62206E+00
 -1       235-2.25207E-01 6.86992E+05 5.11760E+05 9.47761E-08 5.91442E+05-4.55100E-07
 -1       236 1.49090E+00 3.53914E+05 1.70567E+05 9.24933E-07 2.50448E+05-2.15568E-07
 -1       237-2.82437E+00 6.16618E+05 1.83027E+05-1.78751E-01 3.37956E+05-3.04151E+00
 -1       238-2.99482E+00 6.16730E+05 1.83036E+05-2.70185E-06 3.37978E+05-2.04829E-07
 -1       239 5.69690E-01 6.52681E+05 2.68902E+05-2.35905E+00 4.18712E+05 7.59528E-01
 -1       240-4.05846E-01 3.14793E+05 8.72140E+04 2.11747E+00 1.67897E+05-1.47604E+00
 -1       241-2.90959E+00 6.16674E+05 1.83032E+05-1.17665E+01 3.37967E+05-2.77332E+00
 -1       242 5.39344E-01 6.52631E+05 2.68897E+05-9.87956E-07 4.18703E+05 2.72340E-08
 -1       243-4.06730E-01 3.14868E+05 8.72200E+04 1.12072E-06 1.67914E+05 9.55826E-08
 -1       244-6.00819E+00 4.98692E+05 9.34499E+04-7.03225E-01 2.16286E+05-4.68647E+00
 -1       245-5.08386E+00 4.98842E+05 9.34584E+04-2.08614E-06 2.16305E+05 2.77746E-06
 -1       246 2.31296E+00 5.55114E+05 1.38167E+05 2.73276E+00 2.77249E+05 2.38066E+00
 -1       247-3.59099E+00 2.56099E+05 4.41532E+04 1.61114E+00 1.06908E+05-3.42477E+00
 -1       248-5.54603E+00 4.98767E+05 9.34542E+04-1.76354E+01 2.16295E+05-3.51870E+00
 -1       249 2.68952E+00 5.55051E+05 1.38162E+05-8.34086E-07 2.77237E+05 1.27369E-07
 -1       250-3.15568E+00 2.56200E+05 4.41608E+04-1.17570E-06 1.06928E+05 9.88041E-07
 -1       251-1.31877E+01 3.70977E+05 4.74840E+04-3.35313E+01 1.32105E+05-1.00002E+01
 -1       252-1.60068E+01 3.71146E+05 4.74939E+04 4.91623E-06 1.32153E+05-5.07941E-06
 -1       253 3.66155E+00 4.33541E+05 7.02067E+04-1.96683E+00 1.75062E+05 2.38575E+00
 -1       254-6.91241E+00 1.92401E+05 2.22009E+04-2.19935E+01 6.48854E+04-5.92062E+00
 -1       255-1.45972E+01 3.71062E+05 4.74890E+04-2.45734E+01 1.32129E+05-7.08900E+00
 -1       256 2.71535E+00 4.33454E+05 7.02026E+04 6.44209E-07 1.75055E+05-1.82600E-06
 -1       257-7.92132E+00 1.92527E+05 2.22036E+04 3.31788E-06 6.49122E+04-1.12936E-06
 -1       258-1.63633E+01 2.45229E+05 2.36493E+04 4.26968E+01 7.52128E+04-2.28681E+00
 -1       259-5.73621E+00 2.45496E+05 2.36548E+04-5.11735E-06 7.51811E+04-2.44150E-06
 -1       260 1.00565E+01 3.08063E+05 3.52337E+04 3.60659E+01 1.04921E+05 7.75734E+00
 -1       261-1.79424E+01 1.29907E+05 1.06657E+04 3.06554E+01 3.62915E+04-6.16511E+00
 -1       262-1.10498E+01 2.45362E+05 2.36520E+04-3.57237E+01 7.51969E+04-2.16369E+00
 -1       263 1.39570E+01 3.07978E+05 3.52275E+04 2.31314E-06 1.04880E+05-1.95667E-06
 -1       264-1.33693E+01 1.30069E+05 1.06886E+04-2.17845E-06 3.63162E+04-9.67388E-07
 -1       265-4.67132E+01 1.25905E+05 9.11484E+03-3.05361E+02 3.26944E+04-4.25490E+01
 -1       266-8.30337E+01 1.26023E+05 9.14758E+03-2.54286E-06 3.30103E+04-5.06295E-07
 -1       267 4.18424E+00 1.86816E+05 1.62083E+04-7.96684E+01 5.56122E+04-5.64028E+00
 -1       268-1.05774E+01 7.01346E+04 3.98993E+03-2.12717E+02 1.58161E+04-1.57746E+01
 -1       269-6.48735E+01 1.25964E+05 9.13121E+03-4.35854E+01 3.28523E+04-3.00459E+01
 -1       270-8.65134E+00 1.86637E+05 1.62103E+04-5.09192E-06 5.56830E+04-1.80688E-06
 -1       271-2.64255E+01 7.03228E+04 3.94710E+03 3.63185E-06 1.58831E+04-2.37877E-06
 -1       272 9.85822E+01 3.18889E+04 1.64706E+02 1.29612E+03 6.10665E+03 5.27273E+01
 -1       273 2.26525E+02 2.89818E+04 5.65318E+01 3.86962E-06 4.42836E+03 3.98443E-07
 -1       274 5.25455E+01 6.83444E+04 6.09987E+03 3.88903E+02 2.10060E+04 4.98710E+01
 -1       275-4.76503E+01 1.30352E+04-1.38399E+03 8.55755E+02 1.09743E+02-3.10794E+01
 -1       276 1.62554E+02 3.04354E+04 1.10619E+02 5.57506E+02 5.26750E+03 7.84410E+01
 -1       277 9.83481E+01 6.83908E+04 6.05708E+03 3.75496E-07 2.06270E+04-1.20500E-06
 -1       278 1.25092E+01 1.07168E+04-1.22602E+03-1.45046E-07-5.58830E+02-8.02701E-07
 -1       279 2.01432E+02-9.58831E+04 2.60640E+06 9.78781E+01 5.30894E+04-1.24008E+02
 -1       280 2.10660E+00 2.01660E+05 1.95129E+06-5.77590E+00 6.76328E+05-9.59186E+00
 -1       281 2.01432E+02-9.59203E+04 2.60638E+06 7.97468E+01 5.31216E+04-1.11349E+02
 -1       282 2.13931E+00 2.01667E+05 1.95127E+06 1.33402E+00 6.76329E+05 1.10698E+00
 -1       283 1.43168E+02-7.88149E+04 1.27894E+06 7.01724E+01 3.19615E+04-7.96092E+01
 -1       284-8.87485E-01 6.83156E+04 2.29876E+06 1.95923E+00 3.70149E+05 5.43094E+00
 -1       285 3.88848E+00 9.32677E+04 9.53414E+05-4.95112E+00 3.48148E+05-9.11835E+00
 -1       286 2.09555E+00 5.18765E+05 1.20182E+06-8.22647E+00 8.12058E+05-6.52660E+00
 -1       287 2.11928E+00 5.18781E+05 1.20181E+06 2.82767E+00 8.12062E+05 8.76308E-01
 -1       288-1.13168E+00 3.64806E+05 1.56416E+06 3.84339E+00 7.42719E+05 4.04870E+00
 -1       289 3.42734E+00 2.61635E+05 5.84578E+05-7.42419E+00 4.09610E+05-6.68184E+00
 -1       290 1.24139E+00 6.84736E+05 6.71770E+05-7.97422E+00 6.87669E+05-3.12305E+00
 -1       291 1.25282E+00 6.84765E+05 6.71772E+05 4.80134E+00 6.87676E+05 1.04150E+00
 -1       292-8.94274E-01 6.01521E+05 9.30630E+05 4.36019E+00 7.45067E+05 2.34088E+00
 -1       293 2.63814E+00 3.47032E+05 3.24613E+05-7.72250E+00 3.44818E+05-3.76430E+00
 -1       294-2.28207E-01 6.95644E+05 3.55241E+05-5.99872E+00 5.02041E+05 1.65148E-03
 -1       295-1.73457E-01 6.95686E+05 3.55245E+05 7.71035E+00 5.02049E+05 1.62206E+00
 -1       296-2.91346E-01 6.87028E+05 5.11763E+05 3.52560E+00 5.91450E+05 6.49885E-01
 -1       297 1.41326E+00 3.53860E+05 1.70561E+05-6.54645E+00 2.50433E+05-9.96448E-01
 -1       298-2.82437E+00 6.16618E+05 1.83027E+05 1.78745E-01 3.37956E+05 3.04151E+00
 -1       299-2.90959E+00 6.16674E+05 1.83032E+05 1.17664E+01 3.37967E+05 2.77332E+00
 -1       300 5.69690E-01 6.52681E+05 2.68902E+05 2.35905E+00 4.18712E+05-7.59527E-01
 -1       301-4.05846E-01 3.14793E+05 8.72140E+04-2.11747E+00 1.67897E+05 1.47604E+00
 -1       302-6.00819E+00 4.98692E+05 9.34499E+04 7.03221E-01 2.16286E+05 4.68647E+00
 -1       303-5.54603E+00 4.98767E+05 9.34542E+04 1.76354E+01 2.16295E+05 3.51870E+00
 -1       304 2.31297E+00 5.55114E+05 1.38167E+05-2.73276E+00 2.77249E+05-2.38066E+00
 -1       305-3.59099E+00 2.56099E+05 4.41532E+04-1.61114E+00 1.06908E+05 3.42477E+00
 -1       306-1.31877E+01 3.70977E+05 4.74840E+04 3.35312E+01 1.32105E+05 1.00002E+01
 -1       307-1.45972E+01 3.71062E+05 4.74890E+04 2.45734E+01 1.32129E+05 7.08899E+00
 -1       308 3.66155E+00 4.33541E+05 7.02067E+04 1.96682E+00 1.75062E+05-2.38575E+00
 -1       309-6.91241E+00 1.92401E+05 2.22009E+04 2.19935E+01 6.48854E+04 5.92062E+00
 -1       310-1.63633E+01 2.45229E+05 2.36493E+04-4.26968E+01 7.52128E+04 2.28681E+00
 -1       311-1.10498E+01 2.45362E+05 2.36520E+04 3.57237E+01 7.51969E+04 2.16369E+00
 -1       312 1.00565E+01 3.08063E+05 3.52337E+04-3.60659E+01 1.04921E+05-7.75734E+00
 -1       313-1.79424E+01 1.29907E+05 1.06657E+04-3.06554E+01 3.62915E+04 6.16511E+00
 -1       314-4.67132E+01 1.25905E+05 9.11484E+03 3.05361E+02 3.26944E+04 4.25490E+01
 -1       315-6.48735E+01 1.25964E+05 9.13121E+03 4.35854E+01 3.28523E+04 3.00459E+01
 -1       316 4.18424E+00 1.86816E+05 1.62083E+04 7.96684E+01 5.56122E+04 5.64028E+00
 -1       317-1.05774E+01 7.01346E+04 3.98993E+03 2.12717E+02 1.58161E+04 1.57746E+01
 -1       318 9.85822E+01 3.18889E+04 1.64706E+02-1.29612E+03 6.10665E+03-5.27273E+01
 -1       319 1.62554E+02 3.04354E+04 1.10619E+02-5.57506E+02 5.26750E+03-7.84410E+01
 -1       320 5.25455E+01 6.83444E+04 6.09987E+03-3.88903E+02 2.10060E+04-4.98710E+01
 -1       321-4.76503E+01 1.30352E+04-1.38399E+03-8.55755E+02 1.09743E+02 3.10794E+01
 -3
    1PSTEP                        25          13           1          
  100CL  113 7.37500E-01         321                     0   13           1
 -4  DISP        4    1
 -5  D1          1    2    1    0
 -5  D2          1    2    2    0
 -5  D3          1    2    3    0
 -5  ALL         1    2    0    0    1ALL
 -1         1 0.00000E+00 0.00000E+00 0.00000E+00
 -1         2 0.00000E+00 0.00000E+00 0.00000E+00
 -1         3-1.07886E-07 1.74915E-01-2.06637E-02
 -1         4-2.64002E-07 1.70540E-01-4.55324E-02
 -1         5 0.00000E+00 0.00000E+00 0.00000E+00
 -1         6 0.00000E+00 0.00000E+00 0.00000E+00
 -1         7-9.81047E-15 1.74915E-01-2.06636E-02
 -1         8-4.32078E-15 1.70540E-01-4.55323E-02
 -1         9 0.00000E+00 0.00000E+00 0.00000E+00
 -1        10 2.42327E-08 4.54289E-02-2.85050E-03
 -1        11-1.85948E-07 1.72726E-01-3.30929E-02
 -1        12 6.45047E-08 4.42454E-02-1.59949E-02
 -1        13 0.00000E+00 0.00000E+00 0.00000E+00
 -1        14 0.00000E+00 0.00000E+00 0.00000E+00
 -1        15-5.39446E-08 1.74915E-01-2.06636E-02
 -1        16-1.32000E-07 1.70540E-01-4.55324E-02
 -1        17 0.00000E+00 0.00000E+00 0.00000E+00
 -1        18-3.35217E-15 4.54289E-02-2.85051E-03
 -1        19-7.05914E-15 1.72726E-01-3.30928E-02
 -1        20-1.49893E-15 4.42454E-02-1.59950E-02
 -1        21-2.35621E-07 6.39733E-01-1.38931E-01
 -1        22-5.40128E-07 6.26007E-01-1.81663E-01
 -1        23-3.14005E-14 6.39733E-01-1.38931E-01
 -1        24-2.10684E-14 6.26007E-01-1.81663E-01
 -1        25 8.36458E-08 3.77138E-01-6.39110E-02
 -1        26-3.87864E-07 6.32871E-01-1.60294E-01
 -1        27 1.99514E-07 3.68565E-01-9.85134E-02
 -1        28-1.17811E-07 6.39733E-01-1.38931E-01
 -1        29-2.70061E-07 6.26007E-01-1.81663E-01
 -1        30-1.78886E-14 3.77138E-01-6.39110E-02
 -1        31-2.60714E-14 6.32871E-01-1.60294E-01
 -1        32-1.17606E-14 3.68566E-01-9.85134E-02
 -1        33-3.79730E-07 1.30416E+00-3.94169E-01
 -1        34-8.28541E-07 1.28000E+00-4.48681E-01
 -1        35-6.01897E-14 1.30416E+00-3.94169E-01
 -1        36-4.44583E-14 1.27999E+00-4.48681E-01
 -1        37 1.51959E-07 9.52054E-01-2.48824E-01
 -1        38-6.04138E-07 1.29208E+00-4.21423E-01
 -1        39 3.40643E-07 9.33243E-01-2.98146E-01
 -1        40-1.89862E-07 1.30416E+00-3.94169E-01
 -1        41-4.14267E-07 1.28000E+00-4.48681E-01
 -1        42-4.43041E-14 9.52054E-01-2.48824E-01
 -1        43-5.23017E-14 1.29208E+00-4.21423E-01
 -1        44-3.43283E-14 9.33243E-01-2.98146E-01
 -1        45-5.37496E-07 2.09686E+00-7.86350E-01
 -1        46-1.12896E-06 2.06315E+00-8.48242E-01
 -1        47-1.05189E-13 2.09686E+00-7.86350E-01
 -1        48-8.27738E-14 2.06315E+00-8.48242E-01
 -1        49 2.27774E-07 1.68807E+00-5.74035E-01
 -1        50-8.33154E-07 2.08001E+00-8.17294E-01
 -1        51 4.87918E-07 1.65907E+00-6.32788E-01
 -1        52-2.68744E-07 2.09686E+00-7.86350E-01
 -1        53-5.64480E-07 2.06315E+00-8.48242E-01
 -1        54-7.95353E-14 1.68807E+00-5.74035E-01
 -1        55-9.39703E-14 2.08001E+00-8.17294E-01
 -1        56-6.71679E-14 1.65907E+00-6.32788E-01
 -1        57-7.05868E-07 2.96863E+00-1.29758E+00
 -1        58-1.43859E-06 2.92698E+00-1.36395E+00
 -1        59-1.55337E-13 2.96863E+00-1.29758E+00
 -1        60-1.42259E-13 2.92698E+00-1.36395E+00
 -1        61 3.09746E-07 2.52520E+00-1.02850E+00
 -1        62-1.07238E-06 2.94781E+00-1.33076E+00
 -1        63 6.41016E-07 2.48738E+00-1.09305E+00
 -1        64-3.52921E-07 2.96863E+00-1.29758E+00
 -1        65-7.19283E-07 2.92698E+00-1.36395E+00
 -1        66-1.27006E-13 2.52520E+00-1.02850E+00
 -1        67-1.47567E-13 2.94781E+00-1.33076E+00
 -1        68-1.16599E-13 2.48738E+00-1.09305E+00
 -1        69-8.80091E-07 3.88785E+00-1.90447E+00
 -1        70-1.75443E-06 3.84004E+00-1.97351E+00
 -1        71-2.00941E-13 3.88785E+00-1.90447E+00
 -1        72-2.05432E-13 3.84003E+00-1.97351E+00
 -1        73 3.96195E-07 3.42377E+00-1.59054E+00
 -1        74-1.31660E-06 3.86394E+00-1.93899E+00
 -1        75 7.97614E-07 3.37887E+00-1.65857E+00
 -1        76-4.40049E-07 3.88785E+00-1.90447E+00
 -1        77-8.77237E-07 3.84004E+00-1.97351E+00
 -1        78-1.67552E-13 3.42377E+00-1.59054E+00
 -1        79-2.03126E-13 3.86394E+00-1.93899E+00
 -1        80-1.77123E-13 3.37887E+00-1.65857E+00
 -1        81-1.05315E-06 4.83499E+00-2.58384E+00
 -1        82-2.06129E-06 4.78264E+00-2.65444E+00
 -1        83-2.50221E-13 4.83498E+00-2.58384E+00
 -1        84-2.66015E-13 4.78264E+00-2.65444E+00
 -1        85 4.83929E-07 4.35883E+00-2.23645E+00
 -1        86-1.55934E-06 4.80882E+00-2.61914E+00
 -1        87 9.56555E-07 4.30856E+00-2.30651E+00
 -1        88-5.26514E-07 4.83499E+00-2.58384E+00
 -1        89-1.03053E-06 4.78264E+00-2.65444E+00
 -1        90-2.33048E-13 4.35883E+00-2.23645E+00
 -1        91-2.56468E-13 4.80881E+00-2.61914E+00
 -1        92-2.54522E-13 4.30857E+00-2.30651E+00
 -1        93-1.21244E-06 5.79812E+00-3.31468E+00
 -1        94-2.36761E-06 5.74271E+00-3.38614E+00
 -1        95-2.56272E-13 5.79812E+00-3.31468E+00
 -1        96-2.69473E-13 5.74271E+00-3.38614E+00
 -1        97 5.69570E-07 5.31512E+00-2.94402E+00
 -1        98-1.78217E-06 5.77042E+00-3.35041E+00
 -1        99 1.10537E-06 5.26105E+00-3.01526E+00
 -1       100-6.06333E-07 5.79812E+00-3.31468E+00
 -1       101-1.18426E-06 5.74271E+00-3.38614E+00
 -1       102-2.52946E-13 5.31512E+00-2.94402E+00
 -1       103-2.63231E-13 5.77041E+00-3.35041E+00
 -1       104-2.80553E-13 5.26105E+00-3.01526E+00
 -1       105-1.34323E-06 6.76988E+00-4.07832E+00
 -1       106-2.57696E-06 6.71271E+00-4.15021E+00
 -1       107-2.64922E-13 6.76988E+00-4.07832E+00
 -1       108-2.77958E-13 6.71270E+00-4.15021E+00
 -1       109 6.42214E-07 6.28330E+00-3.69346E+00
 -1       110-1.98869E-06 6.74130E+00-4.11426E+00
 -1       111 1.26009E-06 6.22681E+00-3.76532E+00
 -1       112-6.71268E-07 6.76988E+00-4.07832E+00
 -1       113-1.28659E-06 6.71271E+00-4.15021E+00
 -1       114-2.46901E-13 6.28330E+00-3.69346E+00
 -1       115-2.71709E-13 6.74129E+00-4.11426E+00
 -1       116-2.67080E-13 6.22681E+00-3.76532E+00
 -1       117-1.41516E-06 7.74541E+00-4.85788E+00
 -1       118-2.93998E-06 7.68768E+00-4.92990E+00
 -1       119-2.85458E-13 7.74540E+00-4.85788E+00
 -1       120-2.98907E-13 7.68767E+00-4.92990E+00
 -1       121 7.04380E-07 7.25747E+00-4.46709E+00
 -1       122-2.06966E-06 7.71654E+00-4.89389E+00
 -1       123 1.32291E-06 7.19979E+00-4.53923E+00
 -1       124-7.08153E-07 7.74540E+00-4.85788E+00
 -1       125-1.47756E-06 7.68767E+00-4.92990E+00
 -1       126-2.50061E-13 7.25747E+00-4.46709E+00
 -1       127-2.92221E-13 7.71653E+00-4.89389E+00
 -1       128-2.57835E-13 7.19979E+00-4.53923E+00
 -1       129 0.00000E+00 0.00000E+00 0.00000E+00
 -1       130 0.00000E+00 0.00000E+00 0.00000E+00
 -1       131 1.07886E-07 1.74915E-01-2.06637E-02
 -1       132 2.64002E-07 1.70540E-01-4.55324E-02
 -1       133 0.00000E+00 0.00000E+00 0.00000E+00
 -1       134 0.00000E+00 0.00000E+00 0.00000E+00
 -1       135 5.39446E-08 1.74915E-01-2.06636E-02
 -1       136 1.32000E-07 1.70540E-01-4.55324E-02
 -1       137 0.00000E+00 0.00000E+00 0.00000E+00
 -1       138-2.42327E-08 4.54289E-02-2.85050E-03
 -1       139 1.85948E-07 1.72726E-01-3.30929E-02
 -1       140-6.45047E-08 4.42454E-02-1.59949E-02
 -1       141 2.35621E-07 6.39733E-01-1.38931E-01
 -1       142 5.40128E-07 6.26007E-01-1.81663E-01
 -1       143 1.17811E-07 6.39733E-01-1.38931E-01
 -1       144 2.70061E-07 6.26007E-01-1.81663E-01
 -1       145-8.36459E-08 3.77138E-01-6.39110E-02
 -1       146 3.87864E-07 6.32871E-01-1.60294E-01
 -1       147-1.99514E-07 3.68565E-01-9.85134E-02
 -1       148 3.79730E-07 1.30416E+00-3.94169E-01
 -1       149 8.28541E-07 1.28000E+00-4.48681E-01
 -1       150 1.89862E-07 1.30416E+00-3.94169E-01
 -1       151 4.14267E-07 1.28000E+00-4.48681E-01
 -1       152-1.51959E-07 9.52054E-01-2.48824E-01
 -1       153 6.04138E-07 1.29208E+00-4.21423E-01
 -1       154-3.40643E-07 9.33243E-01-2.98146E-01
 -1       155 5.37496E-07 2.09686E+00-7.86350E-01
 -1       156 1.12896E-06 2.06315E+00-8.48242E-01
 -1       157 2.68744E-07 2.09686E+00-7.86350E-01
 -1       158 5.64479E-07 2.06315E+00-8.48242E-01
 -1       159-2.27774E-07 1.68807E+00-5.74035E-01
 -1       160 8.33154E-07 2.08001E+00-8.17294E-01
 -1       161-4.87918E-07 1.65907E+00-6.32788E-01
 -1       162 7.05868E-07 2.96863E+00-1.29758E+00
 -1       163 1.43859E-06 2.92698E+00-1.36395E+00
 -1       164 3.52920E-07 2.96863E+00-1.29758E+00
 -1       165 7.19283E-07 2.92698E+00-1.36395E+00
 -1       166-3.09746E-07 2.52520E+00-1.02850E+00
 -1       167 1.07238E-06 2.94781E+00-1.33076E+00
 -1       168-6.41016E-07 2.48738E+00-1.09305E+00
 -1       169 8.80091E-07 3.88785E+00-1.90447E+00
 -1       170 1.75443E-06 3.84004E+00-1.97351E+00
 -1       171 4.40049E-07 3.88785E+00-1.90447E+00
 -1       172 8.77237E-07 3.84004E+00-1.97351E+00
 -1       173-3.96196E-07 3.42377E+00-1.59054E+00
 -1       174 1.31660E-06 3.86394E+00-1.93899E+00
 -1       175-7.97614E-07 3.37887E+00-1.65857E+00
 -1       176 1.05315E-06 4.83499E+00-2.58384E+00
 -1       177 2.06129E-06 4.78264E+00-2.65444E+00
 -1       178 5.26514E-07 4.83499E+00-2.58384E+00
 -1       179 1.03052E-06 4.78264E+00-2.65444E+00
 -1       180-4.83930E-07 4.35883E+00-2.23645E+00
 -1       181 1.55934E-06 4.80882E+00-2.61914E+00
 -1       182-9.56555E-07 4.30856E+00-2.30651E+00
 -1       183 1.21244E-06 5.79812E+00-3.31468E+00
 -1       184 2.36761E-06 5.74271E+00-3.38614E+00
 -1       185 6.06332E-07 5.79812E+00-3.31468E+00
 -1       186 1.18426E-06 5.74271E+00-3.38614E+00
 -1       187-5.69571E-07 5.31512E+00-2.94402E+00
 -1       188 1.78217E-06 5.77042E+00-3.35041E+00
 -1       189-1.10537E-06 5.26105E+00-3.01526E+00
 -1       190 1.34323E-06 6.76988E+00-4.07832E+00
 -1       191 2.57696E-06 6.71271E+00-4.15021E+00
 -1       192 6.71267E-07 6.76988E+00-4.07832E+00
 -1       193 1.28659E-06 6.71271E+00-4.15021E+00
 -1       194-6.42214E-07 6.28330E+00-3.69346E+00
 -1       195 1.98869E-06 6.74130E+00-4.11426E+00
 -1       196-1.26009E-06 6.22681E+00-3.76532E+00
 -1       197 1.41516E-06 7.74541E+00-4.85788E+00
 -1       198 2.93998E-06 7.68768E+00-4.92990E+00
 -1       199 7.08152E-07 7.74540E+00-4.85788E+00
 -1       200 1.47756E-06 7.68767E+00-4.92990E+00
 -1       201-7.04381E-07 7.25747E+00-4.46709E+00
 -1       202 2.06966E-06 7.71654E+00-4.89389E+00
 -1       203-1.32291E-06 7.19979E+00-4.53923E+00
 -1       204 0.00000E+00 0.00000E+00 0.00000E+00
 -1       205-2.50343E-07 1.79269E-01 4.18648E-03
 -1       206 0.00000E+00 0.00000E+00 0.00000E+00
 -1       207-1.33926E-14 1.79269E-01 4.18668E-03
 -1       208 0.00000E+00 0.00000E+00 0.00000E+00
 -1       209 6.21058E-08 4.66188E-02 1.03036E-02
 -1       210-1.79111E-07 1.77094E-01-8.24359E-03
 -1       211 0.00000E+00 0.00000E+00 0.00000E+00
 -1       212-1.25166E-07 1.79269E-01 4.18658E-03
 -1       213 0.00000E+00 0.00000E+00 0.00000E+00
 -1       214-5.56315E-15 4.66188E-02 1.03036E-02
 -1       215-1.16251E-14 1.77094E-01-8.24347E-03
 -1       216-5.05894E-07 6.53428E-01-9.62054E-02
 -1       217-3.80214E-14 6.53427E-01-9.62051E-02
 -1       218 1.88243E-07 3.85725E-01-2.93015E-02
 -1       219-3.70758E-07 6.46579E-01-1.17571E-01
 -1       220-2.52943E-07 6.53427E-01-9.62052E-02
 -1       221-2.52761E-14 3.85725E-01-2.93016E-02
 -1       222-3.46465E-14 6.46579E-01-1.17571E-01
 -1       223-7.67588E-07 1.32830E+00-3.39644E-01
 -1       224-7.09372E-14 1.32830E+00-3.39643E-01
 -1       225 3.17650E-07 9.70878E-01-1.99505E-01
 -1       226-5.73628E-07 1.31623E+00-3.66909E-01
 -1       227-3.83792E-07 1.32830E+00-3.39643E-01
 -1       228-5.56438E-14 9.70878E-01-1.99505E-01
 -1       229-6.55768E-14 1.31623E+00-3.66909E-01
 -1       230-1.03301E-06 2.13058E+00-7.24427E-01
 -1       231-1.19488E-13 2.13058E+00-7.24426E-01
 -1       232 4.49922E-07 1.71707E+00-5.15295E-01
 -1       233-7.85304E-07 2.11372E+00-7.55390E-01
 -1       234-5.16499E-07 2.13058E+00-7.24426E-01
 -1       235-9.44738E-14 1.71707E+00-5.15295E-01
 -1       236-1.12130E-13 2.11372E+00-7.55390E-01
 -1       237-1.29806E-06 3.01029E+00-1.23116E+00
 -1       238-1.57559E-13 3.01029E+00-1.23116E+00
 -1       239 5.83089E-07 2.56302E+00-9.63970E-01
 -1       240-1.00173E-06 2.98946E+00-1.26437E+00
 -1       241-6.49040E-07 3.01029E+00-1.23116E+00
 -1       242-1.42665E-13 2.56302E+00-9.63971E-01
 -1       243-1.55441E-13 2.98946E+00-1.26437E+00
 -1       244-1.55279E-06 3.93570E+00-1.83538E+00
 -1       245-1.79180E-13 3.93569E+00-1.83538E+00
 -1       246 7.14954E-07 3.46866E+00-1.52254E+00
 -1       247-1.21716E-06 3.91177E+00-1.86992E+00
 -1       248-7.76334E-07 3.93570E+00-1.83538E+00
 -1       249-1.66842E-13 3.46866E+00-1.52254E+00
 -1       250-1.89642E-13 3.91177E+00-1.86992E+00
 -1       251-1.79170E-06 4.88738E+00-2.51319E+00
 -1       252-2.21512E-13 4.88738E+00-2.51319E+00
 -1       253 8.37916E-07 4.40907E+00-2.16641E+00
 -1       254-1.41990E-06 4.86118E+00-2.54852E+00
 -1       255-8.96026E-07 4.88738E+00-2.51319E+00
 -1       256-2.20122E-13 4.40907E+00-2.16641E+00
 -1       257-2.34992E-13 4.86118E+00-2.54852E+00
 -1       258-1.97284E-06 5.85361E+00-3.24316E+00
 -1       259-2.35756E-13 5.85361E+00-3.24316E+00
 -1       260 9.53890E-07 5.36916E+00-2.87282E+00
 -1       261-1.60134E-06 5.82587E+00-3.27892E+00
 -1       262-9.85764E-07 5.85361E+00-3.24316E+00
 -1       263-2.26888E-13 5.36916E+00-2.87282E+00
 -1       264-2.45547E-13 5.82586E+00-3.27892E+00
 -1       265-2.14746E-06 6.82718E+00-4.00635E+00
 -1       266-2.44090E-13 6.82717E+00-4.00635E+00
 -1       267 1.01864E-06 6.33975E+00-3.62163E+00
 -1       268-1.71462E-06 6.79853E+00-4.04233E+00
 -1       269-1.07593E-06 6.82717E+00-4.00635E+00
 -1       270-2.33629E-13 6.33976E+00-3.62163E+00
 -1       271-2.55597E-13 6.79853E+00-4.04233E+00
 -1       272-1.99087E-06 7.80330E+00-4.78578E+00
 -1       273-2.76556E-13 7.80330E+00-4.78578E+00
 -1       274 1.13262E-06 7.31509E+00-4.39498E+00
 -1       275-1.81358E-06 7.77435E+00-4.82183E+00
 -1       276-9.87797E-07 7.80330E+00-4.78578E+00
 -1       277-2.45913E-13 7.31509E+00-4.39498E+00
 -1       278-2.80788E-13 7.77435E+00-4.82183E+00
 -1       279 0.00000E+00 0.00000E+00 0.00000E+00
 -1       280 2.50343E-07 1.79269E-01 4.18648E-03
 -1       281 0.00000E+00 0.00000E+00 0.00000E+00
 -1       282 1.25166E-07 1.79269E-01 4.18658E-03
 -1       283 0.00000E+00 0.00000E+00 0.00000E+00
 -1       284-6.21058E-08 4.66188E-02 1.03036E-02
 -1       285 1.79111E-07 1.77094E-01-8.24359E-03
 -1       286 5.05894E-07 6.53428E-01-9.62054E-02
 -1       287 2.52943E-07 6.53427E-01-9.62052E-02
 -1       288-1.88243E-07 3.85725E-01-2.93015E-02
 -1       289 3.70758E-07 6.46579E-01-1.17571E-01
 -1       290 7.67587E-07 1.32830E+00-3.39644E-01
 -1       291 3.83792E-07 1.32830E+00-3.39643E-01
 -1       292-3.17650E-07 9.70878E-01-1.99505E-01
 -1       293 5.73628E-07 1.31623E+00-3.66909E-01
 -1       294 1.03301E-06 2.13058E+00-7.24427E-01
 -1       295 5.16499E-07 2.13058E+00-7.24426E-01
 -1       296-4.49922E-07 1.71707E+00-5.15295E-01
 -1       297 7.85304E-07 2.11372E+00-7.55390E-01
 -1       298 1.29806E-06 3.01029E+00-1.23116E+00
 -1       299 6.49040E-07 3.01029E+00-1.23116E+00
 -1       300-5.83090E-07 2.56302E+00-9.63970E-01
 -1       301 1.00173E-06 2.98946E+00-1.26437E+00
 -1       302 1.55278E-06 3.93570E+00-1.83538E+00
 -1       303 7.76334E-07 3.93570E+00-1.83538E+00
 -1       304-7.14955E-07 3.46866E+00-1.52254E+00
 -1       305 1.21716E-06 3.91177E+00-1.86992E+00
 -1       306 1.79170E-06 4.88738E+00-2.51319E+00
 -1       307 8.96026E-07 4.88738E+00-2.51319E+00
 -1       308-8.37917E-07 4.40907E+00-2.16641E+00
 -1       309 1.41990E-06 4.86118E+00-2.54852E+00
 -1       310 1.97284E-06 5.85361E+00-3.24316E+00
 -1       311 9.85763E-07 5.85361E+00-3.24316E+00
 -1       312-9.53891E-07 5.36916E+00-2.87282E+00
 -1       313 1.60134E-06 5.82587E+00-3.27892E+00
 -1       314 2.14746E-06 6.82718E+00-4.00635E+00
 -1       315 1.07593E-06 6.82717E+00-4.00635E+00
 -1       316-1.01864E-06 6.33975E+00-3.62163E+00
 -1       317 1.71462E-06 6.79853E+00-4.04233E+00
 -1       318 1.99087E-06 7.80330E+00-4.78578E+00
 -1       319 9.87796E-07 7.80330E+00-4.78578E+00
 -1       320-1.13262E-06 7.31509E+00-4.39498E+00
 -1       321 1.81358E-06 7.77435E+00-4.82183E+00
 -3
    1PSTEP                        26          13           1          
  100CL  113 7.37500E-01         321                     0   13           1
 -4  STRESS      6    1
 -5  SXX         1    4    1    1
 -5  SYY         1    4    2    2
 -5  SZZ         1    4    3    3
 -5  SXY         1    4    1    2
 -5  SYZ         1    4    2    3
 -5  SZX         1    4    3    1
 -1         1 2.68453E+02-1.72253E+04-2.73797E+06-2.11485E+01-2.38966E+04 3.39018E+01
 -1         2 1.04258E+02-6.65629E+04-5.78429E+04 3.90335E+00 1.71751E+04 3.35328E+01
 -1         3 6.63877E+00-1.74170E+04-5.15765E+04 2.90132E+00 2.12523E+04 6.14576E+00
 -1         4 3.67671E+00-2.32824E+05-1.99525E+06 6.44307E+00-7.47152E+05 9.92543E+00
 -1         5 2.68453E+02-1.71130E+04-2.73798E+06-4.04421E-07-2.38839E+04 1.19091E-07
 -1         6 1.04258E+02-6.65549E+04-5.78595E+04 4.00853E-08 1.72044E+04 8.23973E-08
 -1         7 6.61597E+00-1.74181E+04-5.15858E+04 1.40189E-07 2.12490E+04 6.85177E-08
 -1         8 3.68579E+00-2.32805E+05-1.99525E+06-3.52096E-08-7.47142E+05 2.14176E-07
 -1         9 1.86024E+02-3.80479E+04-1.39798E+06 1.69302E+01-1.47681E+03 3.08379E+01
 -1        10-3.63199E+00-2.40719E+04-5.14762E+04-4.95565E-01 1.37205E+04-2.97544E+00
 -1        11 5.18382E+00-1.25966E+05-1.02284E+06 3.27184E+00-3.63771E+05 5.84773E+00
 -1        12-1.83367E+00-1.09487E+05-2.38936E+06-1.76594E+00-4.05797E+05-5.37635E+00
 -1        13 2.68453E+02-1.71691E+04-2.73798E+06-5.04529E+01-2.38903E+04 2.49135E+01
 -1        14 1.04258E+02-6.65589E+04-5.78512E+04 1.96156E+00 1.71897E+04 2.86539E+01
 -1        15 6.62737E+00-1.74175E+04-5.15812E+04-7.06972E-01 2.12506E+04 1.44550E+00
 -1        16 3.68125E+00-2.32814E+05-1.99525E+06-2.67122E-02-7.47147E+05 1.52248E+00
 -1        17 1.86023E+02-3.79395E+04-1.39799E+06-3.15277E-07-1.47134E+03 1.17078E-07
 -1        18-3.64341E+00-2.40706E+04-5.14693E+04 1.09863E-07 1.37228E+04-2.92074E-09
 -1        19 5.17679E+00-1.25956E+05-1.02284E+06 1.18740E-07-3.63769E+05 1.45957E-07
 -1        20-1.82917E+00-1.09491E+05-2.38935E+06 1.95073E-07-4.05802E+05 1.79122E-07
 -1        21 5.47475E+00 5.77108E+03-3.61629E+04 5.93319E+00 6.88115E+03 5.16351E+00
 -1        22 3.78093E+00-5.97934E+05-1.16407E+06 1.04467E+01-8.53417E+05 7.00963E+00
 -1        23 5.45650E+00 5.77628E+03-3.61654E+04-4.62699E-07 6.88107E+03-1.68864E-07
 -1        24 3.82740E+00-5.97893E+05-1.16407E+06-3.17529E-07-8.53407E+05 2.04128E-07
 -1        25-2.93636E+00-1.06815E+04-4.11160E+04-2.36701E+00 1.20605E+04-2.99838E+00
 -1        26 4.65226E+00-2.96853E+05-5.99618E+05 6.80493E+00-4.23154E+05 4.79158E+00
 -1        27-1.87175E+00-4.33903E+05-1.55441E+06-4.56746E+00-8.02709E+05-4.39216E+00
 -1        28 5.46563E+00 5.77368E+03-3.61642E+04-3.23138E-01 6.88111E+03 1.49760E+00
 -1        29 3.80417E+00-5.97913E+05-1.16407E+06-1.21380E+00-8.53412E+05 8.49903E-01
 -1        30-2.95689E+00-1.06820E+04-4.11135E+04-1.71005E-07 1.20615E+04-8.84158E-08
 -1        31 4.66625E+00-2.96828E+05-5.99620E+05-5.96044E-07-4.23152E+05-4.42308E-08
 -1        32-1.84397E+00-4.33918E+05-1.55441E+06-3.30608E-07-8.02714E+05 2.50016E-07
 -1        33 4.56344E+00 1.14257E+04-2.41913E+04 7.03211E+00 1.45033E+03 3.10491E+00
 -1        34 3.70786E+00-7.52197E+05-6.06010E+05 1.09308E+01-6.87296E+05 3.35684E+00
 -1        35 4.60612E+00 1.14414E+04-2.41907E+04 5.77429E-07 1.45327E+03-4.14111E-07
 -1        36 3.75446E+00-7.52132E+05-6.06007E+05-5.78594E-07-6.87286E+05-1.49418E-07
 -1        37-2.47864E+00 3.52585E+03-2.86445E+04-3.45031E+00 4.16355E+03-2.07365E+00
 -1        38 4.14022E+00-3.70654E+05-3.15081E+05 7.76535E+00-3.42559E+05 2.53516E+00
 -1        39-1.88894E+00-6.83593E+05-8.71548E+05-5.67261E+00-7.60865E+05-2.52050E+00
 -1        40 4.58478E+00 1.14336E+04-2.41910E+04-8.86716E-01 1.45180E+03 8.83266E-01
 -1        41 3.73116E+00-7.52165E+05-6.06009E+05-3.54754E+00-6.87291E+05-4.46831E-02
 -1        42-2.46644E+00 3.52096E+03-2.86441E+04 2.28920E-08 4.16264E+03-1.14270E-07
 -1        43 4.18486E+00-3.70613E+05-3.15080E+05 2.85224E-07-3.42556E+05-3.21072E-07
 -1        44-1.84240E+00-6.83619E+05-8.71549E+05-6.62709E-07-7.60870E+05 1.87264E-07
 -1        45 3.54538E+00 1.44760E+04-1.45641E+04 6.67446E+00-1.90183E+03 1.03235E+00
 -1        46 2.90316E+00-7.34150E+05-2.96356E+05 9.33761E+00-4.74076E+05 4.52245E-01
 -1        47 3.60869E+00 1.45054E+04-1.45625E+04-1.60984E-07-1.89704E+03 9.99589E-07
 -1        48 2.91581E+00-7.34058E+05-2.96353E+05 2.20864E-06-4.74066E+05 8.71098E-08
 -1        49-2.03533E+00 8.86626E+03-1.95223E+04-3.45724E+00 7.42805E+02-9.87445E-01
 -1        50 3.27797E+00-3.59805E+05-1.55668E+05 6.99264E+00-2.37747E+05 4.84995E-01
 -1        51-1.76230E+00-7.43503E+05-4.47704E+05-5.00868E+00-5.70910E+05-8.19551E-01
 -1        52 3.57704E+00 1.44907E+04-1.45633E+04-2.44240E+00-1.89944E+03 7.42274E-02
 -1        53 2.90948E+00-7.34104E+05-2.96354E+05-7.19069E+00-4.74071E+05-7.75391E-01
 -1        54-1.98233E+00 8.85514E+03-1.95228E+04 1.89474E-07 7.40753E+02 1.17935E-07
 -1        55 3.31595E+00-3.59744E+05-1.55667E+05 8.23076E-07-2.37744E+05 7.62774E-07
 -1        56-1.73269E+00-7.43542E+05-4.47705E+05 1.54702E-06-5.70915E+05-1.68023E-07
 -1        57 1.95256E+00 1.52253E+04-8.40502E+03 3.64479E+00-2.80908E+03-4.93548E-01
 -1        58 1.62264E+00-6.26243E+05-1.39781E+05 2.85948E+00-3.01816E+05-1.63421E+00
 -1        59 2.16816E+00 1.52713E+04-8.40301E+03-2.51921E-06-2.80346E+03-3.17671E-07
 -1        60 1.77367E+00-6.26118E+05-1.39778E+05-7.49487E-07-3.01808E+05 1.15626E-06
 -1        61-1.48282E+00 1.17637E+04-1.26286E+04-3.07676E+00-1.18748E+03-2.15890E-02
 -1        62 1.66872E+00-3.05407E+05-7.42990E+04 2.43111E+00-1.52209E+05-9.99554E-01
 -1        63-1.11590E+00-6.76887E+05-2.19807E+05-4.06750E+00-3.81391E+05 3.35891E-01
 -1        64 2.06036E+00 1.52483E+04-8.40401E+03-5.10173E+00-2.80627E+03-4.80698E-01
 -1        65 1.69815E+00-6.26181E+05-1.39779E+05-1.20913E+01-3.01812E+05-1.46800E+00
 -1        66-1.34338E+00 1.17450E+04-1.26294E+04 1.00991E-07-1.19018E+03 7.16277E-07
 -1        67 1.85218E+00-3.05322E+05-7.42973E+04-1.89736E-06-1.52207E+05-2.29027E-07
 -1        68-1.03397E+00-6.76940E+05-2.19808E+05 4.43066E-10-3.81396E+05-2.76956E-07
 -1        69-3.77097E-01 1.54964E+04-4.56575E+03 3.22504E+00-2.85890E+03-2.07548E+00
 -1        70-2.27309E+00-4.88738E+05-6.46682E+04 4.08849E+00-1.82718E+05-1.88192E+00
 -1        71-4.31468E-01 1.55619E+04-4.56371E+03-2.83674E-06-2.85186E+03-3.13184E-07
 -1        72-2.66657E+00-4.88578E+05-6.46661E+04 1.96985E-06-1.82705E+05-1.79433E-06
 -1        73-4.19839E-01 1.30510E+04-8.13976E+03-4.31500E-01-1.83022E+03 5.50611E-01
 -1        74-8.58778E-01-2.36576E+05-3.47108E+04 3.02925E+00-9.26977E+04-1.51807E+00
 -1        75-3.30764E-01-5.53431E+05-1.05762E+05 1.45829E+00-2.38732E+05 1.20240E+00
 -1        76-4.04283E-01 1.55292E+04-4.56473E+03-8.54827E+00-2.85538E+03-1.62028E+00
 -1        77-2.46983E+00-4.88658E+05-6.46672E+04-1.88283E+01-1.82712E+05-1.32507E+00
 -1        78-3.39150E-01 1.30232E+04-8.14081E+03-4.74878E-06-1.83306E+03-1.13246E-06
 -1        79-1.08284E+00-2.36461E+05-3.47108E+04-1.47558E-06-9.26958E+04-3.10483E-07
 -1        80-4.52245E-01-5.53504E+05-1.05763E+05-1.26253E-06-2.38735E+05 1.20151E-06
 -1        81-4.58486E+00 1.57111E+04-2.40089E+03-1.38966E+01-2.55310E+03-1.53003E+00
 -1        82-3.68304E+00-3.50870E+05-2.92418E+04-3.44271E+01-1.05563E+05-4.54699E+00
 -1        83-3.60359E+00 1.58021E+04-2.39826E+03-2.31697E-07-2.54673E+03-2.16398E-06
 -1        84-1.77983E+00-3.50650E+05-2.92421E+04 2.19360E-06-1.05569E+05 2.50931E-06
 -1        85 7.04198E-01 1.36696E+04-5.28998E+03-2.56687E+00-2.01244E+03 1.50812E+00
 -1        86-5.67759E+00-1.67554E+05-1.58377E+04-2.48334E+01-5.39807E+04-2.48094E+00
 -1        87 2.25961E+00-4.16006E+05-5.06505E+04-5.25699E+00-1.42567E+05 6.65105E-01
 -1        88-4.09422E+00 1.57566E+04-2.39958E+03-1.39860E+01-2.54991E+03-3.28241E-01
 -1        89-2.73143E+00-3.50760E+05-2.92420E+04-2.64394E+01-1.05566E+05-3.34169E+00
 -1        90 1.16745E+00 1.36313E+04-5.29101E+03-1.10329E-06-2.01653E+03-5.43183E-07
 -1        91-4.23490E+00-1.67403E+05-1.58330E+04-1.50615E-08-5.39793E+04-8.32660E-07
 -1        92 3.01531E+00-4.16094E+05-5.06517E+04 2.27856E-06-1.42578E+05-2.17875E-08
 -1        93-9.61253E+00 1.59948E+04-1.23885E+03 2.18717E+01-2.01271E+03-7.27869E+00
 -1        94-1.97450E+01-2.21998E+05-1.28325E+04 6.41406E+01-5.71035E+04 5.37656E+00
 -1        95-1.13848E+01 1.61111E+04-1.23558E+03 1.33742E-06-1.99545E+03 4.11182E-06
 -1        96-2.71006E+01-2.21761E+05-1.28287E+04-8.39049E-06-5.70297E+04 3.84859E-06
 -1        97 4.27711E+00 1.38415E+04-3.51983E+03 1.66089E+01-1.95449E+03 1.48171E-01
 -1        98-9.15605E+00-1.03201E+05-6.81395E+03 4.32042E+01-2.90737E+04 7.83651E-01
 -1        99 2.80834E+00-2.82849E+05-2.42287E+04 3.97309E+01-8.08364E+04 3.61590E+00
 -1       100-1.04987E+01 1.60530E+04-1.23721E+03-1.86029E+01-2.00408E+03-7.52776E+00
 -1       101-2.34228E+01-2.21880E+05-1.28306E+04-3.91815E+01-5.70666E+04 2.79968E+00
 -1       102 3.88230E+00 1.37884E+04-3.52120E+03-4.12961E-07-1.95672E+03 1.73021E-06
 -1       103-1.37207E+01-1.03006E+05-6.82801E+03-4.77459E-06-2.90678E+04 4.45231E-06
 -1       104 7.92985E-02-2.82979E+05-2.42283E+04 4.57553E-08-8.08194E+04 2.25275E-06
 -1       105-1.87555E+01 1.68226E+04-9.95375E+02-1.48579E+02-2.07581E+03 9.86296E+00
 -1       106 1.94904E+00-1.04604E+05-3.22830E+03-3.65118E+02-2.14011E+04-3.04772E+01
 -1       107-1.31822E+01 1.69886E+04-9.97089E+02 3.95267E-06-2.08291E+03-2.05893E-06
 -1       108 3.21611E+01-1.04164E+05-3.22873E+03-1.59205E-06-2.16055E+04 3.55514E-07
 -1       109 3.85884E+00 1.38489E+04-2.59339E+03-3.79904E+01-2.09916E+03 6.93847E+00
 -1       110-2.81755E+01-4.36484E+04-2.26395E+03-2.60005E+02-1.21820E+04-1.02338E+01
 -1       111 1.24766E+01-1.59516E+05-1.05822E+04-1.02905E+02-3.93012E+04-8.49859E+00
 -1       112-1.59688E+01 1.69056E+04-9.96232E+02-3.22662E+01-2.07936E+03 1.55203E+01
 -1       113 1.70551E+01-1.04384E+05-3.22851E+03-4.39931E+01-2.15033E+04-2.10410E+01
 -1       114 5.75716E+00 1.37849E+04-2.59638E+03 5.03490E-06-2.11387E+03 6.01142E-07
 -1       115-1.02815E+01-4.34021E+04-2.20946E+03-8.85599E-08-1.21758E+04 3.96815E-07
 -1       116 2.39149E+01-1.59626E+05-1.05835E+04-5.40429E-06-3.93967E+04 3.30926E-07
 -1       117-4.94011E+01-6.33301E+03-3.11319E+03 5.17609E+02-7.83358E+03-9.44087E+01
 -1       118-2.33694E+02 3.58037E+04 4.31612E+03 1.35740E+03 1.12050E+04 3.48342E+01
 -1       119-5.85300E+01-8.04563E+03-3.07286E+03 1.71405E-06-7.94097E+03-1.88773E-07
 -1       120-3.54839E+02 3.11532E+04 4.27332E+03-7.55886E-06 1.17243E+04-5.20576E-06
 -1       121 2.04184E+01 1.32448E+04-1.64837E+03 1.86790E+02-1.56055E+03-1.65951E+01
 -1       122-6.87278E+01 1.52121E+04 1.97322E+02 9.53206E+02 6.38653E+02-2.13708E+01
 -1       123 5.77488E-01-4.10942E+04-4.21694E+03 4.64881E+02-1.37803E+04 3.77363E+01
 -1       124-5.39656E+01-7.18932E+03-3.09302E+03 2.70780E+02-7.88727E+03-8.06713E+01
 -1       125-2.94266E+02 3.34785E+04 4.29472E+03 5.26278E+02 1.14647E+04 6.52429E+01
 -1       126 1.86423E+01 1.31435E+04-1.63972E+03 1.65137E-06-1.53967E+03-1.59432E-06
 -1       127-1.33867E+02 1.21682E+04 1.38404E+01-2.49113E-06 5.51408E+02-3.33296E-06
 -1       128-4.48968E+01-4.14254E+04-4.22807E+03-5.67964E-06-1.34719E+04-4.68185E-08
 -1       129 2.68453E+02-1.72253E+04-2.73797E+06 2.11485E+01-2.38966E+04-3.39018E+01
 -1       130 1.04258E+02-6.65629E+04-5.78429E+04-3.90335E+00 1.71751E+04-3.35328E+01
 -1       131 6.63877E+00-1.74170E+04-5.15765E+04-2.90132E+00 2.12523E+04-6.14576E+00
 -1       132 3.67671E+00-2.32824E+05-1.99525E+06-6.44307E+00-7.47152E+05-9.92543E+00
 -1       133 2.68453E+02-1.71691E+04-2.73798E+06 5.04529E+01-2.38903E+04-2.49135E+01
 -1       134 1.04258E+02-6.65589E+04-5.78512E+04-1.96156E+00 1.71897E+04-2.86539E+01
 -1       135 6.62737E+00-1.74175E+04-5.15812E+04 7.06972E-01 2.12506E+04-1.44550E+00
 -1       136 3.68125E+00-2.32814E+05-1.99525E+06 2.67124E-02-7.47147E+05-1.52248E+00
 -1       137 1.86024E+02-3.80479E+04-1.39798E+06-1.69302E+01-1.47681E+03-3.08379E+01
 -1       138-3.63199E+00-2.40719E+04-5.14762E+04 4.95565E-01 1.37205E+04 2.97544E+00
 -1       139 5.18382E+00-1.25966E+05-1.02284E+06-3.27184E+00-3.63771E+05-5.84773E+00
 -1       140-1.83367E+00-1.09487E+05-2.38936E+06 1.76594E+00-4.05797E+05 5.37635E+00
 -1       141 5.47475E+00 5.77108E+03-3.61629E+04-5.93319E+00 6.88115E+03-5.16351E+00
 -1       142 3.78093E+00-5.97934E+05-1.16407E+06-1.04468E+01-8.53417E+05-7.00963E+00
 -1       143 5.46563E+00 5.77368E+03-3.61642E+04 3.23138E-01 6.88111E+03-1.49760E+00
 -1       144 3.80417E+00-5.97913E+05-1.16407E+06 1.21380E+00-8.53412E+05-8.49903E-01
 -1       145-2.93636E+00-1.06815E+04-4.11160E+04 2.36701E+00 1.20605E+04 2.99838E+00
 -1       146 4.65226E+00-2.96853E+05-5.99618E+05-6.80493E+00-4.23154E+05-4.79158E+00
 -1       147-1.87175E+00-4.33903E+05-1.55441E+06 4.56746E+00-8.02709E+05 4.39216E+00
 -1       148 4.56344E+00 1.14257E+04-2.41913E+04-7.03211E+00 1.45033E+03-3.10491E+00
 -1       149 3.70786E+00-7.52197E+05-6.06010E+05-1.09308E+01-6.87296E+05-3.35685E+00
 -1       150 4.58478E+00 1.14336E+04-2.41910E+04 8.86716E-01 1.45180E+03-8.83267E-01
 -1       151 3.73116E+00-7.52165E+05-6.06009E+05 3.54754E+00-6.87291E+05 4.46824E-02
 -1       152-2.47864E+00 3.52585E+03-2.86445E+04 3.45031E+00 4.16355E+03 2.07365E+00
 -1       153 4.14022E+00-3.70654E+05-3.15081E+05-7.76535E+00-3.42559E+05-2.53516E+00
 -1       154-1.88894E+00-6.83593E+05-8.71548E+05 5.67261E+00-7.60865E+05 2.52050E+00
 -1       155 3.54538E+00 1.44760E+04-1.45641E+04-6.67446E+00-1.90183E+03-1.03235E+00
 -1       156 2.90316E+00-7.34150E+05-2.96356E+05-9.33761E+00-4.74076E+05-4.52245E-01
 -1       157 3.57704E+00 1.44907E+04-1.45633E+04 2.44240E+00-1.89944E+03-7.42260E-02
 -1       158 2.90948E+00-7.34104E+05-2.96354E+05 7.19069E+00-4.74071E+05 7.75391E-01
 -1       159-2.03533E+00 8.86626E+03-1.95223E+04 3.45724E+00 7.42805E+02 9.87445E-01
 -1       160 3.27797E+00-3.59805E+05-1.55668E+05-6.99264E+00-2.37747E+05-4.84996E-01
 -1       161-1.76230E+00-7.43503E+05-4.47704E+05 5.00868E+00-5.70910E+05 8.19551E-01
 -1       162 1.95256E+00 1.52253E+04-8.40502E+03-3.64478E+00-2.80908E+03 4.93548E-01
 -1       163 1.62264E+00-6.26243E+05-1.39781E+05-2.85948E+00-3.01816E+05 1.63421E+00
 -1       164 2.06036E+00 1.52483E+04-8.40401E+03 5.10173E+00-2.80627E+03 4.80698E-01
 -1       165 1.69815E+00-6.26181E+05-1.39779E+05 1.20913E+01-3.01812E+05 1.46800E+00
 -1       166-1.48282E+00 1.17637E+04-1.26286E+04 3.07676E+00-1.18748E+03 2.15878E-02
 -1       167 1.66872E+00-3.05407E+05-7.42990E+04-2.43111E+00-1.52209E+05 9.99553E-01
 -1       168-1.11590E+00-6.76887E+05-2.19807E+05 4.06750E+00-3.81391E+05-3.35892E-01
 -1       169-3.77098E-01 1.54964E+04-4.56575E+03-3.22504E+00-2.85890E+03 2.07549E+00
 -1       170-2.27309E+00-4.88738E+05-6.46682E+04-4.08848E+00-1.82718E+05 1.88192E+00
 -1       171-4.04283E-01 1.55292E+04-4.56473E+03 8.54827E+00-2.85538E+03 1.62028E+00
 -1       172-2.46983E+00-4.88658E+05-6.46672E+04 1.88283E+01-1.82712E+05 1.32507E+00
 -1       173-4.19839E-01 1.30510E+04-8.13976E+03 4.31507E-01-1.83022E+03-5.50609E-01
 -1       174-8.58778E-01-2.36576E+05-3.47108E+04-3.02925E+00-9.26977E+04 1.51807E+00
 -1       175-3.30764E-01-5.53431E+05-1.05762E+05-1.45830E+00-2.38732E+05-1.20240E+00
 -1       176-4.58486E+00 1.57111E+04-2.40089E+03 1.38966E+01-2.55310E+03 1.53003E+00
 -1       177-3.68304E+00-3.50870E+05-2.92418E+04 3.44271E+01-1.05563E+05 4.54699E+00
 -1       178-4.09422E+00 1.57566E+04-2.39958E+03 1.39860E+01-2.54991E+03 3.28237E-01
 -1       179-2.73143E+00-3.50760E+05-2.92420E+04 2.64394E+01-1.05566E+05 3.34169E+00
 -1       180 7.04199E-01 1.36696E+04-5.28998E+03 2.56687E+00-2.01244E+03-1.50812E+00
 -1       181-5.67759E+00-1.67554E+05-1.58377E+04 2.48334E+01-5.39807E+04 2.48093E+00
 -1       182 2.25961E+00-4.16006E+05-5.06505E+04 5.25699E+00-1.42567E+05-6.65104E-01
 -1       183-9.61253E+00 1.59948E+04-1.23885E+03-2.18717E+01-2.01271E+03 7.27869E+00
 -1       184-1.97450E+01-2.21998E+05-1.28325E+04-6.41405E+01-5.71035E+04-5.37657E+00
 -1       185-1.04987E+01 1.60530E+04-1.23721E+03 1.86029E+01-2.00408E+03 7.52776E+00
 -1       186-2.34228E+01-2.21880E+05-1.28306E+04 3.91815E+01-5.70666E+04-2.79968E+00
 -1       187 4.27711E+00 1.38415E+04-3.51983E+03-1.66089E+01-1.95449E+03-1.48176E-01
 -1       188-9.15605E+00-1.03201E+05-6.81395E+03-4.32042E+01-2.90737E+04-7.83655E-01
 -1       189 2.80834E+00-2.82849E+05-2.42287E+04-3.97309E+01-8.08364E+04-3.61591E+00
 -1       190-1.87555E+01 1.68226E+04-9.95375E+02 1.48579E+02-2.07581E+03-9.86296E+00
 -1       191 1.94904E+00-1.04604E+05-3.22830E+03 3.65118E+02-2.14011E+04 3.04772E+01
 -1       192-1.59688E+01 1.69056E+04-9.96232E+02 3.22662E+01-2.07936E+03-1.55203E+01
 -1       193 1.70551E+01-1.04384E+05-3.22851E+03 4.39931E+01-2.15033E+04 2.10410E+01
 -1       194 3.85884E+00 1.38489E+04-2.59339E+03 3.79903E+01-2.09916E+03-6.93847E+00
 -1       195-2.81755E+01-4.36484E+04-2.26395E+03 2.60005E+02-1.21820E+04 1.02338E+01
 -1       196 1.24766E+01-1.59516E+05-1.05822E+04 1.02905E+02-3.93012E+04 8.49859E+00
 -1       197-4.94011E+01-6.33301E+03-3.11319E+03-5.17609E+02-7.83358E+03 9.44087E+01
 -1       198-2.33694E+02 3.58037E+04 4.31612E+03-1.35740E+03 1.12050E+04-3.48342E+01
 -1       199-5.39656E+01-7.18932E+03-3.09302E+03-2.70780E+02-7.88727E+03 8.06713E+01
 -1       200-2.94266E+02 3.34785E+04 4.29472E+03-5.26278E+02 1.14647E+04-6.52429E+01
 -1       201 2.04184E+01 1.32448E+04-1.64837E+03-1.86790E+02-1.56055E+03 1.65951E+01
 -1       202-6.87278E+01 1.52121E+04 1.97322E+02-9.53206E+02 6.38653E+02 2.13708E+01
 -1       203 5.77487E-01-4.10942E+04-4.21694E+03-4.64881E+02-1.37803E+04-3.77363E+01
 -1       204 2.44110E+02-1.17557E+05 2.85126E+06-1.07150E+02 6.69914E+04 1.40937E+02
 -1       205 2.07180E+00 2.56580E+05 2.06423E+06 7.76203E+00 7.85251E+05 1.13858E+01
 -1       206 2.44110E+02-1.17638E+05 2.85121E+06 2.42806E-07 6.70633E+04-2.78842E-07
 -1       207 2.15959E+00 2.56595E+05 2.06420E+06-2.39070E-07 7.85253E+05-3.29208E-07
 -1       208 1.74517E+02-9.59062E+04 1.39678E+06-7.71759E+01 4.01992E+04 9.01142E+01
 -1       209-7.31404E-01 8.81279E+04 2.48357E+06-2.69878E+00 4.34050E+05-6.65158E+00
 -1       210 4.32921E+00 1.20427E+05 1.00575E+06 6.73203E+00 4.04073E+05 1.09537E+01
 -1       211 2.44110E+02-1.17598E+05 2.85123E+06-8.57049E+01 6.70274E+04 1.25373E+02
 -1       212 2.11569E+00 2.56587E+05 2.06421E+06-1.47586E+00 7.85252E+05-1.32348E+00
 -1       213 1.74516E+02-9.59909E+04 1.39674E+06 2.74554E-07 4.02655E+04-1.14556E-07
 -1       214-6.87568E-01 8.81245E+04 2.48360E+06-8.86582E-08 4.34049E+05-1.54341E-07
 -1       215 4.36186E+00 1.20433E+05 1.00573E+06-1.15691E-07 4.04073E+05-1.34955E-07
 -1       216 2.36291E+00 6.26993E+05 1.19162E+06 1.07588E+01 8.90307E+05 7.10750E+00
 -1       217 2.41964E+00 6.27031E+05 1.19161E+06-7.47685E-07 8.90315E+05-1.16891E-07
 -1       218-1.21033E+00 4.48373E+05 1.61089E+06-5.10611E+00 8.34910E+05-4.60294E+00
 -1       219 3.89441E+00 3.17153E+05 5.77227E+05 9.73105E+00 4.48480E+05 7.43049E+00
 -1       220 2.39127E+00 6.27012E+05 1.19161E+06-3.21648E+00 8.90311E+05-1.07602E+00
 -1       221-1.13804E+00 4.48361E+05 1.61090E+06-7.98330E-07 8.34908E+05-2.33934E-07
 -1       222 3.91377E+00 3.17174E+05 5.77225E+05-3.99262E-07 4.48486E+05-8.10140E-08
 -1       223 1.56763E+00 7.87723E+05 6.18491E+05 1.02520E+01 7.08761E+05 2.77558E+00
 -1       224 1.59002E+00 7.87792E+05 6.18498E+05 1.38460E-06 7.08776E+05 1.95536E-07
 -1       225-1.04673E+00 7.06406E+05 8.97699E+05-5.63932E+00 7.92660E+05-2.33500E+00
 -1       226 3.06097E+00 3.99843E+05 2.97130E+05 9.85814E+00 3.54742E+05 3.63596E+00
 -1       227 1.57883E+00 7.87758E+05 6.18495E+05-5.50464E+00 7.08769E+05-1.25978E+00
 -1       228-1.00715E+00 7.06379E+05 8.97697E+05 3.13499E-07 7.92654E+05 1.09588E-07
 -1       229 3.09351E+00 3.99884E+05 2.97135E+05 6.95207E-07 3.54755E+05-6.99798E-08
 -1       230 2.06284E-02 7.66372E+05 3.02943E+05 7.69353E+00 4.87340E+05-9.03680E-01
 -1       231 1.26670E-01 7.66474E+05 3.02952E+05-1.72776E-06 4.87359E+05-3.80463E-07
 -1       232-4.34976E-01 7.72362E+05 4.59215E+05-4.51742E+00 5.93825E+05-2.78893E-01
 -1       233 1.72930E+00 3.90392E+05 1.44397E+05 8.19739E+00 2.42477E+05 3.21642E-01
 -1       234 7.36491E-02 7.66422E+05 3.02948E+05-8.91215E+00 4.87349E+05-1.90434E+00
 -1       235-3.70805E-01 7.72320E+05 4.59211E+05-7.21473E-07 5.93816E+05 1.92562E-07
 -1       236 1.81399E+00 3.90457E+05 1.44404E+05-7.43620E-07 2.42493E+05 9.01387E-08
 -1       237-2.81250E+00 6.55420E+05 1.44841E+05 2.00343E-01 3.10189E+05-4.21092E+00
 -1       238-2.99040E+00 6.55555E+05 1.44850E+05 4.35395E-06 3.10212E+05 1.16926E-07
 -1       239 4.90613E-01 7.06305E+05 2.23955E+05-3.04885E+00 3.97529E+05 1.31426E+00
 -1       240-3.11098E-01 3.35221E+05 6.84242E+04 2.74359E+00 1.53586E+05-2.41656E+00
 -1       241-2.90145E+00 6.55487E+05 1.44846E+05-1.37256E+01 3.10200E+05-3.12857E+00
 -1       242 4.54819E-01 7.06244E+05 2.23950E+05 9.22850E-07 3.97520E+05 1.68623E-07
 -1       243-2.92380E-01 3.35312E+05 6.84302E+04 1.18039E-06 1.53605E+05 5.47951E-07
 -1       244-6.43748E+00 5.15391E+05 6.89637E+04-3.27697E-01 1.88719E+05-5.85343E+00
 -1       245-5.51123E+00 5.15569E+05 6.89721E+04-2.91656E-06 1.88737E+05 8.94311E-07
 -1       246 2.40495E+00 5.82260E+05 1.06884E+05 3.06338E+00 2.49920E+05 3.00688E+00
 -1       247-3.87361E+00 2.65399E+05 3.22928E+04 2.07618E+00 9.28392E+04-4.42508E+00
 -1       248-5.97436E+00 5.15480E+05 6.89679E+04-2.06052E+01 1.88728E+05-3.89933E+00
 -1       249 2.77873E+00 5.82184E+05 1.06879E+05 2.27280E-06 2.49907E+05 1.15471E-06
 -1       250-3.43753E+00 2.65519E+05 3.23000E+04-1.83451E-06 9.28598E+04-4.52711E-07
 -1       251-1.42512E+01 3.75634E+05 3.29794E+04-3.94639E+01 1.10279E+05-1.10914E+01
 -1       252-1.70438E+01 3.75838E+05 3.29881E+04 6.66575E-07 1.10329E+05 2.82644E-06
 -1       253 3.99746E+00 4.44009E+05 5.05918E+04-2.65493E+00 1.50703E+05 2.95238E+00
 -1       254-7.87438E+00 1.95647E+05 1.53056E+04-2.60087E+01 5.37854E+04-6.86830E+00
 -1       255-1.56475E+01 3.75736E+05 3.29838E+04-2.90109E+01 1.10304E+05-7.44749E+00
 -1       256 3.06540E+00 4.43907E+05 5.05878E+04-2.74264E-07 1.50698E+05 9.84322E-07
 -1       257-8.78052E+00 1.95800E+05 1.53077E+04 1.21345E-06 5.38124E+04 1.33655E-06
 -1       258-1.90767E+01 2.45269E+05 1.57342E+04 5.21367E+01 6.07439E+04-3.16953E+00
 -1       259-8.62691E+00 2.45577E+05 1.57412E+04 8.91554E-07 6.06994E+04-5.17820E-07
 -1       260 1.09097E+01 3.10470E+05 2.38390E+04 4.27076E+01 8.70340E+04 8.25447E+00
 -1       261-1.98673E+01 1.30831E+05 7.02596E+03 3.68061E+01 2.88812E+04-6.95883E+00
 -1       262-1.38518E+01 2.45423E+05 1.57377E+04-4.15438E+01 6.07216E+04-2.64808E+00
 -1       263 1.47350E+01 3.10365E+05 2.38338E+04-5.89977E-07 8.69890E+04-5.57618E-07
 -1       264-1.55279E+01 1.31025E+05 7.04872E+03 2.36254E-06 2.89072E+04 1.32489E-06
 -1       265-4.92163E+01 1.25698E+05 5.75065E+03-3.63858E+02 2.53062E+04-4.26645E+01
 -1       266-8.43642E+01 1.25881E+05 5.77482E+03-7.43738E-06 2.56660E+04-2.33316E-07
 -1       267 5.58335E+00 1.87021E+05 1.03777E+04-9.57102E+01 4.48801E+04-5.15951E+00
 -1       268-1.42136E+01 7.10179E+04 2.52975E+03-2.53062E+02 1.20588E+04-1.64741E+01
 -1       269-6.67902E+01 1.25790E+05 5.76273E+03-5.30266E+01 2.54861E+04-2.95834E+01
 -1       270-6.75566E+00 1.86822E+05 1.03780E+04-6.39965E-06 4.49674E+04 1.87697E-06
 -1       271-2.90022E+01 7.12493E+04 2.48541E+03-4.73481E-07 1.21232E+04-2.39464E-06
 -1       272 7.87879E+01 3.76874E+04-4.28442E+01 1.51642E+03 5.67078E+03 4.38929E+01
 -1       273 2.00932E+02 3.40524E+04-1.23275E+02-3.78028E-06 3.81672E+03-3.18376E-06
 -1       274 5.57152E+01 6.98105E+04 4.12980E+03 4.63396E+02 1.77160E+04 4.92901E+01
 -1       275-5.81263E+01 1.52005E+04-1.17387E+03 1.00131E+03-3.43341E+01-3.36744E+01
 -1       276 1.39860E+02 3.58699E+04-8.30596E+01 6.51023E+02 4.74375E+03 6.99580E+01
 -1       277 9.92059E+01 6.98128E+04 4.09393E+03-2.17731E-06 1.72768E+04-2.81667E-06
 -1       278-1.61592E+00 1.23890E+04-1.01168E+03-1.46440E-06-7.21861E+02-1.05058E-06
 -1       279 2.44110E+02-1.17557E+05 2.85126E+06 1.07150E+02 6.69914E+04-1.40937E+02
 -1       280 2.07180E+00 2.56580E+05 2.06423E+06-7.76203E+00 7.85251E+05-1.13858E+01
 -1       281 2.44110E+02-1.17598E+05 2.85123E+06 8.57049E+01 6.70274E+04-1.25373E+02
 -1       282 2.11569E+00 2.56587E+05 2.06421E+06 1.47586E+00 7.85252E+05 1.32348E+00
 -1       283 1.74517E+02-9.59062E+04 1.39678E+06 7.71759E+01 4.01992E+04-9.01142E+01
 -1       284-7.31404E-01 8.81279E+04 2.48357E+06 2.69878E+00 4.34050E+05 6.65158E+00
 -1       285 4.32921E+00 1.20427E+05 1.00575E+06-6.73203E+00 4.04073E+05-1.09537E+01
 -1       286 2.36291E+00 6.26993E+05 1.19162E+06-1.07588E+01 8.90307E+05-7.10750E+00
 -1       287 2.39127E+00 6.27012E+05 1.19161E+06 3.21648E+00 8.90311E+05 1.07602E+00
 -1       288-1.21033E+00 4.48373E+05 1.61089E+06 5.10611E+00 8.34910E+05 4.60294E+00
 -1       289 3.89441E+00 3.17153E+05 5.77227E+05-9.73105E+00 4.48480E+05-7.43049E+00
 -1       290 1.56763E+00 7.87723E+05 6.18491E+05-1.02520E+01 7.08761E+05-2.77558E+00
 -1       291 1.57883E+00 7.87758E+05 6.18495E+05 5.50464E+00 7.08769E+05 1.25978E+00
 -1       292-1.04673E+00 7.06406E+05 8.97699E+05 5.63931E+00 7.92660E+05 2.33500E+00
 -1       293 3.06097E+00 3.99843E+05 2.97130E+05-9.85815E+00 3.54742E+05-3.63596E+00
 -1       294 2.06283E-02 7.66372E+05 3.02943E+05-7.69353E+00 4.87340E+05 9.03678E-01
 -1       295 7.36491E-02 7.66422E+05 3.02948E+05 8.91214E+00 4.87349E+05 1.90434E+00
 -1       296-4.34976E-01 7.72362E+05 4.59215E+05 4.51742E+00 5.93825E+05 2.78892E-01
 -1       297 1.72930E+00 3.90392E+05 1.44397E+05-8.19739E+00 2.42477E+05-3.21641E-01
 -1       298-2.81250E+00 6.55420E+05 1.44841E+05-2.00353E-01 3.10189E+05 4.21092E+00
 -1       299-2.90145E+00 6.55487E+05 1.44846E+05 1.37256E+01 3.10200E+05 3.12857E+00
 -1       300 4.90613E-01 7.06305E+05 2.23955E+05 3.04884E+00 3.97529E+05-1.31426E+00
 -1       301-3.11098E-01 3.35221E+05 6.84242E+04-2.74359E+00 1.53586E+05 2.41656E+00
 -1       302-6.43748E+00 5.15391E+05 6.89637E+04 3.27689E-01 1.88719E+05 5.85343E+00
 -1       303-5.97436E+00 5.15480E+05 6.89679E+04 2.06052E+01 1.88728E+05 3.89933E+00
 -1       304 2.40495E+00 5.82260E+05 1.06884E+05-3.06338E+00 2.49920E+05-3.00688E+00
 -1       305-3.87361E+00 2.65399E+05 3.22928E+04-2.07618E+00 9.28392E+04 4.42509E+00
 -1       306-1.42512E+01 3.75634E+05 3.29794E+04 3.94639E+01 1.10279E+05 1.10914E+01
 -1       307-1.56475E+01 3.75736E+05 3.29838E+04 2.90109E+01 1.10304E+05 7.44749E+00
 -1       308 3.99746E+00 4.44009E+05 5.05918E+04 2.65493E+00 1.50703E+05-2.95238E+00
 -1       309-7.87438E+00 1.95647E+05 1.53056E+04 2.60087E+01 5.37854E+04 6.86830E+00
 -1       310-1.90767E+01 2.45269E+05 1.57342E+04-5.21367E+01 6.07439E+04 3.16953E+00
 -1       311-1.38518E+01 2.45423E+05 1.57377E+04 4.15439E+01 6.07216E+04 2.64808E+00
 -1       312 1.09097E+01 3.10470E+05 2.38390E+04-4.27076E+01 8.70340E+04-8.25446E+00
 -1       313-1.98673E+01 1.30831E+05 7.02596E+03-3.68061E+01 2.88812E+04 6.95883E+00
 -1       314-4.92163E+01 1.25698E+05 5.75065E+03 3.63858E+02 2.53062E+04 4.26646E+01
 -1       315-6.67902E+01 1.25790E+05 5.76273E+03 5.30265E+01 2.54861E+04 2.95834E+01
 -1       316 5.58335E+00 1.87021E+05 1.03777E+04 9.57102E+01 4.48801E+04 5.15951E+00
 -1       317-1.42136E+01 7.10179E+04 2.52975E+03 2.53062E+02 1.20588E+04 1.64741E+01
 -1       318 7.87879E+01 3.76874E+04-4.28442E+01-1.51642E+03 5.67078E+03-4.38929E+01
 -1       319 1.39860E+02 3.58699E+04-8.30596E+01-6.51023E+02 4.74375E+03-6.99580E+01
 -1       320 5.57152E+01 6.98105E+04 4.12980E+03-4.63396E+02 1.77160E+04-4.92901E+01
 -1       321-5.81263E+01 1.52005E+04-1.17387E+03-1.00131E+03-3.43341E+01 3.36744E+01
 -3
    1PSTEP                        27          14           1          
  100CL  114 8.50000E-01         321                     0   14           1
 -4  DISP        4    1
 -5  D1          1    2    1    0
 -5  D2          1    2    2    0
 -5  D3          1    2    3    0
 -5  ALL         1    2    0    0    1ALL
 -1         1 0.00000E+00 0.00000E+00 0.00000E+00
 -1         2 0.00000E+00 0.00000E+00 0.00000E+00
 -1         3-1.28350E-07 1.87184E-01-2.36902E-02
 -1         4-3.16183E-07 1.82175E-01-5.02243E-02
 -1         5 0.00000E+00 0.00000E+00 0.00000E+00
 -1         6 0.00000E+00 0.00000E+00 0.00000E+00
 -1         7 2.26864E-15 1.87184E-01-2.36902E-02
 -1         8 1.31339E-15 1.82174E-01-5.02243E-02
 -1         9 0.00000E+00 0.00000E+00 0.00000E+00
 -1        10 2.89413E-08 4.87525E-02-3.27846E-03
 -1        11-2.22273E-07 1.84677E-01-3.69514E-02
 -1        12 7.77681E-08 4.73941E-02-1.73626E-02
 -1        13 0.00000E+00 0.00000E+00 0.00000E+00
 -1        14 0.00000E+00 0.00000E+00 0.00000E+00
 -1        15-6.41770E-08 1.87184E-01-2.36902E-02
 -1        16-1.58090E-07 1.82174E-01-5.02243E-02
 -1        17 0.00000E+00 0.00000E+00 0.00000E+00
 -1        18 1.31594E-16 4.87525E-02-3.27847E-03
 -1        19 1.75719E-15 1.84677E-01-3.69513E-02
 -1        20 5.27761E-16 4.73942E-02-1.73626E-02
 -1        21-2.79262E-07 6.79640E-01-1.57480E-01
 -1        22-6.43265E-07 6.64213E-01-2.02477E-01
 -1        23 9.65707E-15 6.79639E-01-1.57479E-01
 -1        24 7.27484E-15 6.64213E-01-2.02477E-01
 -1        25 9.93989E-08 4.02217E-01-7.28809E-02
 -1        26-4.61251E-07 6.71927E-01-1.79975E-01
 -1        27 2.38451E-07 3.92510E-01-1.09562E-01
 -1        28-1.39633E-07 6.79640E-01-1.57479E-01
 -1        29-3.21629E-07 6.64213E-01-2.02477E-01
 -1        30 4.49477E-15 4.02217E-01-7.28810E-02
 -1        31 8.62542E-15 6.71927E-01-1.79975E-01
 -1        32 5.54301E-15 3.92510E-01-1.09562E-01
 -1        33-4.48431E-07 1.37488E+00-4.41561E-01
 -1        34-9.82072E-07 1.34818E+00-4.98255E-01
 -1        35 1.99572E-14 1.37488E+00-4.41561E-01
 -1        36 1.81578E-14 1.34818E+00-4.98255E-01
 -1        37 1.79842E-07 1.00752E+00-2.80368E-01
 -1        38-7.15250E-07 1.36153E+00-4.69906E-01
 -1        39 4.04856E-07 9.86570E-01-3.31992E-01
 -1        40-2.24212E-07 1.37488E+00-4.41561E-01
 -1        41-4.91033E-07 1.34818E+00-4.98255E-01
 -1        42 1.25969E-14 1.00752E+00-2.80368E-01
 -1        43 1.89297E-14 1.36153E+00-4.69906E-01
 -1        44 1.37965E-14 9.86570E-01-3.31992E-01
 -1        45-6.32689E-07 2.19514E+00-8.71491E-01
 -1        46-1.33254E-06 2.15842E+00-9.35207E-01
 -1        47 3.25582E-14 2.19514E+00-8.71491E-01
 -1        48 3.36690E-14 2.15842E+00-9.35207E-01
 -1        49 2.68592E-07 1.77318E+00-6.39507E-01
 -1        50-9.82534E-07 2.17678E+00-9.03347E-01
 -1        51 5.77237E-07 1.74138E+00-7.00310E-01
 -1        52-3.16339E-07 2.19514E+00-8.71491E-01
 -1        53-6.66270E-07 2.15842E+00-9.35207E-01
 -1        54 2.16734E-14 1.77318E+00-6.39507E-01
 -1        55 3.32493E-14 2.17678E+00-9.03348E-01
 -1        56 2.75431E-14 1.74139E+00-7.00310E-01
 -1        57-8.28625E-07 3.08919E+00-1.42473E+00
 -1        58-1.69155E-06 3.04437E+00-1.49253E+00
 -1        59 4.01730E-14 3.08919E+00-1.42473E+00
 -1        60 4.07218E-14 3.04437E+00-1.49253E+00
 -1        61 3.64127E-07 2.63530E+00-1.13435E+00
 -1        62-1.26023E-06 3.06678E+00-1.45863E+00
 -1        63 7.55261E-07 2.59436E+00-1.20056E+00
 -1        64-4.14296E-07 3.08919E+00-1.42473E+00
 -1        65-8.45768E-07 3.04437E+00-1.49253E+00
 -1        66 3.36180E-14 2.63530E+00-1.13435E+00
 -1        67 4.08846E-14 3.06678E+00-1.45863E+00
 -1        68 4.20021E-14 2.59436E+00-1.20056E+00
 -1        69-1.03091E-06 4.02569E+00-2.07467E+00
 -1        70-2.05518E-06 3.97471E+00-2.14481E+00
 -1        71 4.04886E-14 4.02568E+00-2.07467E+00
 -1        72 3.24959E-14 3.97471E+00-2.14481E+00
 -1        73 4.64585E-07 3.55354E+00-1.73922E+00
 -1        74-1.54240E-06 4.00020E+00-2.10974E+00
 -1        75 9.36326E-07 3.50545E+00-1.80853E+00
 -1        76-5.15458E-07 4.02568E+00-2.07467E+00
 -1        77-1.02761E-06 3.97471E+00-2.14481E+00
 -1        78 4.35874E-14 3.55354E+00-1.73922E+00
 -1        79 3.65863E-14 4.00020E+00-2.10974E+00
 -1        80 5.32408E-14 3.50545E+00-1.80853E+00
 -1        81-1.23159E-06 4.98616E+00-2.79640E+00
 -1        82-2.40666E-06 4.93074E+00-2.86785E+00
 -1        83 2.30014E-14 4.98616E+00-2.79640E+00
 -1        84 4.24722E-15 4.93073E+00-2.86785E+00
 -1        85 5.66365E-07 4.50376E+00-2.42797E+00
 -1        86-1.82113E-06 4.95845E+00-2.83213E+00
 -1        87 1.11854E-06 4.45035E+00-2.49902E+00
 -1        88-6.15724E-07 4.98616E+00-2.79640E+00
 -1        89-1.20323E-06 4.93074E+00-2.86785E+00
 -1        90 1.22309E-14 4.50376E+00-2.42797E+00
 -1        91 1.53710E-14 4.95845E+00-2.83213E+00
 -1        92 8.63821E-15 4.45036E+00-2.49902E+00
 -1        93-1.41625E-06 5.95987E+00-3.56831E+00
 -1        94-2.75086E-06 5.90148E+00-3.64047E+00
 -1        95 2.89074E-14 5.95986E+00-3.56831E+00
 -1        96-4.74135E-15 5.90147E+00-3.64047E+00
 -1        97 6.65638E-07 5.47186E+00-3.17729E+00
 -1        98-2.07613E-06 5.93067E+00-3.60439E+00
 -1        99 1.28883E-06 5.41475E+00-3.24930E+00
 -1       100-7.08252E-07 5.95987E+00-3.56831E+00
 -1       101-1.37584E-06 5.90147E+00-3.64047E+00
 -1       102 2.10731E-14 5.47186E+00-3.17729E+00
 -1       103 1.17685E-14 5.93067E+00-3.60439E+00
 -1       104-1.15491E-16 5.41475E+00-3.24930E+00
 -1       105-1.56788E-06 6.94049E+00-4.37182E+00
 -1       106-2.99097E-06 6.88041E+00-4.44433E+00
 -1       107 4.22955E-14 6.94049E+00-4.37182E+00
 -1       108 3.07711E-15 6.88041E+00-4.44433E+00
 -1       109 7.49840E-07 6.44964E+00-3.96715E+00
 -1       110-2.30632E-06 6.91046E+00-4.40807E+00
 -1       111 1.45957E-06 6.39019E+00-4.03967E+00
 -1       112-7.83533E-07 6.94049E+00-4.37182E+00
 -1       113-1.49374E-06 6.88041E+00-4.44433E+00
 -1       114 4.16230E-14 6.44964E+00-3.96715E+00
 -1       115 2.27583E-14 6.91045E+00-4.40807E+00
 -1       116 2.04951E-14 6.39019E+00-4.03967E+00
 -1       117-1.65137E-06 7.92407E+00-5.19057E+00
 -1       118-3.35705E-06 7.86347E+00-5.26317E+00
 -1       119 4.85914E-14 7.92407E+00-5.19057E+00
 -1       120 1.17345E-14 7.86346E+00-5.26317E+00
 -1       121 8.21961E-07 7.43216E+00-4.78023E+00
 -1       122-2.40239E-06 7.89377E+00-5.22687E+00
 -1       123 1.53833E-06 7.37158E+00-4.85297E+00
 -1       124-8.26349E-07 7.92407E+00-5.19057E+00
 -1       125-1.68567E-06 7.86346E+00-5.26317E+00
 -1       126 5.96337E-14 7.43217E+00-4.78023E+00
 -1       127 3.02630E-14 7.89376E+00-5.22687E+00
 -1       128 3.70800E-14 7.37159E+00-4.85297E+00
 -1       129 0.00000E+00 0.00000E+00 0.00000E+00
 -1       130 0.00000E+00 0.00000E+00 0.00000E+00
 -1       131 1.28350E-07 1.87184E-01-2.36902E-02
 -1       132 3.16183E-07 1.82175E-01-5.02243E-02
 -1       133 0.00000E+00 0.00000E+00 0.00000E+00
 -1       134 0.00000E+00 0.00000E+00 0.00000E+00
 -1       135 6.41770E-08 1.87184E-01-2.36902E-02
 -1       136 1.58090E-07 1.82174E-01-5.02243E-02
 -1       137 0.00000E+00 0.00000E+00 0.00000E+00
 -1       138-2.89413E-08 4.87525E-02-3.27846E-03
 -1       139 2.22273E-07 1.84677E-01-3.69514E-02
 -1       140-7.77681E-08 4.73941E-02-1.73626E-02
 -1       141 2.79262E-07 6.79640E-01-1.57480E-01
 -1       142 6.43265E-07 6.64213E-01-2.02477E-01
 -1       143 1.39633E-07 6.79640E-01-1.57479E-01
 -1       144 3.21629E-07 6.64213E-01-2.02477E-01
 -1       145-9.93989E-08 4.02217E-01-7.28809E-02
 -1       146 4.61252E-07 6.71927E-01-1.79975E-01
 -1       147-2.38451E-07 3.92510E-01-1.09562E-01
 -1       148 4.48431E-07 1.37488E+00-4.41561E-01
 -1       149 9.82072E-07 1.34818E+00-4.98255E-01
 -1       150 2.24212E-07 1.37488E+00-4.41561E-01
 -1       151 4.91033E-07 1.34818E+00-4.98255E-01
 -1       152-1.79842E-07 1.00752E+00-2.80368E-01
 -1       153 7.15250E-07 1.36153E+00-4.69906E-01
 -1       154-4.04856E-07 9.86570E-01-3.31992E-01
 -1       155 6.32689E-07 2.19514E+00-8.71491E-01
 -1       156 1.33254E-06 2.15842E+00-9.35207E-01
 -1       157 3.16339E-07 2.19514E+00-8.71491E-01
 -1       158 6.66270E-07 2.15842E+00-9.35207E-01
 -1       159-2.68592E-07 1.77318E+00-6.39507E-01
 -1       160 9.82535E-07 2.17678E+00-9.03347E-01
 -1       161-5.77236E-07 1.74138E+00-7.00310E-01
 -1       162 8.28625E-07 3.08919E+00-1.42473E+00
 -1       163 1.69155E-06 3.04437E+00-1.49253E+00
 -1       164 4.14296E-07 3.08919E+00-1.42473E+00
 -1       165 8.45768E-07 3.04437E+00-1.49253E+00
 -1       166-3.64126E-07 2.63530E+00-1.13435E+00
 -1       167 1.26023E-06 3.06678E+00-1.45863E+00
 -1       168-7.55261E-07 2.59436E+00-1.20056E+00
 -1       169 1.03091E-06 4.02569E+00-2.07467E+00
 -1       170 2.05518E-06 3.97471E+00-2.14481E+00
 -1       171 5.15458E-07 4.02568E+00-2.07467E+00
 -1       172 1.02761E-06 3.97471E+00-2.14481E+00
 -1       173-4.64585E-07 3.55354E+00-1.73922E+00
 -1       174 1.54240E-06 4.00020E+00-2.10974E+00
 -1       175-9.36326E-07 3.50545E+00-1.80853E+00
 -1       176 1.23159E-06 4.98616E+00-2.79640E+00
 -1       177 2.40666E-06 4.93074E+00-2.86785E+00
 -1       178 6.15724E-07 4.98616E+00-2.79640E+00
 -1       179 1.20323E-06 4.93074E+00-2.86785E+00
 -1       180-5.66365E-07 4.50376E+00-2.42797E+00
 -1       181 1.82113E-06 4.95845E+00-2.83213E+00
 -1       182-1.11854E-06 4.45035E+00-2.49902E+00
 -1       183 1.41625E-06 5.95987E+00-3.56831E+00
 -1       184 2.75086E-06 5.90148E+00-3.64047E+00
 -1       185 7.08252E-07 5.95987E+00-3.56831E+00
 -1       186 1.37584E-06 5.90147E+00-3.64047E+00
 -1       187-6.65638E-07 5.47186E+00-3.17729E+00
 -1       188 2.07613E-06 5.93067E+00-3.60439E+00
 -1       189-1.28883E-06 5.41475E+00-3.24930E+00
 -1       190 1.56788E-06 6.94049E+00-4.37182E+00
 -1       191 2.99097E-06 6.88041E+00-4.44433E+00
 -1       192 7.83533E-07 6.94049E+00-4.37182E+00
 -1       193 1.49374E-06 6.88041E+00-4.44433E+00
 -1       194-7.49840E-07 6.44964E+00-3.96715E+00
 -1       195 2.30632E-06 6.91046E+00-4.40807E+00
 -1       196-1.45957E-06 6.39019E+00-4.03967E+00
 -1       197 1.65137E-06 7.92407E+00-5.19057E+00
 -1       198 3.35705E-06 7.86347E+00-5.26317E+00
 -1       199 8.26349E-07 7.92407E+00-5.19057E+00
 -1       200 1.68567E-06 7.86346E+00-5.26317E+00
 -1       201-8.21961E-07 7.43216E+00-4.78023E+00
 -1       202 2.40239E-06 7.89377E+00-5.22687E+00
 -1       203-1.53833E-06 7.37158E+00-4.85297E+00
 -1       204 0.00000E+00 0.00000E+00 0.00000E+00
 -1       205-2.94155E-07 1.92167E-01 2.82412E-03
 -1       206 0.00000E+00 0.00000E+00 0.00000E+00
 -1       207 1.48115E-15 1.92167E-01 2.82434E-03
 -1       208 0.00000E+00 0.00000E+00 0.00000E+00
 -1       209 7.32203E-08 5.01187E-02 1.08167E-02
 -1       210-2.11245E-07 1.89678E-01-1.04388E-02
 -1       211 0.00000E+00 0.00000E+00 0.00000E+00
 -1       212-1.47070E-07 1.92167E-01 2.82423E-03
 -1       213 0.00000E+00 0.00000E+00 0.00000E+00
 -1       214 1.92233E-16 5.01187E-02 1.08167E-02
 -1       215 1.82243E-15 1.89678E-01-1.04387E-02
 -1       216-5.92966E-07 6.95032E-01-1.12485E-01
 -1       217 8.33481E-15 6.95031E-01-1.12485E-01
 -1       218 2.20934E-07 4.11942E-01-3.61936E-02
 -1       219-4.36114E-07 6.87334E-01-1.34986E-01
 -1       220-2.96479E-07 6.95031E-01-1.12485E-01
 -1       221 4.81438E-15 4.11942E-01-3.61938E-02
 -1       222 9.08195E-15 6.87334E-01-1.34985E-01
 -1       223-8.98413E-07 1.40156E+00-3.84845E-01
 -1       224 1.57336E-14 1.40156E+00-3.84845E-01
 -1       225 3.72024E-07 1.02848E+00-2.28750E-01
 -1       226-6.73386E-07 1.38822E+00-4.13206E-01
 -1       227-4.49205E-07 1.40156E+00-3.84845E-01
 -1       228 1.41230E-14 1.02848E+00-2.28751E-01
 -1       229 1.74897E-14 1.38822E+00-4.13206E-01
 -1       230-1.20833E-06 2.23186E+00-8.07732E-01
 -1       231 2.11149E-14 2.23186E+00-8.07732E-01
 -1       232 5.26356E-07 1.80498E+00-5.78721E-01
 -1       233-9.20558E-07 2.21350E+00-8.39613E-01
 -1       234-6.04161E-07 2.23186E+00-8.07732E-01
 -1       235 2.11101E-14 1.80498E+00-5.78721E-01
 -1       236 2.70856E-14 2.21350E+00-8.39613E-01
 -1       237-1.51846E-06 3.13403E+00-1.35687E+00
 -1       238 2.63362E-14 3.13402E+00-1.35687E+00
 -1       239 6.81959E-07 2.67623E+00-1.06817E+00
 -1       240-1.17330E-06 3.11161E+00-1.39080E+00
 -1       241-7.59239E-07 3.13403E+00-1.35687E+00
 -1       242 3.19229E-14 2.67623E+00-1.06817E+00
 -1       243 3.37603E-14 3.11160E+00-1.39080E+00
 -1       244-1.81818E-06 4.07671E+00-2.00447E+00
 -1       245 3.12152E-14 4.07671E+00-2.00447E+00
 -1       246 8.36459E-07 3.60161E+00-1.66994E+00
 -1       247-1.42525E-06 4.05120E+00-2.03957E+00
 -1       248-9.09032E-07 4.07671E+00-2.00447E+00
 -1       249 3.95591E-14 3.60161E+00-1.66994E+00
 -1       250 3.57676E-14 4.05119E+00-2.03957E+00
 -1       251-2.10069E-06 5.04165E+00-2.72489E+00
 -1       252 2.52489E-14 5.04164E+00-2.72489E+00
 -1       253 9.81793E-07 4.55713E+00-2.35695E+00
 -1       254-1.66367E-06 5.01390E+00-2.76065E+00
 -1       255-1.05052E-06 5.04165E+00-2.72489E+00
 -1       256 2.57786E-14 4.55713E+00-2.35695E+00
 -1       257 2.57792E-14 5.01390E+00-2.76065E+00
 -1       258-2.32251E-06 6.01835E+00-3.49609E+00
 -1       259 4.20812E-14 6.01835E+00-3.49609E+00
 -1       260 1.11901E-06 5.52893E+00-3.10530E+00
 -1       261-1.87777E-06 5.98911E+00-3.53220E+00
 -1       262-1.16062E-06 6.01835E+00-3.49609E+00
 -1       263 5.58889E-14 5.52893E+00-3.10530E+00
 -1       264 3.52925E-14 5.98910E+00-3.53220E+00
 -1       265-2.52827E-06 7.00071E+00-4.29925E+00
 -1       266 6.39712E-14 7.00070E+00-4.29925E+00
 -1       267 1.20307E-06 6.50903E+00-3.89467E+00
 -1       268-2.01870E-06 6.97060E+00-4.33554E+00
 -1       269-1.26625E-06 7.00070E+00-4.29925E+00
 -1       270 7.08194E-14 6.50904E+00-3.89467E+00
 -1       271 5.29910E-14 6.97059E+00-4.33554E+00
 -1       272-2.40205E-06 7.98487E+00-5.11789E+00
 -1       273 6.19447E-14 7.98486E+00-5.11789E+00
 -1       274 1.32968E-06 7.49267E+00-4.70753E+00
 -1       275-2.13158E-06 7.95447E+00-5.15423E+00
 -1       276-1.19380E-06 7.98486E+00-5.11789E+00
 -1       277 9.16133E-14 7.49267E+00-4.70753E+00
 -1       278 5.57280E-14 7.95446E+00-5.15423E+00
 -1       279 0.00000E+00 0.00000E+00 0.00000E+00
 -1       280 2.94155E-07 1.92167E-01 2.82412E-03
 -1       281 0.00000E+00 0.00000E+00 0.00000E+00
 -1       282 1.47070E-07 1.92167E-01 2.82423E-03
 -1       283 0.00000E+00 0.00000E+00 0.00000E+00
 -1       284-7.32203E-08 5.01187E-02 1.08167E-02
 -1       285 2.11245E-07 1.89678E-01-1.04388E-02
 -1       286 5.92966E-07 6.95032E-01-1.12485E-01
 -1       287 2.96479E-07 6.95031E-01-1.12485E-01
 -1       288-2.20934E-07 4.11942E-01-3.61936E-02
 -1       289 4.36114E-07 6.87334E-01-1.34986E-01
 -1       290 8.98413E-07 1.40156E+00-3.84845E-01
 -1       291 4.49205E-07 1.40156E+00-3.84845E-01
 -1       292-3.72024E-07 1.02848E+00-2.28750E-01
 -1       293 6.73386E-07 1.38822E+00-4.13206E-01
 -1       294 1.20833E-06 2.23186E+00-8.07732E-01
 -1       295 6.04161E-07 2.23186E+00-8.07732E-01
 -1       296-5.26356E-07 1.80498E+00-5.78721E-01
 -1       297 9.20558E-07 2.21350E+00-8.39613E-01
 -1       298 1.51846E-06 3.13403E+00-1.35687E+00
 -1       299 7.59239E-07 3.13403E+00-1.35687E+00
 -1       300-6.81959E-07 2.67623E+00-1.06817E+00
 -1       301 1.17330E-06 3.11161E+00-1.39080E+00
 -1       302 1.81818E-06 4.07671E+00-2.00447E+00
 -1       303 9.09032E-07 4.07671E+00-2.00447E+00
 -1       304-8.36459E-07 3.60161E+00-1.66994E+00
 -1       305 1.42525E-06 4.05120E+00-2.03957E+00
 -1       306 2.10069E-06 5.04165E+00-2.72489E+00
 -1       307 1.05052E-06 5.04165E+00-2.72489E+00
 -1       308-9.81793E-07 4.55713E+00-2.35695E+00
 -1       309 1.66367E-06 5.01390E+00-2.76065E+00
 -1       310 2.32251E-06 6.01835E+00-3.49609E+00
 -1       311 1.16062E-06 6.01835E+00-3.49609E+00
 -1       312-1.11901E-06 5.52893E+00-3.10530E+00
 -1       313 1.87777E-06 5.98911E+00-3.53220E+00
 -1       314 2.52827E-06 7.00071E+00-4.29925E+00
 -1       315 1.26625E-06 7.00070E+00-4.29925E+00
 -1       316-1.20307E-06 6.50903E+00-3.89467E+00
 -1       317 2.01870E-06 6.97060E+00-4.33554E+00
 -1       318 2.40205E-06 7.98487E+00-5.11789E+00
 -1       319 1.19380E-06 7.98486E+00-5.11789E+00
 -1       320-1.32968E-06 7.49267E+00-4.70753E+00
 -1       321 2.13158E-06 7.95447E+00-5.15423E+00
 -3
    1PSTEP                        28          14           1          
  100CL  114 8.50000E-01         321                     0   14           1
 -4  STRESS      6    1
 -5  SXX         1    4    1    1
 -5  SYY         1    4    2    2
 -5  SZZ         1    4    3    3
 -5  SXY         1    4    1    2
 -5  SYZ         1    4    2    3
 -5  SZX         1    4    3    1
 -1         1 3.22796E+02-1.72593E+04-2.94334E+06-1.48180E+01-3.02503E+04 2.99592E+01
 -1         2 1.24176E+02-7.71565E+04-6.68339E+04 8.56535E+00 2.02035E+04 3.57099E+01
 -1         3 7.55509E+00-1.79943E+04-5.92568E+04 3.70776E+00 2.37388E+04 7.01389E+00
 -1         4 3.09365E+00-2.82581E+05-2.07914E+06 7.75828E+00-8.41270E+05 1.10442E+01
 -1         5 3.22796E+02-1.71344E+04-2.94335E+06 2.05610E-07-3.02328E+04-1.37677E-07
 -1         6 1.24176E+02-7.71467E+04-6.68526E+04 1.55888E-07 2.02377E+04 5.94053E-08
 -1         7 7.52324E+00-1.79961E+04-5.92667E+04-1.17311E-08 2.37348E+04-2.99503E-08
 -1         8 3.11874E+00-2.82559E+05-2.07914E+06 2.37402E-07-8.41259E+05 1.15721E-09
 -1         9 2.23063E+02-4.25184E+04-1.50516E+06 2.71535E+01-2.98214E+03 2.91669E+01
 -1        10-4.16828E+00-2.70870E+04-5.91219E+04-6.69855E-01 1.51591E+04-3.46809E+00
 -1        11 5.35915E+00-1.51402E+05-1.06844E+06 3.87951E+00-4.09703E+05 6.34592E+00
 -1        12-1.46797E+00-1.32850E+05-2.53845E+06-2.09006E+00-4.61445E+05-6.13680E+00
 -1        13 3.22796E+02-1.71968E+04-2.94334E+06-5.03443E+01-3.02415E+04 1.95412E+01
 -1        14 1.24176E+02-7.71516E+04-6.68433E+04 5.66822E+00 2.02206E+04 2.99855E+01
 -1        15 7.53916E+00-1.79952E+04-5.92618E+04-7.30222E-01 2.37368E+04 1.63295E+00
 -1        16 3.10619E+00-2.82570E+05-2.07914E+06-1.94087E-01-8.41264E+05 1.52467E+00
 -1        17 2.23063E+02-4.23981E+04-1.50517E+06 3.50787E-07-2.97266E+03-6.58252E-08
 -1        18-4.18422E+00-2.70853E+04-5.91143E+04 4.59139E-08 1.51621E+04-7.29695E-09
 -1        19 5.35553E+00-1.51390E+05-1.06845E+06 1.48214E-07-4.09700E+05-7.99782E-09
 -1        20-1.45546E+00-1.32855E+05-2.53845E+06 2.46552E-07-4.61451E+05-4.75019E-08
 -1        21 6.10853E+00 8.52901E+03-3.99543E+04 7.32693E+00 6.34494E+03 5.52750E+00
 -1        22 3.46858E+00-6.92264E+05-1.14209E+06 1.24924E+01-9.11124E+05 7.19078E+00
 -1        23 6.08312E+00 8.53476E+03-3.99565E+04 5.29170E-07 6.34492E+03 5.83097E-08
 -1        24 3.52821E+00-6.92216E+05-1.14209E+06-2.91016E-07-9.11113E+05 1.25641E-07
 -1        25-3.28762E+00-1.08054E+04-4.61216E+04-2.98258E+00 1.27832E+04-3.33155E+00
 -1        26 4.81979E+00-3.42786E+05-5.90454E+05 8.14650E+00-4.52149E+05 4.85440E+00
 -1        27-1.66825E+00-5.10783E+05-1.57819E+06-5.52283E+00-8.77130E+05-4.72441E+00
 -1        28 6.09582E+00 8.53189E+03-3.99554E+04-2.54314E-01 6.34493E+03 1.57440E+00
 -1        29 3.49839E+00-6.92240E+05-1.14209E+06-1.67017E+00-9.11118E+05 6.85223E-01
 -1        30-3.31626E+00-1.08057E+04-4.61191E+04 2.63560E-07 1.27843E+04-1.32872E-08
 -1        31 4.83674E+00-3.42757E+05-5.90456E+05 5.38880E-08-4.52146E+05 3.07220E-08
 -1        32-1.62588E+00-5.10800E+05-1.57819E+06-3.38806E-07-8.77136E+05 6.74020E-08
 -1        33 5.04540E+00 1.41222E+04-2.54793E+04 8.44452E+00 3.59362E+02 2.92353E+00
 -1        34 3.50434E+00-8.32451E+05-5.54336E+05 1.27658E+01-6.93373E+05 2.73722E+00
 -1        35 5.10117E+00 1.41405E+04-2.54784E+04 4.44676E-07 3.62726E+02-3.50428E-07
 -1        36 3.55130E+00-8.32376E+05-5.54332E+05-4.56509E-07-6.93362E+05 3.29686E-08
 -1        37-2.74034E+00 5.19673E+03-3.09030E+04-4.19716E+00 3.60659E+03-2.09326E+00
 -1        38 4.28340E+00-4.09410E+05-2.89969E+05 9.11405E+00-3.46046E+05 2.06901E+00
 -1        39-1.76942E+00-7.71231E+05-8.32882E+05-6.70329E+00-7.89167E+05-2.35636E+00
 -1        40 5.07329E+00 1.41313E+04-2.54789E+04-9.67492E-01 3.61044E+02 7.93793E-01
 -1        41 3.52782E+00-8.32414E+05-5.54334E+05-4.47770E+00-6.93367E+05-2.96144E-01
 -1        42-2.72517E+00 5.19108E+03-3.09029E+04 8.52949E-07 3.60549E+03-7.42501E-08
 -1        43 4.33477E+00-4.09362E+05-2.89969E+05 1.29742E-07-3.46043E+05-9.60724E-08
 -1        44-1.71613E+00-7.71262E+05-8.32883E+05-5.62318E-07-7.89173E+05-1.47238E-07
 -1        45 3.90560E+00 1.69080E+04-1.44338E+04 7.81261E+00-2.96025E+03 5.24212E-01
 -1        46 2.61336E+00-7.80736E+05-2.51823E+05 1.05684E+01-4.52439E+05-5.48727E-01
 -1        47 3.99013E+00 1.69423E+04-1.44320E+04-5.41585E-07-2.95517E+03 5.22969E-08
 -1        48 2.62924E+00-7.80628E+05-2.51820E+05 3.57842E-06-4.52429E+05 4.99394E-07
 -1        49-2.24103E+00 1.07710E+04-2.02463E+04-4.09707E+00 3.08862E+01-7.84293E-01
 -1        50 3.31714E+00-3.81815E+05-1.33435E+05 7.98858E+00-2.27446E+05-2.56976E-01
 -1        51-1.65469E+00-8.05376E+05-4.00414E+05-5.74668E+00-5.61080E+05-3.73833E-01
 -1        52 3.94787E+00 1.69252E+04-1.44329E+04-2.85053E+00-2.95771E+03-1.17099E-01
 -1        53 2.62130E+00-7.80682E+05-2.51822E+05-8.77115E+00-4.52434E+05-1.02412E+00
 -1        54-2.17089E+00 1.07580E+04-2.02469E+04-1.72027E-07 2.86399E+01-1.97227E-07
 -1        55 3.36735E+00-3.81745E+05-1.33434E+05 1.16336E-06-2.27445E+05-1.00633E-09
 -1        56-1.62329E+00-8.05422E+05-4.00416E+05 6.35767E-07-5.61086E+05 2.98759E-07
 -1        57 2.11963E+00 1.73600E+04-7.76720E+03 4.17268E+00-3.53327E+03-1.10808E+00
 -1        58 1.07085E+00-6.43973E+05-1.09946E+05 2.73550E+00-2.73357E+05-2.66806E+00
 -1        59 2.38576E+00 1.74136E+04-7.76512E+03 1.14461E-06-3.52772E+03-1.57726E-06
 -1        60 1.19582E+00-6.43827E+05-1.09945E+05-6.34566E-07-2.73350E+05-7.11625E-08
 -1        61-1.62970E+00 1.36803E+04-1.25666E+04-3.54927E+00-1.78248E+03 2.84493E-01
 -1        62 1.48005E+00-3.13158E+05-5.91215E+04 2.51335E+00-1.38369E+05-1.76489E+00
 -1        63-9.15260E-01-7.07494E+05-1.83954E+05-4.49813E+00-3.55762E+05 8.66473E-01
 -1        64 2.25269E+00 1.73868E+04-7.76616E+03-5.96083E+00-3.53049E+03-6.96392E-01
 -1        65 1.13333E+00-6.43900E+05-1.09946E+05-1.45346E+01-2.73353E+05-1.64919E+00
 -1        66-1.45439E+00 1.36585E+04-1.25675E+04 1.22368E-06-1.78521E+03-9.79807E-07
 -1        67 1.67578E+00-3.13059E+05-5.91200E+04 7.20397E-07-1.38369E+05-7.46212E-07
 -1        68-8.44769E-01-7.07556E+05-1.83955E+05 2.09963E-06-3.55767E+05 2.49054E-07
 -1        69-5.20518E-01 1.74590E+04-3.83174E+03 3.53775E+00-3.29450E+03-2.65834E+00
 -1        70-3.44775E+00-4.88907E+05-4.68585E+04 3.93715E+00-1.57608E+05-2.74758E+00
 -1        71-5.71348E-01 1.75353E+04-3.82980E+03 3.08177E-06-3.28798E+03 1.88424E-07
 -1        72-3.77120E+00-4.88720E+05-4.68571E+04-4.29554E-06-1.57597E+05-7.43026E-07
 -1        73-4.30747E-01 1.49173E+04-7.80672E+03-4.56896E-01-2.21113E+03 8.67161E-01
 -1        74-1.52533E+00-2.35655E+05-2.54617E+04 3.03201E+00-8.03800E+04-2.13549E+00
 -1        75 6.32814E-02-5.61352E+05-8.30313E+04 2.06613E+00-2.12095E+05 1.66638E+00
 -1        76-5.45933E-01 1.74972E+04-3.83077E+03-1.00319E+01-3.29124E+03-1.81191E+00
 -1        77-3.60948E+00-4.88814E+05-4.68578E+04-2.23458E+01-1.57602E+05-1.38598E+00
 -1        78-3.23026E-01 1.48850E+04-7.80783E+03 1.76703E-07-2.21380E+03 8.19457E-08
 -1        79-1.71262E+00-2.35522E+05-2.54618E+04-1.32421E-06-8.03806E+04 1.50506E-07
 -1        80-3.61895E-02-5.61437E+05-8.30316E+04-1.24970E-06-2.12097E+05-9.19781E-07
 -1        81-5.34030E+00 1.76022E+04-1.74502E+03-1.61083E+01-2.79434E+03-2.00673E+00
 -1        82-5.62413E+00-3.43244E+05-1.92986E+04-4.10456E+01-8.70036E+04-4.93836E+00
 -1        83-4.17788E+00 1.77076E+04-1.74203E+03 3.86834E-06-2.78880E+03 1.53314E-06
 -1        84-3.94826E+00-3.42989E+05-1.93005E+04-6.02906E-06-8.70163E+04 4.11241E-06
 -1        85 8.42371E-01 1.54932E+04-4.90672E+03-2.81709E+00-2.22877E+03 1.76889E+00
 -1        86-6.96708E+00-1.62785E+05-1.05399E+04-2.92681E+01-4.48290E+04-2.77818E+00
 -1        87 2.99712E+00-4.11686E+05-3.75277E+04-5.66817E+00-1.21118E+05 1.03776E+00
 -1        88-4.75909E+00 1.76549E+04-1.74352E+03-1.61470E+01-2.79157E+03-5.03798E-01
 -1        89-4.78619E+00-3.43116E+05-1.92996E+04-3.14963E+01-8.70100E+04-3.20242E+00
 -1        90 1.39798E+00 1.54486E+04-4.90765E+03 3.99666E-06-2.23246E+03 3.48454E-07
 -1        91-5.54741E+00-1.62610E+05-1.05357E+04-2.25844E-06-4.48307E+04 6.58625E-07
 -1        92 3.67407E+00-4.11790E+05-3.75286E+04-5.54750E-06-1.21129E+05 2.77580E-06
 -1        93-1.11344E+01 1.78868E+04-7.02101E+02 2.46399E+01-2.10109E+03-7.41196E+00
 -1        94-2.32823E+01-2.13185E+05-7.64921E+03 7.30002E+01-4.54175E+04 4.88607E+00
 -1        95-1.31907E+01 1.80233E+04-6.99922E+02 6.60387E-07-2.08537E+03 7.36503E-07
 -1        96-2.98905E+01-2.12904E+05-7.64404E+03 5.07537E-06-4.53359E+04-2.64195E-06
 -1        97 4.95839E+00 1.56210E+04-3.16170E+03 1.91245E+01-2.04210E+03 3.90924E-01
 -1        98-1.19331E+01-9.78275E+04-3.96183E+03 4.89436E+01-2.32115E+04 7.04699E-01
 -1        99 4.23211E+00-2.74262E+05-1.71531E+04 4.67951E+01-6.61270E+04 3.57993E+00
 -1       100-1.21626E+01 1.79551E+04-7.01011E+02-2.21046E+01-2.09323E+03-7.40345E+00
 -1       101-2.65864E+01-2.13044E+05-7.64663E+03-4.56619E+01-4.53767E+04 2.93822E+00
 -1       102 4.51209E+00 1.55599E+04-3.16352E+03-5.52726E-07-2.04387E+03 1.29995E-06
 -1       103-1.62661E+01-9.76010E+04-3.97520E+03 1.70976E-06-2.32105E+04-5.04801E-07
 -1       104 1.76347E+00-2.74413E+05-1.71517E+04-9.76754E-07-6.61035E+04-5.53047E-07
 -1       105-2.17157E+01 1.87876E+04-5.68404E+02-1.70542E+02-2.23653E+03 9.20458E+00
 -1       106-3.30195E+00-9.83228E+04-1.09366E+03-4.25130E+02-1.53620E+04-2.84829E+01
 -1       107-1.52026E+01 1.89765E+04-5.66590E+02-2.37300E-07-2.24382E+03 3.70988E-06
 -1       108 2.46530E+01-9.78274E+04-1.10131E+03-5.58066E-06-1.56183E+04-8.49281E-07
 -1       109 4.45282E+00 1.55831E+04-2.26946E+03-4.32240E+01-2.16384E+03 6.78136E+00
 -1       110-3.12587E+01-3.95458E+04-9.50317E+02-3.00739E+02-9.30155E+03-9.26054E+00
 -1       111 1.39215E+01-1.51650E+05-7.23323E+03-1.18822E+02-3.08228E+04-7.95572E+00
 -1       112-1.84591E+01 1.88821E+04-5.67497E+02-3.58614E+01-2.24018E+03 1.47408E+01
 -1       113 1.06755E+01-9.80751E+04-1.09749E+03-5.41975E+01-1.54901E+04-1.98753E+01
 -1       114 6.67926E+00 1.55072E+04-2.27118E+03 5.38681E-07-2.17741E+03 3.04366E-06
 -1       115-1.40232E+01-3.92589E+04-8.99465E+02 8.53383E-07-9.29815E+03 5.92154E-07
 -1       116 2.46037E+01-1.51786E+05-7.23588E+03 4.50387E-08-3.09327E+04-1.04091E-06
 -1       117-5.73352E+01-7.60792E+03-2.51280E+03 5.87914E+02-7.76822E+03-9.02924E+01
 -1       118-2.38059E+02 4.17633E+04 3.78558E+03 1.58211E+03 1.12936E+04 3.86023E+01
 -1       119-6.79452E+01-9.58195E+03-2.48173E+03-6.08055E-07-7.87087E+03-3.17189E-06
 -1       120-3.52422E+02 3.64118E+04 3.76134E+03-1.07533E-05 1.20203E+04 6.75431E-07
 -1       121 2.36877E+01 1.49082E+04-1.30803E+03 2.14100E+02-1.41074E+03-1.56983E+01
 -1       122-7.88039E+01 1.74863E+04 2.95723E+02 1.09955E+03 6.24980E+02-1.75431E+01
 -1       123 6.72503E+00-3.67276E+04-3.18013E+03 5.40918E+02-1.16842E+04 3.51500E+01
 -1       124-6.26402E+01-8.59493E+03-2.49727E+03 3.04996E+02-7.81955E+03-7.70817E+01
 -1       125-2.95241E+02 3.90876E+04 3.77346E+03 6.25887E+02 1.16570E+04 6.71302E+01
 -1       126 2.16408E+01 1.47960E+04-1.30344E+03 2.33887E-06-1.39075E+03-7.37469E-07
 -1       127-1.41294E+02 1.39566E+04 1.23862E+02-8.58565E-06 5.81089E+02-3.38264E-06
 -1       128-3.64862E+01-3.70873E+04-3.18643E+03-8.02193E-06-1.13102E+04 5.24981E-08
 -1       129 3.22796E+02-1.72593E+04-2.94334E+06 1.48180E+01-3.02503E+04-2.99592E+01
 -1       130 1.24176E+02-7.71565E+04-6.68339E+04-8.56535E+00 2.02035E+04-3.57099E+01
 -1       131 7.55509E+00-1.79943E+04-5.92568E+04-3.70776E+00 2.37388E+04-7.01389E+00
 -1       132 3.09365E+00-2.82581E+05-2.07914E+06-7.75828E+00-8.41270E+05-1.10442E+01
 -1       133 3.22796E+02-1.71968E+04-2.94334E+06 5.03443E+01-3.02415E+04-1.95412E+01
 -1       134 1.24176E+02-7.71516E+04-6.68433E+04-5.66822E+00 2.02206E+04-2.99855E+01
 -1       135 7.53916E+00-1.79952E+04-5.92618E+04 7.30222E-01 2.37368E+04-1.63295E+00
 -1       136 3.10619E+00-2.82570E+05-2.07914E+06 1.94087E-01-8.41264E+05-1.52467E+00
 -1       137 2.23063E+02-4.25184E+04-1.50516E+06-2.71535E+01-2.98214E+03-2.91669E+01
 -1       138-4.16828E+00-2.70870E+04-5.91219E+04 6.69855E-01 1.51591E+04 3.46809E+00
 -1       139 5.35915E+00-1.51402E+05-1.06844E+06-3.87951E+00-4.09703E+05-6.34592E+00
 -1       140-1.46797E+00-1.32850E+05-2.53845E+06 2.09006E+00-4.61445E+05 6.13680E+00
 -1       141 6.10853E+00 8.52901E+03-3.99543E+04-7.32693E+00 6.34494E+03-5.52750E+00
 -1       142 3.46858E+00-6.92264E+05-1.14209E+06-1.24924E+01-9.11124E+05-7.19078E+00
 -1       143 6.09582E+00 8.53189E+03-3.99554E+04 2.54315E-01 6.34493E+03-1.57440E+00
 -1       144 3.49839E+00-6.92240E+05-1.14209E+06 1.67016E+00-9.11118E+05-6.85223E-01
 -1       145-3.28762E+00-1.08054E+04-4.61216E+04 2.98258E+00 1.27832E+04 3.33155E+00
 -1       146 4.81979E+00-3.42786E+05-5.90454E+05-8.14650E+00-4.52149E+05-4.85440E+00
 -1       147-1.66825E+00-5.10783E+05-1.57819E+06 5.52283E+00-8.77130E+05 4.72441E+00
 -1       148 5.04540E+00 1.41222E+04-2.54793E+04-8.44452E+00 3.59362E+02-2.92353E+00
 -1       149 3.50434E+00-8.32451E+05-5.54336E+05-1.27658E+01-6.93373E+05-2.73721E+00
 -1       150 5.07329E+00 1.41313E+04-2.54789E+04 9.67491E-01 3.61044E+02-7.93793E-01
 -1       151 3.52782E+00-8.32414E+05-5.54334E+05 4.47770E+00-6.93367E+05 2.96145E-01
 -1       152-2.74034E+00 5.19673E+03-3.09030E+04 4.19716E+00 3.60659E+03 2.09326E+00
 -1       153 4.28340E+00-4.09410E+05-2.89969E+05-9.11405E+00-3.46046E+05-2.06901E+00
 -1       154-1.76942E+00-7.71231E+05-8.32882E+05 6.70329E+00-7.89167E+05 2.35636E+00
 -1       155 3.90560E+00 1.69080E+04-1.44338E+04-7.81260E+00-2.96025E+03-5.24212E-01
 -1       156 2.61336E+00-7.80736E+05-2.51823E+05-1.05684E+01-4.52439E+05 5.48725E-01
 -1       157 3.94787E+00 1.69252E+04-1.44329E+04 2.85053E+00-2.95771E+03 1.17099E-01
 -1       158 2.62130E+00-7.80682E+05-2.51822E+05 8.77115E+00-4.52434E+05 1.02412E+00
 -1       159-2.24103E+00 1.07710E+04-2.02463E+04 4.09707E+00 3.08862E+01 7.84294E-01
 -1       160 3.31714E+00-3.81815E+05-1.33435E+05-7.98858E+00-2.27446E+05 2.56975E-01
 -1       161-1.65469E+00-8.05376E+05-4.00414E+05 5.74668E+00-5.61080E+05 3.73833E-01
 -1       162 2.11963E+00 1.73600E+04-7.76720E+03-4.17269E+00-3.53327E+03 1.10808E+00
 -1       163 1.07085E+00-6.43973E+05-1.09946E+05-2.73549E+00-2.73357E+05 2.66805E+00
 -1       164 2.25269E+00 1.73868E+04-7.76616E+03 5.96082E+00-3.53049E+03 6.96393E-01
 -1       165 1.13333E+00-6.43900E+05-1.09946E+05 1.45346E+01-2.73353E+05 1.64919E+00
 -1       166-1.62970E+00 1.36803E+04-1.25666E+04 3.54927E+00-1.78248E+03-2.84492E-01
 -1       167 1.48005E+00-3.13158E+05-5.91215E+04-2.51335E+00-1.38369E+05 1.76489E+00
 -1       168-9.15260E-01-7.07494E+05-1.83954E+05 4.49813E+00-3.55762E+05-8.66475E-01
 -1       169-5.20517E-01 1.74590E+04-3.83174E+03-3.53775E+00-3.29450E+03 2.65834E+00
 -1       170-3.44775E+00-4.88907E+05-4.68585E+04-3.93714E+00-1.57608E+05 2.74758E+00
 -1       171-5.45933E-01 1.74972E+04-3.83077E+03 1.00319E+01-3.29124E+03 1.81191E+00
 -1       172-3.60948E+00-4.88814E+05-4.68578E+04 2.23458E+01-1.57602E+05 1.38599E+00
 -1       173-4.30748E-01 1.49173E+04-7.80672E+03 4.56897E-01-2.21113E+03-8.67161E-01
 -1       174-1.52533E+00-2.35655E+05-2.54617E+04-3.03201E+00-8.03800E+04 2.13549E+00
 -1       175 6.32816E-02-5.61352E+05-8.30313E+04-2.06613E+00-2.12095E+05-1.66638E+00
 -1       176-5.34030E+00 1.76022E+04-1.74502E+03 1.61083E+01-2.79434E+03 2.00673E+00
 -1       177-5.62413E+00-3.43244E+05-1.92986E+04 4.10456E+01-8.70036E+04 4.93835E+00
 -1       178-4.75909E+00 1.76549E+04-1.74352E+03 1.61470E+01-2.79157E+03 5.03799E-01
 -1       179-4.78619E+00-3.43116E+05-1.92996E+04 3.14963E+01-8.70100E+04 3.20242E+00
 -1       180 8.42372E-01 1.54932E+04-4.90672E+03 2.81709E+00-2.22877E+03-1.76889E+00
 -1       181-6.96708E+00-1.62785E+05-1.05399E+04 2.92681E+01-4.48290E+04 2.77818E+00
 -1       182 2.99712E+00-4.11686E+05-3.75277E+04 5.66818E+00-1.21118E+05-1.03776E+00
 -1       183-1.11344E+01 1.78868E+04-7.02101E+02-2.46399E+01-2.10109E+03 7.41196E+00
 -1       184-2.32823E+01-2.13185E+05-7.64921E+03-7.30002E+01-4.54175E+04-4.88607E+00
 -1       185-1.21626E+01 1.79551E+04-7.01011E+02 2.21046E+01-2.09323E+03 7.40345E+00
 -1       186-2.65864E+01-2.13044E+05-7.64663E+03 4.56619E+01-4.53767E+04-2.93822E+00
 -1       187 4.95839E+00 1.56210E+04-3.16170E+03-1.91245E+01-2.04210E+03-3.90924E-01
 -1       188-1.19331E+01-9.78275E+04-3.96183E+03-4.89436E+01-2.32115E+04-7.04701E-01
 -1       189 4.23211E+00-2.74262E+05-1.71531E+04-4.67951E+01-6.61270E+04-3.57994E+00
 -1       190-2.17157E+01 1.87876E+04-5.68404E+02 1.70542E+02-2.23653E+03-9.20459E+00
 -1       191-3.30195E+00-9.83228E+04-1.09366E+03 4.25130E+02-1.53620E+04 2.84829E+01
 -1       192-1.84591E+01 1.88821E+04-5.67497E+02 3.58614E+01-2.24018E+03-1.47409E+01
 -1       193 1.06755E+01-9.80751E+04-1.09749E+03 5.41975E+01-1.54901E+04 1.98753E+01
 -1       194 4.45282E+00 1.55831E+04-2.26946E+03 4.32240E+01-2.16384E+03-6.78136E+00
 -1       195-3.12587E+01-3.95458E+04-9.50317E+02 3.00739E+02-9.30155E+03 9.26054E+00
 -1       196 1.39215E+01-1.51650E+05-7.23323E+03 1.18822E+02-3.08228E+04 7.95572E+00
 -1       197-5.73352E+01-7.60792E+03-2.51280E+03-5.87914E+02-7.76822E+03 9.02924E+01
 -1       198-2.38059E+02 4.17633E+04 3.78558E+03-1.58211E+03 1.12936E+04-3.86023E+01
 -1       199-6.26402E+01-8.59493E+03-2.49727E+03-3.04996E+02-7.81955E+03 7.70817E+01
 -1       200-2.95241E+02 3.90876E+04 3.77346E+03-6.25887E+02 1.16570E+04-6.71302E+01
 -1       201 2.36877E+01 1.49082E+04-1.30803E+03-2.14100E+02-1.41074E+03 1.56983E+01
 -1       202-7.88039E+01 1.74863E+04 2.95723E+02-1.09955E+03 6.24980E+02 1.75431E+01
 -1       203 6.72503E+00-3.67276E+04-3.18013E+03-5.40918E+02-1.16842E+04-3.51500E+01
 -1       204 2.86700E+02-1.39218E+05 3.07370E+06-1.16259E+02 8.15982E+04 1.57001E+02
 -1       205 2.01856E+00 3.12891E+05 2.15474E+06 9.84568E+00 8.86700E+05 1.30817E+01
 -1       206 2.86700E+02-1.39305E+05 3.07364E+06-1.92707E-07 8.16773E+04 7.55994E-08
 -1       207 2.13114E+00 3.12907E+05 2.15471E+06-2.91755E-07 8.86701E+05 6.43602E-08
 -1       208 2.05861E+02-1.12877E+05 1.50350E+06-8.41265E+01 4.88596E+04 1.00023E+02
 -1       209-5.49166E-01 1.08722E+05 2.64612E+06-3.49545E+00 4.94987E+05-7.85743E+00
 -1       210 4.75205E+00 1.48562E+05 1.04698E+06 8.63023E+00 4.56157E+05 1.27309E+01
 -1       211 2.86700E+02-1.39262E+05 3.07367E+06-9.15751E+01 8.16377E+04 1.38491E+02
 -1       212 2.07485E+00 3.12899E+05 2.15472E+06-1.63234E+00 8.86701E+05-1.56355E+00
 -1       213 2.05861E+02-1.12968E+05 1.50346E+06-1.88447E-07 4.89326E+04 9.41915E-08
 -1       214-4.92962E-01 1.08718E+05 2.64615E+06-1.21399E-07 4.94986E+05-1.46657E-08
 -1       215 4.79264E+00 1.48568E+05 1.04696E+06-1.87121E-07 4.56156E+05 1.08062E-08
 -1       216 2.63726E+00 7.28457E+05 1.16913E+06 1.33303E+01 9.52092E+05 7.51364E+00
 -1       217 2.70282E+00 7.28502E+05 1.16913E+06-6.35770E-07 9.52102E+05 1.25969E-07
 -1       218-1.28626E+00 5.29420E+05 1.63983E+06-6.41679E+00 9.14618E+05-5.07303E+00
 -1       219 4.34166E+00 3.69411E+05 5.64019E+05 1.20918E+01 4.78978E+05 8.02531E+00
 -1       220 2.67004E+00 7.28479E+05 1.16913E+06-3.61892E+00 9.52097E+05-1.28566E+00
 -1       221-1.19714E+00 5.29405E+05 1.63984E+06-5.65596E-07 9.14616E+05 2.52743E-08
 -1       222 4.36189E+00 3.69435E+05 5.64019E+05 1.18891E-08 4.78986E+05 1.53393E-07
 -1       223 1.90424E+00 8.74293E+05 5.66049E+05 1.24861E+01 7.15434E+05 2.26993E+00
 -1       224 1.92313E+00 8.74374E+05 5.66057E+05-1.84907E-06 7.15452E+05 6.99932E-07
 -1       225-1.20061E+00 7.99352E+05 8.59292E+05-6.91516E+00 8.24641E+05-2.23425E+00
 -1       226 3.46629E+00 4.44453E+05 2.70347E+05 1.19564E+01 3.57436E+05 3.35810E+00
 -1       227 1.91369E+00 8.74334E+05 5.66053E+05-6.21238E+00 7.15443E+05-1.48606E+00
 -1       228-1.15836E+00 7.99321E+05 8.59290E+05-7.97130E-07 8.24634E+05 2.77025E-07
 -1       229 3.50362E+00 4.44502E+05 2.70353E+05-8.37856E-07 3.57451E+05 1.12095E-07
 -1       230 2.78857E-01 8.17775E+05 2.58253E+05 9.30139E+00 4.65523E+05-1.89953E+00
 -1       231 3.77294E-01 8.17895E+05 2.58263E+05 1.33975E-06 4.65543E+05 1.19054E-07
 -1       232-5.80997E-01 8.39662E+05 4.11048E+05-5.47211E+00 5.85587E+05 1.58609E-01
 -1       233 2.03457E+00 4.17243E+05 1.22216E+05 9.75893E+00 2.31028E+05-4.42942E-01
 -1       234 3.28075E-01 8.17835E+05 2.58258E+05-1.01160E+01 4.65533E+05-2.19542E+00
 -1       235-5.22376E-01 8.39612E+05 4.11043E+05 2.28189E-07 5.85577E+05 3.24164E-07
 -1       236 2.12604E+00 4.17320E+05 1.22223E+05 7.54141E-07 2.31046E+05 3.62527E-07
 -1       237-2.78616E+00 6.77355E+05 1.15302E+05 4.91134E-01 2.81494E+05-5.39997E+00
 -1       238-2.97416E+00 6.77512E+05 1.15311E+05-7.69803E-07 2.81517E+05-9.92963E-07
 -1       239 4.09559E-01 7.41867E+05 1.87127E+05-3.69161E+00 3.72476E+05 1.89883E+00
 -1       240-2.18079E-01 3.47209E+05 5.40321E+04 3.27265E+00 1.38904E+05-3.37720E+00
 -1       241-2.88016E+00 6.77433E+05 1.15306E+05-1.56848E+01 2.81505E+05-3.48496E+00
 -1       242 3.64913E-01 7.41797E+05 1.87122E+05-2.14771E-06 3.72466E+05-9.65135E-08
 -1       243-1.79194E-01 3.47316E+05 5.40378E+04-2.77968E-07 1.38924E+05-1.36311E-06
 -1       244-6.85827E+00 5.19615E+05 5.15372E+04-1.51564E-02 1.63494E+05-7.00589E+00
 -1       245-5.93817E+00 5.19821E+05 5.15455E+04 9.22540E-07 1.63511E+05 5.76187E-07
 -1       246 2.48925E+00 5.94820E+05 8.33977E+04 3.43072E+00 2.23366E+05 3.62589E+00
 -1       247-4.14820E+00 2.68468E+05 2.39693E+04 2.46674E+00 8.00286E+04-5.39959E+00
 -1       248-6.39822E+00 5.19718E+05 5.15414E+04-2.35725E+01 1.63503E+05-4.28097E+00
 -1       249 2.85491E+00 5.94731E+05 8.33935E+04-3.74130E-07 2.23353E+05 9.49364E-07
 -1       250-3.71341E+00 2.68608E+05 2.39762E+04 2.71948E-06 8.00496E+04-4.55016E-08
 -1       251-1.52719E+01 3.72061E+05 2.33680E+04-4.53878E+01 9.16856E+04-1.21022E+01
 -1       252-1.80253E+01 3.72301E+05 2.33757E+04-1.91065E-06 9.17376E+04-2.29034E-06
 -1       253 4.33343E+00 4.44186E+05 3.69117E+04-3.31866E+00 1.29144E+05 3.51225E+00
 -1       254-8.82121E+00 1.94796E+05 1.08296E+04-3.00569E+01 4.43757E+04-7.74883E+00
 -1       255-1.66486E+01 3.72181E+05 2.33719E+04-3.34048E+01 9.17116E+04-7.77431E+00
 -1       256 3.41785E+00 4.44068E+05 3.69077E+04 1.40978E-06 1.29140E+05 3.47301E-08
 -1       257-9.61724E+00 1.94973E+05 1.08312E+04 2.15693E-06 4.44026E+04 1.78555E-06
 -1       258-2.17948E+01 2.40489E+05 1.07740E+04 6.15471E+01 4.89688E+04-4.13913E+00
 -1       259-1.15866E+01 2.40838E+05 1.07825E+04-3.00791E-06 4.89119E+04 1.61150E-07
 -1       260 1.17292E+01 3.06372E+05 1.63532E+04 4.93040E+01 7.21010E+04 8.68685E+00
 -1       261-2.17399E+01 1.29366E+05 4.82211E+03 4.29699E+01 2.28861E+04-7.74319E+00
 -1       262-1.66907E+01 2.40664E+05 1.07782E+04-4.73902E+01 4.89403E+04-3.17921E+00
 -1       263 1.54535E+01 3.06247E+05 1.63489E+04-1.40414E-06 7.20525E+04-5.40641E-07
 -1       264-1.76631E+01 1.29591E+05 4.84450E+03-1.56412E-08 2.29132E+04 9.04992E-10
 -1       265-5.15050E+01 1.23308E+05 3.75029E+03-4.21898E+02 1.94293E+04-4.23484E+01
 -1       266-8.52649E+01 1.23555E+05 3.76725E+03 4.90132E-06 1.98309E+04 1.15117E-07
 -1       267 7.00868E+00 1.83706E+05 6.71338E+03-1.11666E+02 3.62330E+04-4.54868E+00
 -1       268-1.78605E+01 7.08260E+04 1.71023E+03-2.93317E+02 9.09865E+03-1.69505E+01
 -1       269-6.83849E+01 1.23431E+05 3.75877E+03-6.20556E+01 1.96301E+04-2.88903E+01
 -1       270-4.75835E+00 1.83486E+05 6.71219E+03-3.37876E-06 3.63365E+04-1.69975E-06
 -1       271-3.14852E+01 7.10991E+04 1.66584E+03-1.43035E-06 9.16063E+03 2.75064E-06
 -1       272 5.80704E+01 4.31943E+04-1.59401E+02 1.73493E+03 5.24217E+03 3.58074E+01
 -1       273 1.73609E+02 3.88395E+04-2.16814E+02-1.15507E-05 3.22237E+03-7.00921E-06
 -1       274 5.86549E+01 7.01261E+04 2.87483E+03 5.37276E+02 1.50900E+04 4.82055E+01
 -1       275-6.85253E+01 1.73846E+04-9.95437E+02 1.14688E+03-1.25332E+02-3.55445E+01
 -1       276 1.15840E+02 4.10169E+04-1.88107E+02 7.42650E+02 4.23227E+03 6.16783E+01
 -1       277 9.95379E+01 7.00849E+04 2.84449E+03-2.21431E-08 1.45931E+04-4.14732E-06
 -1       278-1.60581E+01 1.40871E+04-8.33331E+02-3.17441E-06-8.30605E+02-2.95614E-06
 -1       279 2.86700E+02-1.39218E+05 3.07370E+06 1.16259E+02 8.15982E+04-1.57001E+02
 -1       280 2.01856E+00 3.12891E+05 2.15474E+06-9.84568E+00 8.86700E+05-1.30817E+01
 -1       281 2.86700E+02-1.39262E+05 3.07367E+06 9.15751E+01 8.16377E+04-1.38491E+02
 -1       282 2.07485E+00 3.12899E+05 2.15472E+06 1.63234E+00 8.86701E+05 1.56355E+00
 -1       283 2.05861E+02-1.12877E+05 1.50350E+06 8.41265E+01 4.88596E+04-1.00023E+02
 -1       284-5.49166E-01 1.08722E+05 2.64612E+06 3.49545E+00 4.94987E+05 7.85743E+00
 -1       285 4.75205E+00 1.48562E+05 1.04698E+06-8.63023E+00 4.56157E+05-1.27309E+01
 -1       286 2.63726E+00 7.28457E+05 1.16913E+06-1.33303E+01 9.52092E+05-7.51364E+00
 -1       287 2.67004E+00 7.28479E+05 1.16913E+06 3.61892E+00 9.52097E+05 1.28566E+00
 -1       288-1.28626E+00 5.29420E+05 1.63983E+06 6.41679E+00 9.14618E+05 5.07303E+00
 -1       289 4.34166E+00 3.69411E+05 5.64019E+05-1.20918E+01 4.78978E+05-8.02531E+00
 -1       290 1.90424E+00 8.74293E+05 5.66049E+05-1.24861E+01 7.15434E+05-2.26993E+00
 -1       291 1.91369E+00 8.74334E+05 5.66053E+05 6.21238E+00 7.15443E+05 1.48606E+00
 -1       292-1.20061E+00 7.99352E+05 8.59292E+05 6.91516E+00 8.24641E+05 2.23425E+00
 -1       293 3.46629E+00 4.44453E+05 2.70347E+05-1.19564E+01 3.57436E+05-3.35810E+00
 -1       294 2.78857E-01 8.17775E+05 2.58253E+05-9.30138E+00 4.65523E+05 1.89953E+00
 -1       295 3.28075E-01 8.17835E+05 2.58258E+05 1.01160E+01 4.65533E+05 2.19542E+00
 -1       296-5.80997E-01 8.39662E+05 4.11048E+05 5.47211E+00 5.85587E+05-1.58609E-01
 -1       297 2.03457E+00 4.17243E+05 1.22216E+05-9.75893E+00 2.31028E+05 4.42941E-01
 -1       298-2.78616E+00 6.77355E+05 1.15302E+05-4.91133E-01 2.81494E+05 5.39997E+00
 -1       299-2.88016E+00 6.77433E+05 1.15306E+05 1.56848E+01 2.81505E+05 3.48496E+00
 -1       300 4.09559E-01 7.41867E+05 1.87127E+05 3.69161E+00 3.72476E+05-1.89883E+00
 -1       301-2.18079E-01 3.47209E+05 5.40321E+04-3.27265E+00 1.38904E+05 3.37721E+00
 -1       302-6.85827E+00 5.19615E+05 5.15372E+04 1.51469E-02 1.63494E+05 7.00589E+00
 -1       303-6.39822E+00 5.19718E+05 5.15414E+04 2.35724E+01 1.63503E+05 4.28098E+00
 -1       304 2.48925E+00 5.94820E+05 8.33977E+04-3.43072E+00 2.23366E+05-3.62589E+00
 -1       305-4.14820E+00 2.68468E+05 2.39693E+04-2.46674E+00 8.00286E+04 5.39959E+00
 -1       306-1.52719E+01 3.72061E+05 2.33680E+04 4.53878E+01 9.16856E+04 1.21022E+01
 -1       307-1.66486E+01 3.72181E+05 2.33719E+04 3.34048E+01 9.17116E+04 7.77431E+00
 -1       308 4.33343E+00 4.44186E+05 3.69117E+04 3.31865E+00 1.29144E+05-3.51225E+00
 -1       309-8.82121E+00 1.94796E+05 1.08296E+04 3.00569E+01 4.43757E+04 7.74883E+00
 -1       310-2.17948E+01 2.40489E+05 1.07740E+04-6.15471E+01 4.89688E+04 4.13912E+00
 -1       311-1.66907E+01 2.40664E+05 1.07782E+04 4.73902E+01 4.89403E+04 3.17921E+00
 -1       312 1.17292E+01 3.06372E+05 1.63532E+04-4.93040E+01 7.21010E+04-8.68685E+00
 -1       313-2.17399E+01 1.29366E+05 4.82211E+03-4.29699E+01 2.28861E+04 7.74319E+00
 -1       314-5.15050E+01 1.23308E+05 3.75029E+03 4.21898E+02 1.94293E+04 4.23484E+01
 -1       315-6.83849E+01 1.23431E+05 3.75877E+03 6.20556E+01 1.96301E+04 2.88903E+01
 -1       316 7.00868E+00 1.83706E+05 6.71338E+03 1.11666E+02 3.62330E+04 4.54868E+00
 -1       317-1.78605E+01 7.08260E+04 1.71023E+03 2.93317E+02 9.09865E+03 1.69505E+01
 -1       318 5.80704E+01 4.31943E+04-1.59401E+02-1.73493E+03 5.24217E+03-3.58074E+01
 -1       319 1.15840E+02 4.10169E+04-1.88107E+02-7.42650E+02 4.23227E+03-6.16783E+01
 -1       320 5.86549E+01 7.01261E+04 2.87483E+03-5.37276E+02 1.50900E+04-4.82055E+01
 -1       321-6.85253E+01 1.73846E+04-9.95437E+02-1.14688E+03-1.25332E+02 3.55445E+01
 -3
    1PSTEP                        29          15           1          
  100CL  115 9.62500E-01         321                     0   15           1
 -4  DISP        4    1
 -5  D1          1    2    1    0
 -5  D2          1    2    2    0
 -5  D3          1    2    3    0
 -5  ALL         1    2    0    0    1ALL
 -1         1 0.00000E+00 0.00000E+00 0.00000E+00
 -1         2 0.00000E+00 0.00000E+00 0.00000E+00
 -1         3-1.48829E-07 1.98319E-01-2.66221E-02
 -1         4-3.68593E-07 1.92697E-01-5.46551E-02
 -1         5 0.00000E+00 0.00000E+00 0.00000E+00
 -1         6 0.00000E+00 0.00000E+00 0.00000E+00
 -1         7 6.93055E-13 1.98319E-01-2.66220E-02
 -1         8 4.46135E-13 1.92697E-01-5.46552E-02
 -1         9 0.00000E+00 0.00000E+00 0.00000E+00
 -1        10 3.36475E-08 5.17908E-02-3.69528E-03
 -1        11-2.58719E-07 1.95506E-01-4.06320E-02
 -1        12 9.11653E-08 5.02628E-02-1.86351E-02
 -1        13 0.00000E+00 0.00000E+00 0.00000E+00
 -1        14 0.00000E+00 0.00000E+00 0.00000E+00
 -1        15-7.44169E-08 1.98319E-01-2.66221E-02
 -1        16-1.84293E-07 1.92697E-01-5.46551E-02
 -1        17 0.00000E+00 0.00000E+00 0.00000E+00
 -1        18 1.83393E-13 5.17908E-02-3.69530E-03
 -1        19 5.69557E-13 1.95506E-01-4.06319E-02
 -1        20 6.61128E-14 5.02628E-02-1.86351E-02
 -1        21-3.22912E-07 7.15160E-01-1.75088E-01
 -1        22-7.46369E-07 6.98145E-01-2.22042E-01
 -1        23 2.54476E-12 7.15160E-01-1.75088E-01
 -1        24 2.06763E-12 6.98145E-01-2.22042E-01
 -1        25 1.15171E-07 4.24777E-01-8.14902E-02
 -1        26-5.34627E-07 7.06654E-01-1.98561E-01
 -1        27 2.77485E-07 4.13994E-01-1.20007E-01
 -1        28-1.61457E-07 7.15160E-01-1.75088E-01
 -1        29-3.73179E-07 6.98145E-01-2.22042E-01
 -1        30 1.49891E-12 4.24777E-01-8.14902E-02
 -1        31 2.30635E-12 7.06654E-01-1.98561E-01
 -1        32 1.13126E-12 4.13995E-01-1.20007E-01
 -1        33-5.17028E-07 1.43648E+00-4.85576E-01
 -1        34-1.13502E-06 1.40749E+00-5.44069E-01
 -1        35 5.19477E-12 1.43648E+00-4.85576E-01
 -1        36 4.53966E-12 1.40749E+00-5.44069E-01
 -1        37 2.07721E-07 1.05635E+00-3.09986E-01
 -1        38-8.26017E-07 1.42199E+00-5.14820E-01
 -1        39 4.68946E-07 1.03344E+00-3.63560E-01
 -1        40-2.58507E-07 1.43648E+00-4.85576E-01
 -1        41-5.67505E-07 1.40749E+00-5.44069E-01
 -1        42 3.79679E-12 1.05635E+00-3.09987E-01
 -1        43 4.86697E-12 1.42199E+00-5.14820E-01
 -1        44 3.22505E-12 1.03344E+00-3.63559E-01
 -1        45-7.27566E-07 2.27900E+00-9.48945E-01
 -1        46-1.53481E-06 2.23966E+00-1.01410E+00
 -1        47 8.27037E-12 2.27900E+00-9.48945E-01
 -1        48 7.47794E-12 2.23966E+00-1.01410E+00
 -1        49 3.09324E-07 1.84654E+00-6.99673E-01
 -1        50-1.13110E-06 2.25933E+00-9.81519E-01
 -1        51 6.66104E-07 1.81226E+00-7.62133E-01
 -1        52-3.63772E-07 2.27900E+00-9.48945E-01
 -1        53-7.67402E-07 2.23966E+00-1.01410E+00
 -1        54 6.69734E-12 1.84654E+00-6.99673E-01
 -1        55 7.87421E-12 2.25933E+00-9.81519E-01
 -1        56 5.96819E-12 1.81226E+00-7.62133E-01
 -1        57-9.50789E-07 3.19022E+00-1.53825E+00
 -1        58-1.94239E-06 3.14272E+00-1.60713E+00
 -1        59 1.15089E-11 3.19022E+00-1.53825E+00
 -1        60 1.06063E-11 3.14272E+00-1.60713E+00
 -1        61 4.18300E-07 2.72837E+00-1.22973E+00
 -1        62-1.44671E-06 3.16647E+00-1.57269E+00
 -1        63 8.68663E-07 2.68476E+00-1.29721E+00
 -1        64-4.75369E-07 3.19022E+00-1.53825E+00
 -1        65-9.71186E-07 3.14272E+00-1.60713E+00
 -1        66 9.87700E-12 2.72837E+00-1.22973E+00
 -1        67 1.10582E-11 3.16647E+00-1.57269E+00
 -1        68 9.02562E-12 2.68476E+00-1.29721E+00
 -1        69-1.18084E-06 4.13941E+00-2.22412E+00
 -1        70-2.35296E-06 4.08583E+00-2.29505E+00
 -1        71 1.47472E-11 4.13941E+00-2.22412E+00
 -1        72 1.37588E-11 4.08583E+00-2.29505E+00
 -1        73 5.32625E-07 3.66141E+00-1.87084E+00
 -1        74-1.76627E-06 4.11262E+00-2.25958E+00
 -1        75 1.07378E-06 3.61066E+00-1.94108E+00
 -1        76-5.90415E-07 4.13941E+00-2.22412E+00
 -1        77-1.17649E-06 4.08583E+00-2.29505E+00
 -1        78 1.31448E-11 3.66141E+00-1.87084E+00
 -1        79 1.42531E-11 4.11262E+00-2.25958E+00
 -1        80 1.21937E-11 3.61066E+00-1.94108E+00
 -1        81-1.40886E-06 5.10925E+00-2.98034E+00
 -1        82-2.74828E-06 5.05135E+00-3.05238E+00
 -1        83 1.78940E-11 5.10925E+00-2.98034E+00
 -1        84 1.68420E-11 5.05135E+00-3.05238E+00
 -1        85 6.48306E-07 4.62251E+00-2.59488E+00
 -1        86-2.08044E-06 5.08030E+00-3.01636E+00
 -1        87 1.27885E-06 4.56656E+00-2.66663E+00
 -1        88-7.04335E-07 5.10925E+00-2.98034E+00
 -1        89-1.37404E-06 5.05135E+00-3.05238E+00
 -1        90 1.63194E-11 4.62251E+00-2.59488E+00
 -1        91 1.73703E-11 5.08030E+00-3.01636E+00
 -1        92 1.52929E-11 4.56656E+00-2.66663E+00
 -1        93-1.61862E-06 6.09008E+00-3.78499E+00
 -1        94-3.12959E-06 6.02934E+00-3.85761E+00
 -1        95 2.09461E-11 6.09008E+00-3.78499E+00
 -1        96 1.98404E-11 6.02933E+00-3.85761E+00
 -1        97 7.61076E-07 5.59873E+00-3.37780E+00
 -1        98-2.36715E-06 6.05971E+00-3.82130E+00
 -1        99 1.47026E-06 5.53920E+00-3.45035E+00
 -1       100-8.09445E-07 6.09008E+00-3.78499E+00
 -1       101-1.56515E-06 6.02934E+00-3.85761E+00
 -1       102 1.94311E-11 5.59873E+00-3.37780E+00
 -1       103 2.03931E-11 6.05970E+00-3.82130E+00
 -1       104 1.83453E-11 5.53920E+00-3.45035E+00
 -1       105-1.79090E-06 7.07649E+00-4.61982E+00
 -1       106-3.40006E-06 7.01414E+00-4.69271E+00
 -1       107 2.39487E-11 7.07648E+00-4.61982E+00
 -1       108 2.28185E-11 7.01413E+00-4.69271E+00
 -1       109 8.56729E-07 6.58287E+00-4.19963E+00
 -1       110-2.62057E-06 7.04532E+00-4.65627E+00
 -1       111 1.65663E-06 6.52110E+00-4.27258E+00
 -1       112-8.94973E-07 7.07648E+00-4.61982E+00
 -1       113-1.69842E-06 7.01414E+00-4.69271E+00
 -1       114 2.24534E-11 6.58287E+00-4.19963E+00
 -1       115 2.33842E-11 7.04531E+00-4.65627E+00
 -1       116 2.13371E-11 6.52111E+00-4.27258E+00
 -1       117-1.88585E-06 8.06522E+00-5.46910E+00
 -1       118-3.76830E-06 8.00239E+00-5.54207E+00
 -1       119 2.69593E-11 8.06522E+00-5.46910E+00
 -1       120 2.58176E-11 8.00237E+00-5.54207E+00
 -1       121 9.38720E-07 7.57078E+00-5.04354E+00
 -1       122-2.73165E-06 8.03380E+00-5.50558E+00
 -1       123 1.75127E-06 7.50794E+00-5.11666E+00
 -1       124-9.43665E-07 8.06522E+00-5.46910E+00
 -1       125-1.89084E-06 8.00238E+00-5.54207E+00
 -1       126 2.54607E-11 7.57078E+00-5.04354E+00
 -1       127 2.63861E-11 8.03379E+00-5.50558E+00
 -1       128 2.43263E-11 7.50794E+00-5.11666E+00
 -1       129 0.00000E+00 0.00000E+00 0.00000E+00
 -1       130 0.00000E+00 0.00000E+00 0.00000E+00
 -1       131 1.48830E-07 1.98319E-01-2.66221E-02
 -1       132 3.68594E-07 1.92697E-01-5.46551E-02
 -1       133 0.00000E+00 0.00000E+00 0.00000E+00
 -1       134 0.00000E+00 0.00000E+00 0.00000E+00
 -1       135 7.44183E-08 1.98319E-01-2.66221E-02
 -1       136 1.84294E-07 1.92697E-01-5.46551E-02
 -1       137 0.00000E+00 0.00000E+00 0.00000E+00
 -1       138-3.36471E-08 5.17908E-02-3.69528E-03
 -1       139 2.58721E-07 1.95506E-01-4.06320E-02
 -1       140-9.11652E-08 5.02628E-02-1.86351E-02
 -1       141 3.22917E-07 7.15160E-01-1.75088E-01
 -1       142 7.46373E-07 6.98145E-01-2.22042E-01
 -1       143 1.61462E-07 7.15160E-01-1.75088E-01
 -1       144 3.73183E-07 6.98145E-01-2.22042E-01
 -1       145-1.15168E-07 4.24777E-01-8.14902E-02
 -1       146 5.34631E-07 7.06654E-01-1.98561E-01
 -1       147-2.77483E-07 4.13994E-01-1.20007E-01
 -1       148 5.17038E-07 1.43648E+00-4.85576E-01
 -1       149 1.13503E-06 1.40749E+00-5.44069E-01
 -1       150 2.58517E-07 1.43648E+00-4.85576E-01
 -1       151 5.67514E-07 1.40749E+00-5.44069E-01
 -1       152-2.07714E-07 1.05635E+00-3.09986E-01
 -1       153 8.26027E-07 1.42199E+00-5.14820E-01
 -1       154-4.68939E-07 1.03344E+00-3.63560E-01
 -1       155 7.27582E-07 2.27900E+00-9.48945E-01
 -1       156 1.53483E-06 2.23966E+00-1.01410E+00
 -1       157 3.63788E-07 2.27900E+00-9.48945E-01
 -1       158 7.67417E-07 2.23966E+00-1.01410E+00
 -1       159-3.09311E-07 1.84654E+00-6.99673E-01
 -1       160 1.13112E-06 2.25933E+00-9.81519E-01
 -1       161-6.66093E-07 1.81226E+00-7.62133E-01
 -1       162 9.50812E-07 3.19022E+00-1.53825E+00
 -1       163 1.94242E-06 3.14272E+00-1.60713E+00
 -1       164 4.75392E-07 3.19022E+00-1.53825E+00
 -1       165 9.71207E-07 3.14272E+00-1.60713E+00
 -1       166-4.18280E-07 2.72837E+00-1.22973E+00
 -1       167 1.44673E-06 3.16647E+00-1.57269E+00
 -1       168-8.68645E-07 2.68476E+00-1.29721E+00
 -1       169 1.18087E-06 4.13941E+00-2.22412E+00
 -1       170 2.35299E-06 4.08583E+00-2.29505E+00
 -1       171 5.90445E-07 4.13941E+00-2.22412E+00
 -1       172 1.17652E-06 4.08583E+00-2.29505E+00
 -1       173-5.32599E-07 3.66141E+00-1.87084E+00
 -1       174 1.76630E-06 4.11262E+00-2.25958E+00
 -1       175-1.07376E-06 3.61066E+00-1.94108E+00
 -1       176 1.40889E-06 5.10925E+00-2.98034E+00
 -1       177 2.74832E-06 5.05135E+00-3.05238E+00
 -1       178 7.04371E-07 5.10925E+00-2.98034E+00
 -1       179 1.37408E-06 5.05135E+00-3.05238E+00
 -1       180-6.48273E-07 4.62251E+00-2.59488E+00
 -1       181 2.08047E-06 5.08030E+00-3.01636E+00
 -1       182-1.27882E-06 4.56656E+00-2.66663E+00
 -1       183 1.61866E-06 6.09008E+00-3.78499E+00
 -1       184 3.12963E-06 6.02934E+00-3.85761E+00
 -1       185 8.09487E-07 6.09008E+00-3.78499E+00
 -1       186 1.56519E-06 6.02934E+00-3.85761E+00
 -1       187-7.61037E-07 5.59873E+00-3.37780E+00
 -1       188 2.36719E-06 6.05971E+00-3.82130E+00
 -1       189-1.47023E-06 5.53920E+00-3.45035E+00
 -1       190 1.79095E-06 7.07649E+00-4.61982E+00
 -1       191 3.40011E-06 7.01414E+00-4.69271E+00
 -1       192 8.95020E-07 7.07648E+00-4.61982E+00
 -1       193 1.69847E-06 7.01414E+00-4.69271E+00
 -1       194-8.56684E-07 6.58287E+00-4.19963E+00
 -1       195 2.62062E-06 7.04532E+00-4.65627E+00
 -1       196-1.65659E-06 6.52110E+00-4.27258E+00
 -1       197 1.88590E-06 8.06522E+00-5.46910E+00
 -1       198 3.76836E-06 8.00239E+00-5.54207E+00
 -1       199 9.43719E-07 8.06522E+00-5.46910E+00
 -1       200 1.89089E-06 8.00238E+00-5.54207E+00
 -1       201-9.38669E-07 7.57078E+00-5.04354E+00
 -1       202 2.73170E-06 8.03380E+00-5.50558E+00
 -1       203-1.75122E-06 7.50794E+00-5.11666E+00
 -1       204 0.00000E+00 0.00000E+00 0.00000E+00
 -1       205-3.37954E-07 2.03911E-01 1.39053E-03
 -1       206 0.00000E+00 0.00000E+00 0.00000E+00
 -1       207 9.41069E-13 2.03911E-01 1.39077E-03
 -1       208 0.00000E+00 0.00000E+00 0.00000E+00
 -1       209 8.43495E-08 5.33282E-02 1.12569E-02
 -1       210-2.43382E-07 2.01117E-01-1.26222E-02
 -1       211 0.00000E+00 0.00000E+00 0.00000E+00
 -1       212-1.68967E-07 2.03911E-01 1.39065E-03
 -1       213 0.00000E+00 0.00000E+00 0.00000E+00
 -1       214 3.00253E-13 5.33282E-02 1.12568E-02
 -1       215 8.17167E-13 2.01117E-01-1.26221E-02
 -1       216-6.79934E-07 7.32136E-01-1.28133E-01
 -1       217 3.02336E-12 7.32135E-01-1.28132E-01
 -1       218 2.53599E-07 4.35579E-01-4.29673E-02
 -1       219-5.01422E-07 7.23646E-01-1.51614E-01
 -1       220-3.39961E-07 7.32135E-01-1.28132E-01
 -1       221 1.86613E-12 4.35579E-01-4.29674E-02
 -1       222 2.78401E-12 7.23646E-01-1.51614E-01
 -1       223-1.02904E-06 1.46545E+00-4.27052E-01
 -1       224 5.85227E-12 1.46545E+00-4.27052E-01
 -1       225 4.26328E-07 1.07927E+00-2.56423E-01
 -1       226-7.72993E-07 1.45096E+00-4.56317E-01
 -1       227-5.14517E-07 1.46545E+00-4.27052E-01
 -1       228 4.36785E-12 1.07927E+00-2.56423E-01
 -1       229 5.52344E-12 1.45096E+00-4.56316E-01
 -1       230-1.38337E-06 2.31834E+00-8.83742E-01
 -1       231 9.06410E-12 2.31834E+00-8.83742E-01
 -1       232 6.02679E-07 1.88081E+00-6.37235E-01
 -1       233-1.05551E-06 2.29867E+00-9.16345E-01
 -1       234-6.91677E-07 2.31834E+00-8.83742E-01
 -1       235 7.42615E-12 1.88081E+00-6.37235E-01
 -1       236 8.66725E-12 2.29867E+00-9.16345E-01
 -1       237-1.73849E-06 3.23775E+00-1.46931E+00
 -1       238 1.24130E-11 3.23775E+00-1.46931E+00
 -1       239 7.80681E-07 2.77197E+00-1.16227E+00
 -1       240-1.34439E-06 3.21398E+00-1.50378E+00
 -1       241-8.69251E-07 3.23775E+00-1.46931E+00
 -1       242 1.07270E-11 2.77197E+00-1.16228E+00
 -1       243 1.19618E-11 3.21398E+00-1.50378E+00
 -1       244-2.08315E-06 4.19305E+00-2.15313E+00
 -1       245 1.57387E-11 4.19305E+00-2.15313E+00
 -1       246 9.57782E-07 3.71214E+00-1.80062E+00
 -1       247-1.63268E-06 4.16623E+00-2.18863E+00
 -1       248-1.04151E-06 4.19305E+00-2.15313E+00
 -1       249 1.40948E-11 3.71214E+00-1.80062E+00
 -1       250 1.52434E-11 4.16623E+00-2.18863E+00
 -1       251-2.40916E-06 5.16723E+00-2.90824E+00
 -1       252 1.89444E-11 5.16722E+00-2.90824E+00
 -1       253 1.12547E-06 4.67843E+00-2.52317E+00
 -1       254-1.90660E-06 5.13824E+00-2.94429E+00
 -1       255-1.20474E-06 5.16722E+00-2.90824E+00
 -1       256 1.73459E-11 4.67843E+00-2.52317E+00
 -1       257 1.84205E-11 5.13823E+00-2.94429E+00
 -1       258-2.67169E-06 6.15093E+00-3.71231E+00
 -1       259 2.20446E-11 6.15093E+00-3.71231E+00
 -1       260 1.28387E-06 5.65822E+00-3.30529E+00
 -1       261-2.15321E-06 6.12050E+00-3.74865E+00
 -1       262-1.33521E-06 6.15093E+00-3.71231E+00
 -1       263 2.05193E-11 5.65822E+00-3.30529E+00
 -1       264 2.14960E-11 6.12050E+00-3.74865E+00
 -1       265-2.90841E-06 7.13898E+00-4.54686E+00
 -1       266 2.50682E-11 7.13897E+00-4.54686E+00
 -1       267 1.38730E-06 6.64457E+00-4.12672E+00
 -1       268-2.32174E-06 7.10773E+00-4.58334E+00
 -1       269-1.45621E-06 7.13898E+00-4.54686E+00
 -1       270 2.35699E-11 6.64457E+00-4.12672E+00
 -1       271 2.45087E-11 7.10773E+00-4.58334E+00
 -1       272-2.81317E-06 8.12827E+00-5.39605E+00
 -1       273 2.80864E-11 8.12826E+00-5.39605E+00
 -1       274 1.52637E-06 7.63354E+00-4.97046E+00
 -1       275-2.44839E-06 8.09675E+00-5.43258E+00
 -1       276-1.39978E-06 8.12827E+00-5.39605E+00
 -1       277 2.65964E-11 7.63354E+00-4.97046E+00
 -1       278 2.75207E-11 8.09674E+00-5.43258E+00
 -1       279 0.00000E+00 0.00000E+00 0.00000E+00
 -1       280 3.37956E-07 2.03911E-01 1.39053E-03
 -1       281 0.00000E+00 0.00000E+00 0.00000E+00
 -1       282 1.68969E-07 2.03911E-01 1.39065E-03
 -1       283 0.00000E+00 0.00000E+00 0.00000E+00
 -1       284-8.43489E-08 5.33282E-02 1.12569E-02
 -1       285 2.43384E-07 2.01117E-01-1.26222E-02
 -1       286 6.79940E-07 7.32136E-01-1.28133E-01
 -1       287 3.39967E-07 7.32135E-01-1.28132E-01
 -1       288-2.53595E-07 4.35579E-01-4.29673E-02
 -1       289 5.01427E-07 7.23646E-01-1.51614E-01
 -1       290 1.02905E-06 1.46545E+00-4.27052E-01
 -1       291 5.14528E-07 1.46545E+00-4.27052E-01
 -1       292-4.26319E-07 1.07927E+00-2.56423E-01
 -1       293 7.73004E-07 1.45096E+00-4.56317E-01
 -1       294 1.38339E-06 2.31834E+00-8.83742E-01
 -1       295 6.91696E-07 2.31834E+00-8.83742E-01
 -1       296-6.02664E-07 1.88081E+00-6.37235E-01
 -1       297 1.05553E-06 2.29867E+00-9.16345E-01
 -1       298 1.73851E-06 3.23775E+00-1.46931E+00
 -1       299 8.69276E-07 3.23775E+00-1.46931E+00
 -1       300-7.80660E-07 2.77197E+00-1.16227E+00
 -1       301 1.34441E-06 3.21398E+00-1.50378E+00
 -1       302 2.08318E-06 4.19305E+00-2.15313E+00
 -1       303 1.04154E-06 4.19305E+00-2.15313E+00
 -1       304-9.57754E-07 3.71214E+00-1.80062E+00
 -1       305 1.63271E-06 4.16623E+00-2.18863E+00
 -1       306 2.40920E-06 5.16723E+00-2.90824E+00
 -1       307 1.20478E-06 5.16722E+00-2.90824E+00
 -1       308-1.12543E-06 4.67843E+00-2.52317E+00
 -1       309 1.90663E-06 5.13824E+00-2.94429E+00
 -1       310 2.67174E-06 6.15093E+00-3.71231E+00
 -1       311 1.33526E-06 6.15093E+00-3.71231E+00
 -1       312-1.28383E-06 5.65822E+00-3.30529E+00
 -1       313 2.15325E-06 6.12050E+00-3.74865E+00
 -1       314 2.90846E-06 7.13898E+00-4.54686E+00
 -1       315 1.45627E-06 7.13898E+00-4.54686E+00
 -1       316-1.38725E-06 6.64457E+00-4.12672E+00
 -1       317 2.32179E-06 7.10773E+00-4.58334E+00
 -1       318 2.81322E-06 8.12827E+00-5.39605E+00
 -1       319 1.39983E-06 8.12827E+00-5.39605E+00
 -1       320-1.52632E-06 7.63354E+00-4.97046E+00
 -1       321 2.44845E-06 8.09675E+00-5.43258E+00
 -3
    1PSTEP                        30          15           1          
  100CL  115 9.62500E-01         321                     0   15           1
 -4  STRESS      6    1
 -5  SXX         1    4    1    1
 -5  SYY         1    4    2    2
 -5  SZZ         1    4    3    3
 -5  SXY         1    4    1    2
 -5  SYZ         1    4    2    3
 -5  SZX         1    4    3    1
 -1         1 3.77617E+02-1.69255E+04-3.13193E+06-8.63888E+00-3.69943E+04 2.49194E+01
 -1         2 1.44100E+02-8.75130E+04-7.56629E+04 1.31899E+01 2.32903E+04 3.75581E+01
 -1         3 8.46661E+00-1.81446E+04-6.67197E+04 4.55392E+00 2.60549E+04 7.84104E+00
 -1         4 2.31591E+00-3.32951E+05-2.14696E+06 9.06854E+00-9.29120E+05 1.20650E+01
 -1         5 3.77617E+02-1.67876E+04-3.13193E+06 2.89981E-07-3.69715E+04-7.47737E-06
 -1         6 1.44100E+02-8.75012E+04-7.56837E+04 2.61524E-07 2.33293E+04-3.17955E-07
 -1         7 8.42276E+00-1.81472E+04-6.67302E+04-4.50876E-07 2.60502E+04-4.63900E-07
 -1         8 2.35890E+00-3.32926E+05-2.14696E+06-5.90757E-06-9.29108E+05-1.46718E-05
 -1         9 2.60338E+02-4.66791E+04-1.60385E+06 3.72979E+01-4.68609E+03 2.67270E+01
 -1        10-4.71222E+00-2.99097E+04-6.65419E+04-8.57190E-01 1.64958E+04-3.95377E+00
 -1        11 5.43641E+00-1.76951E+05-1.10588E+06 4.46427E+00-4.52568E+05 6.76491E+00
 -1        12-9.85682E-01-1.56681E+05-2.67100E+06-2.40802E+00-5.14502E+05-6.85903E+00
 -1        13 3.77617E+02-1.68566E+04-3.13193E+06-5.04845E+01-3.69829E+04 1.31505E+01
 -1        14 1.44100E+02-8.75071E+04-7.56733E+04 9.29612E+00 2.33098E+04 3.10059E+01
 -1        15 8.44468E+00-1.81459E+04-6.67249E+04-7.37998E-01 2.60525E+04 1.81707E+00
 -1        16 2.33740E+00-3.32938E+05-2.14696E+06-3.97897E-01-9.29114E+05 1.53034E+00
 -1        17 2.60338E+02-4.65466E+04-1.60386E+06 1.75778E-07-4.67215E+03-3.88985E-06
 -1        18-4.73417E+00-2.99075E+04-6.65336E+04-2.36685E-07 1.64994E+04-3.77242E-07
 -1        19 5.43565E+00-1.76939E+05-1.10589E+06-2.83924E-06-4.52566E+05-6.71666E-06
 -1        20-9.64233E-01-1.56686E+05-2.67100E+06-2.73433E-06-5.14508E+05-1.10830E-05
 -1        21 6.70790E+00 1.14714E+04-4.32846E+04 8.73862E+00 5.61637E+03 5.80564E+00
 -1        22 3.04307E+00-7.80057E+05-1.11304E+06 1.45066E+01-9.56466E+05 7.25579E+00
 -1        23 6.67486E+00 1.14778E+04-4.32866E+04 3.73001E-07 5.61646E+03-2.66137E-07
 -1        24 3.11589E+00-7.80002E+05-1.11304E+06-7.54492E-06-9.56454E+05-9.25968E-06
 -1        25-3.62177E+00-1.06690E+04-5.07468E+04-3.62003E+00 1.33795E+04-3.62879E+00
 -1        26 4.91421E+00-3.85343E+05-5.77543E+05 9.46631E+00-4.75038E+05 4.83157E+00
 -1        27-1.39358E+00-5.84796E+05-1.59004E+06-6.47711E+00-9.41574E+05-4.99457E+00
 -1        28 6.69138E+00 1.14746E+04-4.32856E+04-1.81271E-01 5.61641E+03 1.62766E+00
 -1        29 3.07948E+00-7.80029E+05-1.11304E+06-2.17229E+00-9.56460E+05 5.39333E-01
 -1        30-3.66023E+00-1.06692E+04-5.07444E+04-2.18700E-07 1.33807E+04-3.44390E-07
 -1        31 4.93390E+00-3.85311E+05-5.77545E+05-3.43676E-06-4.75036E+05-4.24973E-06
 -1        32-1.33567E+00-5.84816E+05-1.59004E+06-6.92011E-06-9.41580E+05-1.17539E-05
 -1        33 5.49469E+00 1.68392E+04-2.63587E+04 9.82193E+00-7.48308E+02 2.66414E+00
 -1        34 3.23669E+00-8.99295E+05-5.05410E+05 1.45128E+01-6.90162E+05 2.04658E+00
 -1        35 5.56623E+00 1.68601E+04-2.63575E+04 1.92086E-07-7.44535E+02 1.23535E-07
 -1        36 3.28130E+00-8.99208E+05-5.05407E+05-5.96557E-06-6.90150E+05-6.02515E-06
 -1        37-2.98237E+00 6.98536E+03-3.27554E+04-4.93787E+00 3.00295E+03-2.06518E+00
 -1        38 4.37851E+00-4.41430E+05-2.66048E+05 1.04033E+01-3.44906E+05 1.54374E+00
 -1        39-1.60697E+00-8.48388E+05-7.92481E+05-7.69762E+00-8.06438E+05-2.13755E+00
 -1        40 5.53046E+00 1.68496E+04-2.63581E+04-1.06512E+00-7.46422E+02 6.83508E-01
 -1        41 3.25899E+00-8.99251E+05-5.05409E+05-5.44757E+00-6.90156E+05-5.05156E-01
 -1        42-2.96314E+00 6.97891E+03-3.27553E+04 1.91389E-07 3.00165E+03-1.51455E-07
 -1        43 4.43662E+00-4.41376E+05-2.66047E+05-3.15048E-06-3.44904E+05-2.85534E-06
 -1        44-1.54826E+00-8.48423E+05-7.92482E+05-6.68611E-06-8.06445E+05-7.36081E-06
 -1        45 4.24516E+00 1.93164E+04-1.40638E+04 8.88742E+00-3.92225E+03-1.58816E-02
 -1        46 2.29309E+00-8.13020E+05-2.14046E+05 1.16883E+01-4.27646E+05-1.53867E+00
 -1        47 4.35454E+00 1.93556E+04-1.40619E+04-5.59162E-07-3.91696E+03-4.52805E-07
 -1        48 2.30879E+00-8.12897E+05-2.14044E+05-6.16978E-06-4.27636E+05-3.60216E-06
 -1        49-2.43261E+00 1.27223E+04-2.06889E+04-4.70772E+00-6.23458E+02-5.51338E-01
 -1        50 3.33062E+00-3.96683E+05-1.14461E+05 8.90710E+00-2.15536E+05-9.99162E-01
 -1        51-1.52250E+00-8.53122E+05-3.58166E+05-6.42741E+00-5.45250E+05 8.53112E-02
 -1        52 4.29985E+00 1.93360E+04-1.40629E+04-3.28394E+00-3.91960E+03-3.11780E-01
 -1        53 2.30094E+00-8.12958E+05-2.14045E+05-1.03757E+01-4.27641E+05-1.21284E+00
 -1        54-2.34215E+00 1.27074E+04-2.06896E+04 6.22620E-07-6.25871E+02 2.41402E-07
 -1        55 3.39320E+00-3.96602E+05-1.14460E+05-3.13880E-06-2.15535E+05-1.77309E-06
 -1        56-1.49236E+00-8.53174E+05-3.58168E+05-6.34553E-06-5.45256E+05-5.14828E-06
 -1        57 2.27902E+00 1.94868E+04-7.04319E+03 4.63819E+00-4.12860E+03-1.70917E+00
 -1        58 5.10669E-01-6.50283E+05-8.66608E+04 2.51354E+00-2.46097E+05-3.61232E+00
 -1        59 2.59927E+00 1.95478E+04-7.04107E+03-2.15191E-06-4.12321E+03 1.39211E-07
 -1        60 6.05680E-01-6.50116E+05-8.66604E+04-4.34859E-06-2.46091E+05-1.72504E-06
 -1        61-1.76959E+00 1.56307E+04-1.23684E+04-3.98673E+00-2.27309E+03 5.93685E-01
 -1        62 1.28429E+00-3.15208E+05-4.71676E+04 2.52696E+00-1.25074E+05-2.47384E+00
 -1        63-7.05110E-01-7.25246E+05-1.54792E+05-4.87212E+00-3.29400E+05 1.36773E+00
 -1        64 2.43914E+00 1.95173E+04-7.04213E+03-6.84194E+00-4.12590E+03-9.00999E-01
 -1        65 5.58175E-01-6.50200E+05-8.66606E+04-1.69833E+01-2.46094E+05-1.75775E+00
 -1        66-1.55479E+00 1.56059E+04-1.23693E+04-5.85999E-07-2.27582E+03-3.54021E-07
 -1        67 1.49215E+00-3.15096E+05-4.71663E+04-1.96777E-06-1.25075E+05-1.27930E-06
 -1        68-6.49692E-01-7.25317E+05-1.54793E+05-4.41411E-06-3.29405E+05-3.13996E-06
 -1        69-6.61231E-01 1.94365E+04-3.10558E+03 3.80811E+00-3.61267E+03-3.19118E+00
 -1        70-4.60046E+00-4.81345E+05-3.39158E+04 3.70810E+00-1.35525E+05-3.48100E+00
 -1        71-7.04866E-01 1.95234E+04-3.10373E+03 4.02834E-06-3.60673E+03 2.35916E-06
 -1        72-4.85573E+00-4.81130E+05-3.39151E+04-3.19447E-06-1.35515E+05-3.63857E-06
 -1        73-4.40938E-01 1.68283E+04-7.44294E+03-4.52427E-01-2.48575E+03 1.16802E+00
 -1        74-2.18199E+00-2.30867E+05-1.86424E+04 2.98534E+00-6.95206E+04-2.65989E+00
 -1        75 4.58026E-01-5.59813E+05-6.59365E+04 2.71514E+00-1.87710E+05 2.06507E+00
 -1        76-6.83048E-01 1.94800E+04-3.10465E+03-1.15236E+01-3.60970E+03-1.97653E+00
 -1        77-4.72810E+00-4.81238E+05-3.39155E+04-2.58556E+01-1.35520E+05-1.37528E+00
 -1        78-3.02560E-01 1.67916E+04-7.44410E+03-1.94910E-06-2.48823E+03 3.88390E-07
 -1        79-2.33159E+00-2.30715E+05-1.86427E+04-1.38753E-06-6.95236E+04-5.79124E-08
 -1        80 3.77699E-01-5.59909E+05-6.59362E+04-3.39742E-06-1.87711E+05-1.48796E-06
 -1        81-6.08382E+00 1.95239E+04-1.14203E+03-1.83527E+01-2.94161E+03-2.43432E+00
 -1        82-7.54443E+00-3.30955E+05-1.25011E+04-4.76748E+01-7.15853E+04-5.14713E+00
 -1        83-4.73850E+00 1.96436E+04-1.13872E+03-1.61531E-07-2.93688E+03-2.46220E-06
 -1        84-6.10392E+00-3.30665E+05-1.25045E+04-1.52436E-06-7.16049E+04 3.01678E-06
 -1        85 9.77021E-01 1.73727E+04-4.55129E+03-3.05285E+00-2.35522E+03 1.99751E+00
 -1        86-8.23295E+00-1.55673E+05-6.83666E+03-3.37156E+01-3.72009E+04-2.96357E+00
 -1        87 3.71647E+00-4.01289E+05-2.83215E+04-6.04502E+00-1.02805E+05 1.33812E+00
 -1        88-5.41116E+00 1.95837E+04-1.14038E+03-1.83223E+01-2.93924E+03-6.65298E-01
 -1        89-6.82417E+00-3.30810E+05-1.25028E+04-3.65122E+01-7.15951E+04-2.96806E+00
 -1        90 1.62769E+00 1.73220E+04-4.55214E+03 4.02883E-06-2.35847E+03 8.56823E-07
 -1        91-6.83945E+00-1.55474E+05-6.83280E+03-2.02761E-06-3.72058E+04-4.10103E-07
 -1        92 4.30972E+00-4.01408E+05-2.83222E+04-2.20774E-06-1.02815E+05-2.23205E-06
 -1        93-1.26376E+01 1.98194E+04-2.36636E+02 2.74551E+01-2.11777E+03-7.45793E+00
 -1        94-2.67368E+01-2.01867E+05-4.26513E+03 8.17462E+01-3.61026E+04 4.51092E+00
 -1        95-1.49726E+01 1.99757E+04-2.35339E+02 1.04671E-06-2.10370E+03 3.22844E-07
 -1        96-3.25788E+01-2.01541E+05-4.25873E+03 3.15045E-06-3.60133E+04-2.64133E-06
 -1        97 5.63043E+00 1.74662E+04-2.85971E+03 2.16628E+01-2.05861E+03 6.13733E-01
 -1        98-1.46800E+01-9.11833E+04-2.04250E+03 5.46525E+01-1.85044E+04 7.33873E-01
 -1        99 5.64540E+00-2.62186E+05-1.24764E+04 5.38327E+01-5.41766E+04 3.43081E+00
 -1       100-1.38051E+01 1.98975E+04-2.35987E+02-2.55368E+01-2.11074E+03-7.21214E+00
 -1       101-2.96578E+01-2.01704E+05-4.26193E+03-5.21563E+01-3.60580E+04 3.11572E+00
 -1       102 5.13616E+00 1.73969E+04-2.86194E+03-1.09215E-06-2.05996E+03-4.87138E-07
 -1       103-1.87693E+01-9.09255E+04-2.05496E+03-2.54890E-07-1.85082E+04-1.19468E-06
 -1       104 3.44258E+00-2.62356E+05-1.24743E+04 8.02801E-07-5.41467E+04-1.58134E-07
 -1       105-2.46466E+01 2.07851E+04-2.07701E+02-1.92646E+02-2.33445E+03 8.50661E+00
 -1       106-8.57559E+00-9.09672E+04 2.31246E+02-4.84722E+02-1.06131E+04-2.61343E+01
 -1       107-1.71988E+01 2.09972E+04-2.02911E+02-1.80930E-06-2.34155E+03 5.41840E-06
 -1       108 1.70390E+01-9.04191E+04 2.17803E+02-8.89058E-06-1.09217E+04-2.33932E-06
 -1       109 5.03843E+00 1.73862E+04-2.00976E+03-4.85260E+01-2.16931E+03 6.56615E+00
 -1       110-3.42777E+01-3.48900E+04-7.50404E+01-3.41316E+02-7.02639E+03-8.17517E+00
 -1       111 1.53176E+01-1.42064E+05-5.13567E+03-1.34608E+02-2.41574E+04-7.41744E+00
 -1       112-2.09227E+01 2.08912E+04-2.05306E+02-3.96470E+01-2.33800E+03 1.38636E+01
 -1       113 4.23170E+00-9.06931E+04 2.24525E+02-6.41437E+01-1.07674E+04-1.84548E+01
 -1       114 7.59300E+00 1.72987E+04-2.01047E+03 2.44872E-06-2.18159E+03 1.63389E-06
 -1       115-1.77451E+01-3.45629E+04-2.80066E+01-2.73460E-06-7.02663E+03 2.74698E-06
 -1       116 2.52113E+01-1.42226E+05-5.13943E+03-4.28621E-06-2.42817E+04-7.78224E-07
 -1       117-6.51991E+01-8.61501E+03-2.04011E+03 6.59299E+02-7.62568E+03-8.55292E+01
 -1       118-2.41860E+02 4.74637E+04 3.33993E+03 1.80680E+03 1.12613E+04 4.12815E+01
 -1       119-7.72757E+01-1.08506E+04-2.01596E+03-5.61640E-07-7.72446E+03-8.10245E-06
 -1       120-3.49124E+02 4.14205E+04 3.33159E+03 7.27835E-06 1.22001E+04 1.57934E-05
 -1       121 2.69281E+01 1.66571E+04-1.04834E+03 2.41627E+02-1.21496E+03-1.47166E+01
 -1       122-8.87654E+01 1.97712E+04 3.66248E+02 1.24634E+03 6.12157E+02-1.37221E+01
 -1       123 1.28971E+01-3.18850E+04-2.50740E+03 6.16415E+02-1.01715E+04 3.21868E+01
 -1       124-7.12374E+01-9.73281E+03-2.02804E+03 3.40151E+02-7.67507E+03-7.29605E+01
 -1       125-2.95492E+02 4.44421E+04 3.33576E+03 7.25022E+02 1.17307E+04 6.77675E+01
 -1       126 2.46151E+01 1.65334E+04-1.04702E+03-2.85162E-06-1.19635E+03-8.98350E-07
 -1       127-1.48438E+02 1.57586E+04 2.07633E+02 4.86207E-06 6.15851E+02 4.05044E-06
 -1       128-2.79333E+01-3.22709E+04-2.51030E+03-4.22482E-07-9.73169E+03 6.41410E-06
 -1       129 3.77617E+02-1.69255E+04-3.13193E+06 8.63888E+00-3.69943E+04-2.49194E+01
 -1       130 1.44100E+02-8.75130E+04-7.56629E+04-1.31899E+01 2.32903E+04-3.75581E+01
 -1       131 8.46661E+00-1.81446E+04-6.67197E+04-4.55392E+00 2.60549E+04-7.84104E+00
 -1       132 2.31591E+00-3.32951E+05-2.14696E+06-9.06855E+00-9.29120E+05-1.20650E+01
 -1       133 3.77617E+02-1.68566E+04-3.13193E+06 5.04845E+01-3.69829E+04-1.31505E+01
 -1       134 1.44100E+02-8.75071E+04-7.56733E+04-9.29612E+00 2.33098E+04-3.10059E+01
 -1       135 8.44468E+00-1.81459E+04-6.67249E+04 7.37998E-01 2.60525E+04-1.81707E+00
 -1       136 2.33740E+00-3.32938E+05-2.14696E+06 3.97889E-01-9.29114E+05-1.53036E+00
 -1       137 2.60338E+02-4.66791E+04-1.60385E+06-3.72979E+01-4.68609E+03-2.67270E+01
 -1       138-4.71222E+00-2.99097E+04-6.65419E+04 8.57190E-01 1.64958E+04 3.95376E+00
 -1       139 5.43641E+00-1.76951E+05-1.10588E+06-4.46427E+00-4.52568E+05-6.76491E+00
 -1       140-9.85682E-01-1.56681E+05-2.67100E+06 2.40802E+00-5.14502E+05 6.85902E+00
 -1       141 6.70790E+00 1.14714E+04-4.32846E+04-8.73862E+00 5.61637E+03-5.80564E+00
 -1       142 3.04307E+00-7.80057E+05-1.11304E+06-1.45066E+01-9.56466E+05-7.25580E+00
 -1       143 6.69138E+00 1.14746E+04-4.32856E+04 1.81271E-01 5.61641E+03-1.62766E+00
 -1       144 3.07948E+00-7.80029E+05-1.11304E+06 2.17228E+00-9.56460E+05-5.39347E-01
 -1       145-3.62177E+00-1.06690E+04-5.07468E+04 3.62003E+00 1.33795E+04 3.62879E+00
 -1       146 4.91421E+00-3.85343E+05-5.77543E+05-9.46632E+00-4.75038E+05-4.83158E+00
 -1       147-1.39358E+00-5.84796E+05-1.59004E+06 6.47711E+00-9.41574E+05 4.99457E+00
 -1       148 5.49469E+00 1.68392E+04-2.63587E+04-9.82194E+00-7.48308E+02-2.66414E+00
 -1       149 3.23669E+00-8.99295E+05-5.05410E+05-1.45128E+01-6.90162E+05-2.04659E+00
 -1       150 5.53046E+00 1.68496E+04-2.63581E+04 1.06512E+00-7.46422E+02-6.83508E-01
 -1       151 3.25899E+00-8.99251E+05-5.05409E+05 5.44756E+00-6.90156E+05 5.05147E-01
 -1       152-2.98237E+00 6.98536E+03-3.27554E+04 4.93787E+00 3.00295E+03 2.06518E+00
 -1       153 4.37851E+00-4.41430E+05-2.66048E+05-1.04033E+01-3.44906E+05-1.54374E+00
 -1       154-1.60697E+00-8.48388E+05-7.92481E+05 7.69761E+00-8.06438E+05 2.13754E+00
 -1       155 4.24516E+00 1.93164E+04-1.40638E+04-8.88742E+00-3.92225E+03 1.58796E-02
 -1       156 2.29309E+00-8.13020E+05-2.14046E+05-1.16883E+01-4.27646E+05 1.53866E+00
 -1       157 4.29985E+00 1.93360E+04-1.40629E+04 3.28394E+00-3.91960E+03 3.11779E-01
 -1       158 2.30094E+00-8.12958E+05-2.14045E+05 1.03757E+01-4.27641E+05 1.21283E+00
 -1       159-2.43261E+00 1.27223E+04-2.06889E+04 4.70772E+00-6.23458E+02 5.51337E-01
 -1       160 3.33062E+00-3.96683E+05-1.14461E+05-8.90711E+00-2.15536E+05 9.99160E-01
 -1       161-1.52250E+00-8.53122E+05-3.58166E+05 6.42740E+00-5.45250E+05-8.53161E-02
 -1       162 2.27902E+00 1.94868E+04-7.04319E+03-4.63819E+00-4.12860E+03 1.70917E+00
 -1       163 5.10669E-01-6.50283E+05-8.66608E+04-2.51355E+00-2.46097E+05 3.61232E+00
 -1       164 2.43914E+00 1.95173E+04-7.04213E+03 6.84194E+00-4.12590E+03 9.01001E-01
 -1       165 5.58175E-01-6.50200E+05-8.66606E+04 1.69832E+01-2.46094E+05 1.75774E+00
 -1       166-1.76959E+00 1.56307E+04-1.23684E+04 3.98673E+00-2.27309E+03-5.93685E-01
 -1       167 1.28429E+00-3.15208E+05-4.71676E+04-2.52697E+00-1.25074E+05 2.47383E+00
 -1       168-7.05110E-01-7.25246E+05-1.54792E+05 4.87212E+00-3.29400E+05-1.36773E+00
 -1       169-6.61231E-01 1.94365E+04-3.10558E+03-3.80811E+00-3.61267E+03 3.19118E+00
 -1       170-4.60046E+00-4.81345E+05-3.39158E+04-3.70810E+00-1.35525E+05 3.48100E+00
 -1       171-6.83048E-01 1.94800E+04-3.10465E+03 1.15236E+01-3.60970E+03 1.97653E+00
 -1       172-4.72810E+00-4.81238E+05-3.39155E+04 2.58556E+01-1.35520E+05 1.37527E+00
 -1       173-4.40939E-01 1.68283E+04-7.44294E+03 4.52426E-01-2.48575E+03-1.16802E+00
 -1       174-2.18199E+00-2.30867E+05-1.86424E+04-2.98534E+00-6.95206E+04 2.65990E+00
 -1       175 4.58026E-01-5.59813E+05-6.59365E+04-2.71515E+00-1.87710E+05-2.06507E+00
 -1       176-6.08382E+00 1.95239E+04-1.14203E+03 1.83527E+01-2.94161E+03 2.43432E+00
 -1       177-7.54443E+00-3.30955E+05-1.25011E+04 4.76748E+01-7.15853E+04 5.14714E+00
 -1       178-5.41116E+00 1.95837E+04-1.14038E+03 1.83223E+01-2.93924E+03 6.65293E-01
 -1       179-6.82417E+00-3.30810E+05-1.25028E+04 3.65122E+01-7.15951E+04 2.96806E+00
 -1       180 9.77022E-01 1.73727E+04-4.55129E+03 3.05284E+00-2.35522E+03-1.99751E+00
 -1       181-8.23295E+00-1.55673E+05-6.83666E+03 3.37156E+01-3.72009E+04 2.96356E+00
 -1       182 3.71647E+00-4.01289E+05-2.83215E+04 6.04502E+00-1.02805E+05-1.33812E+00
 -1       183-1.26376E+01 1.98194E+04-2.36636E+02-2.74551E+01-2.11777E+03 7.45793E+00
 -1       184-2.67368E+01-2.01867E+05-4.26513E+03-8.17463E+01-3.61026E+04-4.51092E+00
 -1       185-1.38051E+01 1.98975E+04-2.35987E+02 2.55368E+01-2.11074E+03 7.21214E+00
 -1       186-2.96578E+01-2.01704E+05-4.26193E+03 5.21563E+01-3.60580E+04-3.11572E+00
 -1       187 5.63043E+00 1.74662E+04-2.85971E+03-2.16628E+01-2.05861E+03-6.13731E-01
 -1       188-1.46800E+01-9.11833E+04-2.04250E+03-5.46525E+01-1.85044E+04-7.33868E-01
 -1       189 5.64540E+00-2.62186E+05-1.24764E+04-5.38327E+01-5.41766E+04-3.43081E+00
 -1       190-2.46466E+01 2.07851E+04-2.07701E+02 1.92646E+02-2.33445E+03-8.50662E+00
 -1       191-8.57559E+00-9.09672E+04 2.31246E+02 4.84722E+02-1.06131E+04 2.61343E+01
 -1       192-2.09227E+01 2.08912E+04-2.05306E+02 3.96470E+01-2.33800E+03-1.38636E+01
 -1       193 4.23170E+00-9.06931E+04 2.24525E+02 6.41437E+01-1.07674E+04 1.84548E+01
 -1       194 5.03843E+00 1.73862E+04-2.00976E+03 4.85260E+01-2.16931E+03-6.56615E+00
 -1       195-3.42777E+01-3.48900E+04-7.50404E+01 3.41316E+02-7.02639E+03 8.17517E+00
 -1       196 1.53176E+01-1.42064E+05-5.13567E+03 1.34608E+02-2.41574E+04 7.41744E+00
 -1       197-6.51991E+01-8.61501E+03-2.04011E+03-6.59299E+02-7.62568E+03 8.55292E+01
 -1       198-2.41860E+02 4.74637E+04 3.33993E+03-1.80680E+03 1.12613E+04-4.12815E+01
 -1       199-7.12374E+01-9.73281E+03-2.02804E+03-3.40151E+02-7.67507E+03 7.29605E+01
 -1       200-2.95492E+02 4.44421E+04 3.33576E+03-7.25022E+02 1.17307E+04-6.77675E+01
 -1       201 2.69281E+01 1.66571E+04-1.04834E+03-2.41627E+02-1.21496E+03 1.47166E+01
 -1       202-8.87654E+01 1.97712E+04 3.66248E+02-1.24634E+03 6.12157E+02 1.37221E+01
 -1       203 1.28971E+01-3.18850E+04-2.50740E+03-6.16415E+02-1.01715E+04-3.21868E+01
 -1       204 3.29215E+02-1.60822E+05 3.27889E+06-1.25246E+02 9.68327E+04 1.72457E+02
 -1       205 1.95879E+00 3.70237E+05 2.22827E+06 1.20100E+01 9.81755E+05 1.46907E+01
 -1       206 3.29215E+02-1.60916E+05 3.27882E+06-1.25557E-07 9.69186E+04 8.00303E-06
 -1       207 2.09884E+00 3.70255E+05 2.22824E+06 5.84104E-06 9.81756E+05 1.50259E-05
 -1       208 2.37178E+02-1.29708E+05 1.60167E+06-9.10504E+01 5.78955E+04 1.09519E+02
 -1       209-3.47679E-01 1.29966E+05 2.79163E+06-4.34361E+00 5.53422E+05-9.04897E+00
 -1       210 5.16755E+00 1.77450E+05 1.07982E+06 1.06289E+01 5.04940E+05 1.44540E+01
 -1       211 3.29215E+02-1.60869E+05 3.27885E+06-9.73818E+01 9.68756E+04 1.50964E+02
 -1       212 2.02881E+00 3.70246E+05 2.22825E+06-1.80458E+00 9.81756E+05-1.82170E+00
 -1       213 2.37178E+02-1.29806E+05 1.60162E+06 1.67958E-07 5.79750E+04 3.83473E-06
 -1       214-2.77782E-01 1.29962E+05 2.79166E+06 2.71786E-06 5.53422E+05 1.17005E-05
 -1       215 5.21597E+00 1.77456E+05 1.07980E+06 2.35509E-06 5.04939E+05 6.42980E-06
 -1       216 2.92461E+00 8.23397E+05 1.13909E+06 1.59246E+01 1.00087E+06 7.77448E+00
 -1       217 2.99837E+00 8.23449E+05 1.13909E+06 8.62168E-06 1.00089E+06 9.45955E-06
 -1       218-1.36402E+00 6.07810E+05 1.65617E+06-7.76504E+00 9.84107E+05-5.46903E+00
 -1       219 4.77754E+00 4.18485E+05 5.47284E+05 1.44879E+01 5.02859E+05 8.48921E+00
 -1       220 2.96149E+00 8.23423E+05 1.13909E+06-4.03405E+00 1.00088E+06-1.49920E+00
 -1       221-1.25705E+00 6.07793E+05 1.65618E+06 7.37259E-06 9.84104E+05 1.22097E-05
 -1       222 4.79810E+00 4.18512E+05 5.47285E+05 4.34814E-06 5.02868E+05 4.08353E-06
 -1       223 2.25166E+00 9.47083E+05 5.16412E+05 1.46720E+01 7.12369E+05 1.64650E+00
 -1       224 2.26395E+00 9.47176E+05 5.16422E+05 6.67840E-06 7.12388E+05 6.65916E-06
 -1       225-1.35745E+00 8.81805E+05 8.18778E+05-8.18139E+00 8.45156E+05-2.05777E+00
 -1       226 3.86035E+00 4.82164E+05 2.45190E+05 1.40110E+01 3.55261E+05 2.96695E+00
 -1       227 2.25780E+00 9.47129E+05 5.16417E+05-6.92476E+00 7.12379E+05-1.71530E+00
 -1       228-1.31440E+00 8.81769E+05 8.18774E+05 8.62946E-06 8.45148E+05 7.97176E-06
 -1       229 3.90223E+00 4.82220E+05 2.45197E+05 3.69898E-06 3.55279E+05 3.29588E-06
 -1       230 5.42768E-01 8.54550E+05 2.20481E+05 1.08299E+01 4.40393E+05-2.94937E+00
 -1       231 6.29855E-01 8.54686E+05 2.20491E+05 4.16117E-06 4.40413E+05 4.23360E-06
 -1       232-7.28586E-01 8.92653E+05 3.67853E+05-6.39091E+00 5.70992E+05 6.41266E-01
 -1       233 2.33247E+00 4.36764E+05 1.03615E+05 1.12394E+01 2.17987E+05-1.26074E+00
 -1       234 5.86312E-01 8.54618E+05 2.20486E+05-1.13246E+01 4.40403E+05-2.48998E+00
 -1       235-6.78946E-01 8.92595E+05 3.67847E+05 6.22638E-06 5.70982E+05 5.37177E-06
 -1       236 2.43066E+00 4.36853E+05 1.03622E+05 1.57533E-06 2.18007E+05 1.63601E-06
 -1       237-2.75377E+00 6.87690E+05 9.24184E+04 7.06844E-01 2.53967E+05-6.57921E+00
 -1       238-2.95482E+00 6.87869E+05 9.24272E+04 1.24925E-05 2.53990E+05-4.96774E-07
 -1       239 3.29104E-01 7.64381E+05 1.57052E+05-4.29330E+00 3.46473E+05 2.49474E+00
 -1       240-1.26828E-01 3.53398E+05 4.30032E+04 3.72142E+00 1.24881E+05-4.33110E+00
 -1       241-2.85429E+00 6.87779E+05 9.24228E+04-1.76494E+01 2.53978E+05-3.83850E+00
 -1       242 2.72261E-01 7.64301E+05 1.57047E+05 6.58579E-06 3.46463E+05 2.22161E-06
 -1       243-6.74500E-02 3.53520E+05 4.30086E+04 3.88781E-06 1.24901E+05 3.07605E-07
 -1       244-7.28182E+00 5.16034E+05 3.90234E+04 2.43014E-01 1.41286E+05-8.12096E+00
 -1       245-6.37294E+00 5.16267E+05 3.90315E+04-4.59893E-07 1.41301E+05 1.62429E-06
 -1       246 2.57145E+00 5.97762E+05 6.56387E+04 3.82832E+00 1.98943E+05 4.22694E+00
 -1       247-4.42038E+00 2.67648E+05 1.80906E+04 2.79833E+00 6.87885E+04-6.33226E+00
 -1       248-6.82738E+00 5.16151E+05 3.90274E+04-2.65451E+01 1.41293E+05-4.65927E+00
 -1       249 2.92498E+00 5.97662E+05 6.56347E+04 6.12828E-06 1.98930E+05 5.00148E-07
 -1       250-3.98761E+00 2.67807E+05 1.80972E+04 3.58869E-06 6.88099E+04 1.40994E-06
 -1       251-1.62757E+01 3.63802E+05 1.69158E+04-5.13111E+01 7.62113E+04-1.30393E+01
 -1       252-1.89860E+01 3.64075E+05 1.69225E+04 3.66124E-06 7.62653E+04 1.38895E-06
 -1       253 4.67509E+00 4.38168E+05 2.72340E+04-3.96050E+00 1.10651E+05 4.05351E+00
 -1       254-9.76092E+00 1.91620E+05 7.90194E+03-3.41301E+01 3.65723E+04-8.56397E+00
 -1       255-1.76309E+01 3.63938E+05 1.69191E+04-3.77748E+01 7.62383E+04-8.08086E+00
 -1       256 3.77537E+00 4.38035E+05 2.72300E+04-1.39238E-06 1.10650E+05 1.19282E-06
 -1       257-1.04440E+01 1.91822E+05 7.90310E+03 2.93452E-06 3.65991E+04 1.50775E-07
 -1       258-2.45284E+01 2.33195E+05 7.62102E+03 7.09181E+01 3.95332E+04-5.14259E+00
 -1       259-1.45902E+01 2.33583E+05 7.63089E+03-1.27222E-05 3.94641E+04-5.01148E-06
 -1       260 1.25345E+01 2.98688E+05 1.13418E+04 5.58692E+01 5.98852E+04 9.07237E+00
 -1       261-2.35902E+01 1.26666E+05 3.48381E+03 4.91348E+01 1.81019E+04-8.50763E+00
 -1       262-1.95593E+01 2.33389E+05 7.62596E+03-5.32675E+01 3.94987E+04-3.73532E+00
 -1       263 1.61456E+01 2.98542E+05 1.13382E+04-1.22800E-06 5.98332E+04-1.83707E-06
 -1       264-1.97878E+01 1.26922E+05 3.50570E+03-3.48426E-06 1.81299E+04-2.30888E-06
 -1       265-5.36946E+01 1.19860E+05 2.55125E+03-4.79612E+02 1.47973E+04-4.18064E+01
 -1       266-8.59807E+01 1.20169E+05 2.56212E+03 1.03518E-05 1.52394E+04-1.39873E-06
 -1       267 8.45259E+00 1.78588E+05 4.36127E+03-1.27548E+02 2.93658E+04-3.87431E+00
 -1       268-2.15040E+01 7.01215E+04 1.25859E+03-3.33497E+02 6.78400E+03-1.72886E+01
 -1       269-6.98376E+01 1.20015E+05 2.55669E+03-7.07986E+01 1.50183E+04-2.80988E+01
 -1       270-2.71382E+00 1.78347E+05 4.35878E+03 6.05633E-07 2.94849E+04-4.22951E-07
 -1       271-3.39246E+01 7.04353E+04 1.21506E+03 1.65590E-06 6.84391E+03 8.02394E-07
 -1       272 3.70055E+01 4.84902E+04-2.17019E+02 1.95234E+03 4.84663E+03 2.84295E+01
 -1       273 1.45613E+02 4.34224E+04-2.55193E+02-3.66088E-06 2.66657E+03 1.08647E-06
 -1       274 6.14889E+01 6.98602E+04 2.05608E+03 6.10712E+02 1.30308E+04 4.68785E+01
 -1       275-7.88610E+01 1.95907E+04-8.44901E+02 1.29253E+03-1.83881E+02-3.69516E+01
 -1       276 9.13092E+01 4.59563E+04-2.36106E+02 8.33094E+02 3.75660E+03 5.37751E+01
 -1       277 9.96440E+01 6.97765E+04 2.03013E+03 1.08689E-06 1.24774E+04-2.87907E-06
 -1       278-3.05927E+01 1.58123E+04-6.85395E+02-3.61498E-06-9.06994E+02-3.71294E-06
 -1       279 3.29215E+02-1.60822E+05 3.27889E+06 1.25246E+02 9.68327E+04-1.72457E+02
 -1       280 1.95879E+00 3.70237E+05 2.22827E+06-1.20100E+01 9.81755E+05-1.46907E+01
 -1       281 3.29215E+02-1.60869E+05 3.27885E+06 9.73818E+01 9.68756E+04-1.50964E+02
 -1       282 2.02881E+00 3.70246E+05 2.22825E+06 1.80459E+00 9.81756E+05 1.82172E+00
 -1       283 2.37178E+02-1.29708E+05 1.60167E+06 9.10504E+01 5.78955E+04-1.09519E+02
 -1       284-3.47679E-01 1.29966E+05 2.79163E+06 4.34361E+00 5.53422E+05 9.04899E+00
 -1       285 5.16755E+00 1.77450E+05 1.07982E+06-1.06289E+01 5.04940E+05-1.44540E+01
 -1       286 2.92461E+00 8.23397E+05 1.13909E+06-1.59246E+01 1.00087E+06-7.77447E+00
 -1       287 2.96149E+00 8.23423E+05 1.13909E+06 4.03406E+00 1.00088E+06 1.49921E+00
 -1       288-1.36402E+00 6.07810E+05 1.65617E+06 7.76504E+00 9.84107E+05 5.46904E+00
 -1       289 4.77754E+00 4.18485E+05 5.47284E+05-1.44879E+01 5.02859E+05-8.48920E+00
 -1       290 2.25166E+00 9.47083E+05 5.16412E+05-1.46720E+01 7.12369E+05-1.64650E+00
 -1       291 2.25780E+00 9.47129E+05 5.16417E+05 6.92477E+00 7.12379E+05 1.71531E+00
 -1       292-1.35745E+00 8.81805E+05 8.18778E+05 8.18140E+00 8.45156E+05 2.05778E+00
 -1       293 3.86035E+00 4.82164E+05 2.45190E+05-1.40110E+01 3.55261E+05-2.96694E+00
 -1       294 5.42768E-01 8.54550E+05 2.20481E+05-1.08298E+01 4.40393E+05 2.94937E+00
 -1       295 5.86312E-01 8.54618E+05 2.20486E+05 1.13246E+01 4.40403E+05 2.48998E+00
 -1       296-7.28587E-01 8.92653E+05 3.67853E+05 6.39093E+00 5.70992E+05-6.41261E-01
 -1       297 2.33247E+00 4.36764E+05 1.03615E+05-1.12394E+01 2.17987E+05 1.26074E+00
 -1       298-2.75377E+00 6.87690E+05 9.24184E+04-7.06846E-01 2.53967E+05 6.57921E+00
 -1       299-2.85429E+00 6.87779E+05 9.24228E+04 1.76494E+01 2.53978E+05 3.83850E+00
 -1       300 3.29104E-01 7.64381E+05 1.57052E+05 4.29330E+00 3.46473E+05-2.49473E+00
 -1       301-1.26827E-01 3.53398E+05 4.30032E+04-3.72142E+00 1.24881E+05 4.33110E+00
 -1       302-7.28182E+00 5.16034E+05 3.90234E+04-2.43014E-01 1.41286E+05 8.12096E+00
 -1       303-6.82738E+00 5.16151E+05 3.90274E+04 2.65451E+01 1.41293E+05 4.65927E+00
 -1       304 2.57145E+00 5.97762E+05 6.56387E+04-3.82832E+00 1.98943E+05-4.22694E+00
 -1       305-4.42038E+00 2.67648E+05 1.80906E+04-2.79833E+00 6.87885E+04 6.33226E+00
 -1       306-1.62757E+01 3.63802E+05 1.69158E+04 5.13111E+01 7.62113E+04 1.30393E+01
 -1       307-1.76309E+01 3.63938E+05 1.69191E+04 3.77749E+01 7.62383E+04 8.08085E+00
 -1       308 4.67509E+00 4.38168E+05 2.72340E+04 3.96051E+00 1.10651E+05-4.05351E+00
 -1       309-9.76092E+00 1.91620E+05 7.90194E+03 3.41301E+01 3.65723E+04 8.56397E+00
 -1       310-2.45284E+01 2.33195E+05 7.62102E+03-7.09180E+01 3.95332E+04 5.14259E+00
 -1       311-1.95593E+01 2.33389E+05 7.62596E+03 5.32675E+01 3.94987E+04 3.73532E+00
 -1       312 1.25345E+01 2.98688E+05 1.13418E+04-5.58692E+01 5.98852E+04-9.07237E+00
 -1       313-2.35902E+01 1.26666E+05 3.48381E+03-4.91347E+01 1.81019E+04 8.50763E+00
 -1       314-5.36946E+01 1.19860E+05 2.55125E+03 4.79612E+02 1.47973E+04 4.18064E+01
 -1       315-6.98376E+01 1.20015E+05 2.55669E+03 7.07986E+01 1.50183E+04 2.80988E+01
 -1       316 8.45259E+00 1.78588E+05 4.36127E+03 1.27548E+02 2.93658E+04 3.87431E+00
 -1       317-2.15040E+01 7.01215E+04 1.25859E+03 3.33497E+02 6.78400E+03 1.72886E+01
 -1       318 3.70055E+01 4.84902E+04-2.17019E+02-1.95234E+03 4.84663E+03-2.84295E+01
 -1       319 9.13092E+01 4.59563E+04-2.36106E+02-8.33094E+02 3.75660E+03-5.37751E+01
 -1       320 6.14889E+01 6.98602E+04 2.05608E+03-6.10712E+02 1.30308E+04-4.68785E+01
 -1       321-7.88609E+01 1.95907E+04-8.44901E+02-1.29253E+03-1.83881E+02 3.69516E+01
 -3
    1PSTEP                        31          16           1          
  100CL  116 1.000000000         321                     0   16           1
 -4  DISP        4    1
 -5  D1          1    2    1    0
 -5  D2          1    2    2    0
 -5  D3          1    2    3    0
 -5  ALL         1    2    0    0    1ALL
 -1         1 0.00000E+00 0.00000E+00 0.00000E+00
 -1         2 0.00000E+00 0.00000E+00 0.00000E+00
 -1         3-1.55641E-07 2.01811E-01-2.75778E-02
 -1         4-3.86043E-07 1.95989E-01-5.60783E-02
 -1         5 0.00000E+00 0.00000E+00 0.00000E+00
 -1         6 0.00000E+00 0.00000E+00 0.00000E+00
 -1         7-8.96942E-15 2.01811E-01-2.75778E-02
 -1         8-3.64880E-15 1.95989E-01-5.60783E-02
 -1         9 0.00000E+00 0.00000E+00 0.00000E+00
 -1        10 3.52098E-08 5.27480E-02-3.83165E-03
 -1        11-2.70851E-07 1.98898E-01-4.18211E-02
 -1        12 9.56388E-08 5.11646E-02-1.90403E-02
 -1        13 0.00000E+00 0.00000E+00 0.00000E+00
 -1        14 0.00000E+00 0.00000E+00 0.00000E+00
 -1        15-7.78234E-08 2.01811E-01-2.75778E-02
 -1        16-1.93018E-07 1.95989E-01-5.60783E-02
 -1        17 0.00000E+00 0.00000E+00 0.00000E+00
 -1        18-1.09449E-15 5.27480E-02-3.83166E-03
 -1        19-6.34501E-15 1.98898E-01-4.18211E-02
 -1        20 1.13445E-15 5.11647E-02-1.90403E-02
 -1        21-3.37436E-07 7.26155E-01-1.80752E-01
 -1        22-7.80620E-07 7.08635E-01-2.28299E-01
 -1        23-4.03757E-14 7.26155E-01-1.80752E-01
 -1        24-2.97275E-14 7.08635E-01-2.28299E-01
 -1        25 1.20417E-07 4.31809E-01-8.42796E-02
 -1        26-5.59013E-07 7.17397E-01-2.04522E-01
 -1        27 2.90467E-07 4.20681E-01-1.23362E-01
 -1        28-1.68720E-07 7.26155E-01-1.80752E-01
 -1        29-3.90305E-07 7.08635E-01-2.28299E-01
 -1        30-2.16138E-14 4.31809E-01-8.42797E-02
 -1        31-3.47891E-14 7.17397E-01-2.04522E-01
 -1        32-1.45173E-14 4.20681E-01-1.23362E-01
 -1        33-5.39839E-07 1.45528E+00-4.99531E-01
 -1        34-1.18574E-06 1.42558E+00-5.58552E-01
 -1        35-8.65532E-14 1.45528E+00-4.99531E-01
 -1        36-7.23473E-14 1.42558E+00-5.58553E-01
 -1        37 2.16989E-07 1.07136E+00-3.19445E-01
 -1        38-8.62783E-07 1.44043E+00-5.29039E-01
 -1        39 4.90212E-07 1.04784E+00-3.73602E-01
 -1        40-2.69915E-07 1.45528E+00-4.99531E-01
 -1        41-5.92869E-07 1.42558E+00-5.58552E-01
 -1        42-6.22619E-14 1.07136E+00-3.19445E-01
 -1        43-7.96442E-14 1.44043E+00-5.29039E-01
 -1        44-5.15952E-14 1.04784E+00-3.73602E-01
 -1        45-7.59095E-07 2.30425E+00-9.73166E-01
 -1        46-1.60182E-06 2.26412E+00-1.03872E+00
 -1        47-1.51569E-13 2.30425E+00-9.73166E-01
 -1        48-1.29235E-13 2.26412E+00-1.03872E+00
 -1        49 3.22852E-07 1.86877E+00-7.18615E-01
 -1        50-1.18036E-06 2.28419E+00-1.00594E+00
 -1        51 6.95547E-07 1.83373E+00-7.81556E-01
 -1        52-3.79540E-07 2.30425E+00-9.73166E-01
 -1        53-8.00908E-07 2.26412E+00-1.03872E+00
 -1        54-1.17008E-13 1.86877E+00-7.18615E-01
 -1        55-1.40058E-13 2.28419E+00-1.00594E+00
 -1        56-1.01125E-13 1.83374E+00-7.81556E-01
 -1        57-9.91363E-07 3.22030E+00-1.57331E+00
 -1        58-2.02543E-06 3.17200E+00-1.64248E+00
 -1        59-2.13342E-13 3.22030E+00-1.57331E+00
 -1        60-1.94993E-13 3.17200E+00-1.64248E+00
 -1        61 4.36277E-07 2.75623E+00-1.25936E+00
 -1        62-1.50851E-06 3.19615E+00-1.60790E+00
 -1        63 9.06195E-07 2.71182E+00-1.32720E+00
 -1        64-4.95660E-07 3.22030E+00-1.57331E+00
 -1        65-1.01271E-06 3.17200E+00-1.64248E+00
 -1        66-1.83417E-13 2.75623E+00-1.25936E+00
 -1        67-2.03388E-13 3.19615E+00-1.60790E+00
 -1        68-1.67001E-13 2.71182E+00-1.32720E+00
 -1        69-1.23061E-06 4.17294E+00-2.26976E+00
 -1        70-2.45149E-06 4.11860E+00-2.34089E+00
 -1        71-2.71618E-13 4.17294E+00-2.26976E+00
 -1        72-2.62837E-13 4.11860E+00-2.34089E+00
 -1        73 5.55191E-07 3.69336E+00-1.91125E+00
 -1        74-1.84043E-06 4.14577E+00-2.30532E+00
 -1        75 1.11924E-06 3.64183E+00-1.98175E+00
 -1        76-6.15310E-07 4.17294E+00-2.26976E+00
 -1        77-1.22576E-06 4.11860E+00-2.34089E+00
 -1        78-2.32746E-13 3.69336E+00-1.91125E+00
 -1        79-2.66779E-13 4.14577E+00-2.30532E+00
 -1        80-2.22147E-13 3.64183E+00-1.98175E+00
 -1        81-1.46769E-06 5.14524E+00-3.03595E+00
 -1        82-2.86130E-06 5.08663E+00-3.10813E+00
 -1        83-3.42541E-13 5.14524E+00-3.03595E+00
 -1        84-3.24010E-13 5.08663E+00-3.10813E+00
 -1        85 6.75473E-07 4.65737E+00-2.64558E+00
 -1        86-2.16632E-06 5.11594E+00-3.07204E+00
 -1        87 1.33185E-06 4.60068E+00-2.71751E+00
 -1        88-7.33759E-07 5.14524E+00-3.03595E+00
 -1        89-1.43056E-06 5.08663E+00-3.10813E+00
 -1        90-3.19178E-13 4.65737E+00-2.64558E+00
 -1        91-3.31622E-13 5.11593E+00-3.07204E+00
 -1        92-3.16593E-13 4.60068E+00-2.71751E+00
 -1        93-1.68578E-06 6.12789E+00-3.84991E+00
 -1        94-3.25489E-06 6.06648E+00-3.92264E+00
 -1        95-3.97806E-13 6.12789E+00-3.84991E+00
 -1        96-3.84417E-13 6.06648E+00-3.92264E+00
 -1        97 7.92712E-07 5.63570E+00-3.43814E+00
 -1        98-2.46353E-06 6.09719E+00-3.88628E+00
 -1        99 1.53024E-06 5.57547E+00-3.51082E+00
 -1       100-8.43044E-07 6.12789E+00-3.84991E+00
 -1       101-1.62779E-06 6.06648E+00-3.92264E+00
 -1       102-3.68136E-13 5.63570E+00-3.43814E+00
 -1       103-3.92500E-13 6.09718E+00-3.88628E+00
 -1       104-3.57258E-13 5.57548E+00-3.51082E+00
 -1       105-1.86492E-06 7.11574E+00-4.69355E+00
 -1       106-3.53543E-06 7.05276E+00-4.76653E+00
 -1       107-4.20524E-13 7.11573E+00-4.69355E+00
 -1       108-3.99995E-13 7.05275E+00-4.76653E+00
 -1       109 8.92158E-07 6.62143E+00-4.26900E+00
 -1       110-2.72468E-06 7.08425E+00-4.73004E+00
 -1       111 1.72180E-06 6.55902E+00-4.34206E+00
 -1       112-9.31973E-07 7.11574E+00-4.69355E+00
 -1       113-1.76616E-06 7.05276E+00-4.76653E+00
 -1       114-3.95738E-13 6.62143E+00-4.26900E+00
 -1       115-4.11419E-13 7.08424E+00-4.73004E+00
 -1       116-3.91225E-13 6.55902E+00-4.34206E+00
 -1       117-1.96367E-06 8.10575E+00-5.55136E+00
 -1       118-3.90455E-06 8.04228E+00-5.62441E+00
 -1       119-4.22452E-13 8.10574E+00-5.55136E+00
 -1       120-3.88541E-13 8.04227E+00-5.62441E+00
 -1       121 9.77417E-07 7.61068E+00-5.12155E+00
 -1       122-2.84073E-06 8.07401E+00-5.58789E+00
 -1       123 1.82167E-06 7.54721E+00-5.19477E+00
 -1       124-9.82619E-07 8.10574E+00-5.55136E+00
 -1       125-1.95884E-06 8.04228E+00-5.62441E+00
 -1       126-3.95768E-13 7.61068E+00-5.12155E+00
 -1       127-4.08077E-13 8.07400E+00-5.58789E+00
 -1       128-3.71870E-13 7.54721E+00-5.19477E+00
 -1       129 0.00000E+00 0.00000E+00 0.00000E+00
 -1       130 0.00000E+00 0.00000E+00 0.00000E+00
 -1       131 1.55641E-07 2.01811E-01-2.75778E-02
 -1       132 3.86043E-07 1.95989E-01-5.60783E-02
 -1       133 0.00000E+00 0.00000E+00 0.00000E+00
 -1       134 0.00000E+00 0.00000E+00 0.00000E+00
 -1       135 7.78234E-08 2.01811E-01-2.75778E-02
 -1       136 1.93018E-07 1.95989E-01-5.60783E-02
 -1       137 0.00000E+00 0.00000E+00 0.00000E+00
 -1       138-3.52098E-08 5.27480E-02-3.83165E-03
 -1       139 2.70851E-07 1.98898E-01-4.18211E-02
 -1       140-9.56388E-08 5.11646E-02-1.90403E-02
 -1       141 3.37436E-07 7.26155E-01-1.80752E-01
 -1       142 7.80619E-07 7.08635E-01-2.28299E-01
 -1       143 1.68720E-07 7.26155E-01-1.80752E-01
 -1       144 3.90305E-07 7.08635E-01-2.28299E-01
 -1       145-1.20417E-07 4.31809E-01-8.42796E-02
 -1       146 5.59013E-07 7.17397E-01-2.04522E-01
 -1       147-2.90467E-07 4.20681E-01-1.23362E-01
 -1       148 5.39839E-07 1.45528E+00-4.99531E-01
 -1       149 1.18574E-06 1.42558E+00-5.58552E-01
 -1       150 2.69915E-07 1.45528E+00-4.99531E-01
 -1       151 5.92869E-07 1.42558E+00-5.58552E-01
 -1       152-2.16989E-07 1.07136E+00-3.19445E-01
 -1       153 8.62783E-07 1.44043E+00-5.29039E-01
 -1       154-4.90212E-07 1.04784E+00-3.73602E-01
 -1       155 7.59094E-07 2.30425E+00-9.73166E-01
 -1       156 1.60182E-06 2.26412E+00-1.03872E+00
 -1       157 3.79540E-07 2.30425E+00-9.73166E-01
 -1       158 8.00908E-07 2.26412E+00-1.03872E+00
 -1       159-3.22852E-07 1.86877E+00-7.18615E-01
 -1       160 1.18036E-06 2.28419E+00-1.00594E+00
 -1       161-6.95547E-07 1.83373E+00-7.81556E-01
 -1       162 9.91363E-07 3.22030E+00-1.57331E+00
 -1       163 2.02543E-06 3.17200E+00-1.64248E+00
 -1       164 4.95660E-07 3.22030E+00-1.57331E+00
 -1       165 1.01271E-06 3.17200E+00-1.64248E+00
 -1       166-4.36278E-07 2.75623E+00-1.25936E+00
 -1       167 1.50851E-06 3.19615E+00-1.60790E+00
 -1       168-9.06196E-07 2.71182E+00-1.32720E+00
 -1       169 1.23061E-06 4.17294E+00-2.26976E+00
 -1       170 2.45148E-06 4.11860E+00-2.34089E+00
 -1       171 6.15309E-07 4.17294E+00-2.26976E+00
 -1       172 1.22576E-06 4.11860E+00-2.34089E+00
 -1       173-5.55191E-07 3.69336E+00-1.91125E+00
 -1       174 1.84043E-06 4.14577E+00-2.30532E+00
 -1       175-1.11924E-06 3.64183E+00-1.98175E+00
 -1       176 1.46769E-06 5.14524E+00-3.03595E+00
 -1       177 2.86130E-06 5.08663E+00-3.10813E+00
 -1       178 7.33758E-07 5.14524E+00-3.03595E+00
 -1       179 1.43056E-06 5.08663E+00-3.10813E+00
 -1       180-6.75473E-07 4.65737E+00-2.64558E+00
 -1       181 2.16632E-06 5.11594E+00-3.07204E+00
 -1       182-1.33185E-06 4.60068E+00-2.71751E+00
 -1       183 1.68578E-06 6.12789E+00-3.84991E+00
 -1       184 3.25489E-06 6.06648E+00-3.92264E+00
 -1       185 8.43043E-07 6.12789E+00-3.84991E+00
 -1       186 1.62779E-06 6.06648E+00-3.92264E+00
 -1       187-7.92713E-07 5.63570E+00-3.43814E+00
 -1       188 2.46353E-06 6.09719E+00-3.88628E+00
 -1       189-1.53024E-06 5.57547E+00-3.51082E+00
 -1       190 1.86492E-06 7.11574E+00-4.69355E+00
 -1       191 3.53543E-06 7.05276E+00-4.76653E+00
 -1       192 9.31972E-07 7.11574E+00-4.69355E+00
 -1       193 1.76616E-06 7.05276E+00-4.76653E+00
 -1       194-8.92159E-07 6.62143E+00-4.26900E+00
 -1       195 2.72468E-06 7.08425E+00-4.73004E+00
 -1       196-1.72180E-06 6.55902E+00-4.34206E+00
 -1       197 1.96367E-06 8.10575E+00-5.55136E+00
 -1       198 3.90455E-06 8.04228E+00-5.62441E+00
 -1       199 9.82618E-07 8.10574E+00-5.55136E+00
 -1       200 1.95884E-06 8.04228E+00-5.62441E+00
 -1       201-9.77418E-07 7.61068E+00-5.12155E+00
 -1       202 2.84072E-06 8.07401E+00-5.58789E+00
 -1       203-1.82167E-06 7.54721E+00-5.19477E+00
 -1       204 0.00000E+00 0.00000E+00 0.00000E+00
 -1       205-3.52548E-07 2.07600E-01 9.02037E-04
 -1       206 0.00000E+00 0.00000E+00 0.00000E+00
 -1       207-1.33578E-14 2.07600E-01 9.02275E-04
 -1       208 0.00000E+00 0.00000E+00 0.00000E+00
 -1       209 8.80604E-08 5.43413E-02 1.13899E-02
 -1       210-2.54084E-07 2.04708E-01-1.33446E-02
 -1       211 0.00000E+00 0.00000E+00 0.00000E+00
 -1       212-1.76265E-07 2.07600E-01 9.02156E-04
 -1       213 0.00000E+00 0.00000E+00 0.00000E+00
 -1       214-3.59109E-15 5.43414E-02 1.13898E-02
 -1       215-1.11653E-14 2.04708E-01-1.33444E-02
 -1       216-7.08903E-07 7.43634E-01-1.33202E-01
 -1       217-4.81678E-14 7.43634E-01-1.33201E-01
 -1       218 2.64477E-07 4.42958E-01-4.51914E-02
 -1       219-5.23168E-07 7.34893E-01-1.56981E-01
 -1       220-3.54446E-07 7.43634E-01-1.33202E-01
 -1       221-2.92874E-14 4.42958E-01-4.51916E-02
 -1       222-4.41367E-14 7.34893E-01-1.56981E-01
 -1       223-1.07255E-06 1.48496E+00-4.40475E-01
 -1       224-9.78127E-14 1.48496E+00-4.40474E-01
 -1       225 4.44406E-07 1.09489E+00-2.65299E-01
 -1       226-8.06151E-07 1.47012E+00-4.70005E-01
 -1       227-5.36275E-07 1.48496E+00-4.40474E-01
 -1       228-7.42705E-14 1.09489E+00-2.65299E-01
 -1       229-9.21646E-14 1.47012E+00-4.70005E-01
 -1       230-1.44168E-06 2.34439E+00-9.07552E-01
 -1       231-1.69555E-13 2.34439E+00-9.07552E-01
 -1       232 6.28085E-07 1.90381E+00-6.55698E-01
 -1       233-1.10042E-06 2.32432E+00-9.40361E-01
 -1       234-7.20833E-07 2.34439E+00-9.07552E-01
 -1       235-1.33310E-13 1.90381E+00-6.55698E-01
 -1       236-1.60325E-13 2.32432E+00-9.40360E-01
 -1       237-1.81177E-06 3.26863E+00-1.50407E+00
 -1       238-2.25518E-13 3.26863E+00-1.50407E+00
 -1       239 8.13541E-07 2.80063E+00-1.19155E+00
 -1       240-1.40131E-06 3.24446E+00-1.53869E+00
 -1       241-9.05900E-07 3.26863E+00-1.50407E+00
 -1       242-2.02214E-13 2.80063E+00-1.19155E+00
 -1       243-2.18965E-13 3.24446E+00-1.53869E+00
 -1       244-2.17139E-06 4.22734E+00-2.19855E+00
 -1       245-2.72867E-13 4.22734E+00-2.19855E+00
 -1       246 9.98159E-07 3.74488E+00-1.84078E+00
 -1       247-1.70169E-06 4.20014E+00-2.23416E+00
 -1       248-1.08564E-06 4.22734E+00-2.19855E+00
 -1       249-2.47665E-13 3.74488E+00-1.84078E+00
 -1       250-2.71266E-13 4.20014E+00-2.23416E+00
 -1       251-2.51187E-06 5.20393E+00-2.96369E+00
 -1       252-3.52968E-13 5.20392E+00-2.96369E+00
 -1       253 1.17328E-06 4.71403E+00-2.57369E+00
 -1       254-1.98739E-06 5.17458E+00-2.99982E+00
 -1       255-1.25611E-06 5.20393E+00-2.96369E+00
 -1       256-3.25368E-13 4.71403E+00-2.57369E+00
 -1       257-3.46289E-13 5.17458E+00-2.99982E+00
 -1       258-2.78792E-06 6.18941E+00-3.77711E+00
 -1       259-4.03532E-13 6.18940E+00-3.77711E+00
 -1       260 1.33872E-06 5.69587E+00-3.36550E+00
 -1       261-2.24479E-06 6.15865E+00-3.81351E+00
 -1       262-1.39334E-06 6.18941E+00-3.77711E+00
 -1       263-3.80576E-13 5.69587E+00-3.36550E+00
 -1       264-4.00257E-13 6.15864E+00-3.81351E+00
 -1       265-3.03491E-06 7.17887E+00-4.62049E+00
 -1       266-4.27262E-13 7.17887E+00-4.62049E+00
 -1       267 1.44855E-06 6.68378E+00-4.19599E+00
 -1       268-2.42246E-06 7.14731E+00-4.65702E+00
 -1       269-1.51945E-06 7.17887E+00-4.62049E+00
 -1       270-4.04969E-13 6.68379E+00-4.19599E+00
 -1       271-4.26813E-13 7.14730E+00-4.65702E+00
 -1       272-2.94978E-06 8.16943E+00-5.47822E+00
 -1       273-4.43753E-13 8.16942E+00-5.47822E+00
 -1       274 1.59178E-06 7.67406E+00-5.04838E+00
 -1       275-2.55369E-06 8.13758E+00-5.51479E+00
 -1       276-1.46823E-06 8.16942E+00-5.47822E+00
 -1       277-4.31018E-13 7.67407E+00-5.04838E+00
 -1       278-4.32987E-13 8.13758E+00-5.51479E+00
 -1       279 0.00000E+00 0.00000E+00 0.00000E+00
 -1       280 3.52548E-07 2.07600E-01 9.02037E-04
 -1       281 0.00000E+00 0.00000E+00 0.00000E+00
 -1       282 1.76265E-07 2.07600E-01 9.02156E-04
 -1       283 0.00000E+00 0.00000E+00 0.00000E+00
 -1       284-8.80604E-08 5.43413E-02 1.13899E-02
 -1       285 2.54084E-07 2.04708E-01-1.33446E-02
 -1       286 7.08902E-07 7.43634E-01-1.33202E-01
 -1       287 3.54446E-07 7.43634E-01-1.33202E-01
 -1       288-2.64477E-07 4.42958E-01-4.51914E-02
 -1       289 5.23167E-07 7.34893E-01-1.56981E-01
 -1       290 1.07255E-06 1.48496E+00-4.40475E-01
 -1       291 5.36274E-07 1.48496E+00-4.40474E-01
 -1       292-4.44406E-07 1.09489E+00-2.65299E-01
 -1       293 8.06151E-07 1.47012E+00-4.70005E-01
 -1       294 1.44168E-06 2.34439E+00-9.07552E-01
 -1       295 7.20833E-07 2.34439E+00-9.07552E-01
 -1       296-6.28085E-07 1.90381E+00-6.55698E-01
 -1       297 1.10042E-06 2.32432E+00-9.40361E-01
 -1       298 1.81177E-06 3.26863E+00-1.50407E+00
 -1       299 9.05900E-07 3.26863E+00-1.50407E+00
 -1       300-8.13542E-07 2.80063E+00-1.19155E+00
 -1       301 1.40131E-06 3.24446E+00-1.53869E+00
 -1       302 2.17139E-06 4.22734E+00-2.19855E+00
 -1       303 1.08564E-06 4.22734E+00-2.19855E+00
 -1       304-9.98160E-07 3.74488E+00-1.84078E+00
 -1       305 1.70169E-06 4.20014E+00-2.23416E+00
 -1       306 2.51187E-06 5.20393E+00-2.96369E+00
 -1       307 1.25610E-06 5.20393E+00-2.96369E+00
 -1       308-1.17328E-06 4.71403E+00-2.57369E+00
 -1       309 1.98739E-06 5.17458E+00-2.99982E+00
 -1       310 2.78791E-06 6.18941E+00-3.77711E+00
 -1       311 1.39334E-06 6.18941E+00-3.77711E+00
 -1       312-1.33872E-06 5.69587E+00-3.36550E+00
 -1       313 2.24479E-06 6.15865E+00-3.81351E+00
 -1       314 3.03491E-06 7.17887E+00-4.62049E+00
 -1       315 1.51945E-06 7.17887E+00-4.62049E+00
 -1       316-1.44856E-06 6.68378E+00-4.19599E+00
 -1       317 2.42246E-06 7.14731E+00-4.65702E+00
 -1       318 2.94977E-06 8.16943E+00-5.47822E+00
 -1       319 1.46823E-06 8.16942E+00-5.47822E+00
 -1       320-1.59178E-06 7.67406E+00-5.04838E+00
 -1       321 2.55369E-06 8.13758E+00-5.51479E+00
 -3
    1PSTEP                        32          16           1          
  100CL  116 1.000000000         321                     0   16           1
 -4  STRESS      6    1
 -5  SXX         1    4    1    1
 -5  SYY         1    4    2    2
 -5  SZZ         1    4    3    3
 -5  SXY         1    4    1    2
 -5  SYZ         1    4    2    3
 -5  SZX         1    4    3    1
 -1         1 3.95916E+02-1.67491E+04-3.19152E+06-6.65003E+00-3.93167E+04 2.30737E+01
 -1         2 1.50723E+02-9.09096E+04-7.85673E+04 1.47065E+01 2.43303E+04 3.81288E+01
 -1         3 8.77139E+00-1.81068E+04-6.91571E+04 4.84354E+00 2.67912E+04 8.10878E+00
 -1         4 2.02314E+00-3.49780E+05-2.16653E+06 9.50342E+00-9.57055E+05 1.23861E+01
 -1         5 3.95916E+02-1.66069E+04-3.19152E+06-1.50242E-07-3.92921E+04 8.26390E-08
 -1         6 1.50723E+02-9.08971E+04-7.85888E+04 1.45043E-07 2.43710E+04 5.02943E-08
 -1         7 8.72287E+00-1.81096E+04-6.91679E+04-3.41637E-07 2.67862E+04 3.34762E-08
 -1         8 2.07238E+00-3.49754E+05-2.16653E+06 1.78772E-07-9.57044E+05 3.89319E-07
 -1         9 2.72765E+02-4.80054E+04-1.63510E+06 4.06316E+01-5.29197E+03 2.57971E+01
 -1        10-4.89626E+00-3.08090E+04-6.89634E+04-9.22289E-01 1.69216E+04-4.11430E+00
 -1        11 5.44626E+00-1.85448E+05-1.11682E+06 4.65426E+00-4.66196E+05 6.88966E+00
 -1        12-8.04668E-01-1.64688E+05-2.71200E+06-2.51279E+00-5.31618E+05-7.09129E+00
 -1        13 3.95916E+02-1.66780E+04-3.19152E+06-5.06124E+01-3.93044E+04 1.08729E+01
 -1        14 1.50723E+02-9.09033E+04-7.85781E+04 1.04779E+01 2.43507E+04 3.13046E+01
 -1        15 8.74713E+00-1.81082E+04-6.91625E+04-7.37452E-01 2.67887E+04 1.87825E+00
 -1        16 2.04776E+00-3.49767E+05-2.16653E+06-4.72040E-01-9.57050E+05 1.53454E+00
 -1        17 2.72765E+02-4.78687E+04-1.63511E+06-4.66726E-08-5.27649E+03 7.29744E-08
 -1        18-4.92056E+00-3.08066E+04-6.89548E+04-4.71433E-08 1.69254E+04-1.48940E-08
 -1        19 5.44626E+00-1.85434E+05-1.11682E+06-1.13164E-07-4.66194E+05 2.11054E-07
 -1        20-7.80092E-01-1.64693E+05-2.71200E+06 2.57986E-07-5.31624E+05 2.29264E-07
 -1        21 6.90211E+00 1.24843E+04-4.42994E+04 9.21114E+00 5.33945E+03 5.88269E+00
 -1        22 2.88369E+00-8.07782E+05-1.10229E+06 1.51704E+01-9.69173E+05 7.25833E+00
 -1        23 6.86645E+00 1.24908E+04-4.43012E+04 7.51176E-07 5.33958E+03-9.98526E-08
 -1        24 2.96084E+00-8.07725E+05-1.10229E+06-1.35924E-07-9.69160E+05 1.82084E-09
 -1        25-3.73037E+00-1.05707E+04-5.22091E+04-3.83629E+00 1.35557E+04-3.72092E+00
 -1        26 4.93425E+00-3.98740E+05-5.72662E+05 9.90121E+00-4.81478E+05 4.81001E+00
 -1        27-1.29046E+00-6.08720E+05-1.59189E+06-6.79413E+00-9.61035E+05-5.07319E+00
 -1        28 6.88428E+00 1.24876E+04-4.43003E+04-1.56412E-01 5.33952E+03 1.64145E+00
 -1        29 2.92226E+00-8.07754E+05-1.10229E+06-2.34650E+00-9.69167E+05 4.96783E-01
 -1        30-3.77247E+00-1.05708E+04-5.22067E+04 2.75203E-07 1.35569E+04-7.17393E-08
 -1        31 4.95478E+00-3.98706E+05-5.72664E+05 1.95791E-07-4.81476E+05-1.57925E-07
 -1        32-1.22727E+00-6.08741E+05-1.59189E+06 8.85412E-08-9.61041E+05 1.96096E-07
 -1        33 5.63922E+00 1.77443E+04-2.65771E+04 1.02725E+01-1.11410E+03 2.56582E+00
 -1        34 3.13944E+00-9.18777E+05-4.89894E+05 1.50778E+01-6.87516E+05 1.80935E+00
 -1        35 5.71662E+00 1.77661E+04-2.65759E+04-1.26529E-06-1.11020E+03 3.17250E-07
 -1        36 3.18265E+00-9.18687E+05-4.89890E+05 3.19365E-06-6.87504E+05 1.97924E-08
 -1        37-3.05975E+00 7.60275E+03-3.32955E+04-5.18253E+00 2.79718E+03-2.04760E+00
 -1        38 4.40365E+00-4.50701E+05-2.58436E+05 1.08213E+01-3.43739E+05 1.36226E+00
 -1        39-1.54664E+00-8.71830E+05-7.78970E+05-8.02122E+00-8.10178E+05-2.05669E+00
 -1        40 5.67792E+00 1.77552E+04-2.65765E+04-1.10129E+00-1.11215E+03 6.44014E-01
 -1        41 3.16104E+00-9.18732E+05-4.89892E+05-5.77531E+00-6.87510E+05-5.64481E-01
 -1        42-3.03890E+00 7.59603E+03-3.32955E+04-4.21132E-07 2.79581E+03-8.22481E-08
 -1        43 4.46399E+00-4.50645E+05-2.58435E+05 7.82619E-07-3.43737E+05 2.59094E-07
 -1        44-1.48647E+00-8.71866E+05-7.78972E+05 5.18712E-07-8.10185E+05-6.44929E-08
 -1        45 4.35544E+00 2.01097E+04-1.39057E+04 9.23280E+00-4.21917E+03-1.97255E-01
 -1        46 2.18506E+00-8.21010E+05-2.02842E+05 1.20422E+01-4.19057E+05-1.85805E+00
 -1        47 4.47391E+00 2.01505E+04-1.39038E+04 1.03080E-06-4.21381E+03-8.66275E-07
 -1        48 2.19990E+00-8.20882E+05-2.02840E+05-2.37715E-06-4.19046E+05 2.74350E-07
 -1        49-2.49431E+00 1.33783E+04-2.07908E+04-4.90489E+00-8.26188E+02-4.70089E-01
 -1        50 3.33303E+00-4.00258E+05-1.08813E+05 9.19959E+00-2.11395E+05-1.24009E+00
 -1        51-1.47586E+00-8.66208E+05-3.45224E+05-6.64363E+00-5.39077E+05 2.36845E-01
 -1        52 4.41467E+00 2.01301E+04-1.39048E+04-3.43316E+00-4.21649E+03-3.75743E-01
 -1        53 2.19248E+00-8.20946E+05-2.02841E+05-1.09113E+01-4.19051E+05-1.26299E+00
 -1        54-2.39638E+00 1.33628E+04-2.07916E+04-8.59186E-08-8.28650E+02-7.61942E-08
 -1        55 3.39973E+00-4.00174E+05-1.08812E+05-4.97163E-07-2.11394E+05-5.50394E-07
 -1        56-1.44684E+00-8.66262E+05-3.45226E+05 1.17559E-06-5.39083E+05 2.65368E-07
 -1        57 2.33157E+00 2.01881E+04-6.79896E+03 4.78185E+00-4.29968E+03-1.90183E+00
 -1        58 3.27621E-01-6.50314E+05-8.01197E+04 2.42524E+00-2.37458E+05-3.90200E+00
 -1        59 2.67060E+00 2.02516E+04-6.79684E+03 5.59876E-07-4.29434E+03-4.58845E-08
 -1        60 4.12077E-01-6.50140E+05-8.01196E+04 8.81890E-07-2.37453E+05 2.02347E-06
 -1        61-1.81540E+00 1.62822E+04-1.22884E+04-4.12579E+00-2.41404E+03 6.94763E-01
 -1        62 1.22066E+00-3.14861E+05-4.37900E+04 2.52115E+00-1.20855E+05-2.69304E+00
 -1        63-6.35593E-01-7.28754E+05-1.46376E+05-4.98753E+00-3.20722E+05 1.52470E+00
 -1        64 2.50109E+00 2.02198E+04-6.79790E+03-7.13937E+00-4.29701E+03-9.65637E-01
 -1        65 3.69849E-01-6.50227E+05-8.01197E+04-1.77961E+01-2.37455E+05-1.78020E+00
 -1        66-1.58667E+00 1.62564E+04-1.22892E+04 5.44313E-07-2.41677E+03 7.59222E-08
 -1        67 1.43264E+00-3.14744E+05-4.37888E+04-2.89375E-07-1.20856E+05 6.31579E-07
 -1        68-5.85887E-01-7.28828E+05-1.46376E+05 3.37160E-07-3.20727E+05 5.88824E-07
 -1        69-7.07012E-01 2.00913E+04-2.87795E+03 3.89157E+00-3.69540E+03-3.35544E+00
 -1        70-4.97448E+00-4.77512E+05-3.04522E+04 3.62299E+00-1.28870E+05-3.69340E+00
 -1        71-7.47490E-01 2.01818E+04-2.87613E+03 1.14908E-06-3.68965E+03 6.24456E-07
 -1        72-5.20832E+00-4.77288E+05-3.04518E+04-2.56112E-06-1.28860E+05-2.51344E-06
 -1        73-4.44588E-01 1.74672E+04-7.32841E+03-4.45626E-01-2.55595E+03 1.26278E+00
 -1        74-2.39523E+00-2.28618E+05-1.68003E+04 2.96432E+00-6.62426E+04-2.81183E+00
 -1        75 5.86817E-01-5.57635E+05-6.12552E+04 2.93640E+00-1.80182E+05 2.18200E+00
 -1        76-7.27251E-01 2.01366E+04-2.87704E+03-1.20215E+01-3.69253E+03-2.02607E+00
 -1        77-5.09140E+00-4.77400E+05-3.04520E+04-2.70195E+01-1.28865E+05-1.35917E+00
 -1        78-2.95241E-01 1.74290E+04-7.32958E+03 4.73400E-07-2.55836E+03 4.92222E-07
 -1        79-2.53253E+00-2.28461E+05-1.68007E+04-6.25489E-07-6.62464E+04-3.83935E-07
 -1        80 5.11940E-01-5.57736E+05-6.12548E+04-2.02999E-06-1.80182E+05 8.43185E-07
 -1        81-6.32916E+00 2.01628E+04-9.62330E+02-1.91059E+01-2.97279E+03-2.56382E+00
 -1        82-8.17139E+00-3.26125E+05-1.07594E+04-4.98778E+01-6.71036E+04-5.18222E+00
 -1        83-4.92257E+00 2.02872E+04-9.58906E+02-5.40928E-07-2.96831E+03 5.38331E-07
 -1        84-6.80769E+00-3.25824E+05-1.07632E+04 7.31001E-06-6.71255E+04 2.04471E-06
 -1        85 1.02101E+00 1.80024E+04-4.44955E+03-3.12955E+00-2.38011E+03 2.06642E+00
 -1        86-8.64745E+00-1.52937E+05-5.87403E+03-3.51960E+01-3.49780E+04-3.00256E+00
 -1        87 3.94981E+00-3.96825E+05-2.59214E+04-6.16732E+00-9.73879E+04 1.42105E+00
 -1        88-5.62586E+00 2.02250E+04-9.60618E+02-1.90498E+01-2.97055E+03-7.15011E-01
 -1        89-7.48954E+00-3.25975E+05-1.07613E+04-3.81704E+01-6.71146E+04-2.87710E+00
 -1        90 1.70390E+00 1.79496E+04-4.45038E+03-1.86420E-06-2.38322E+03 4.79572E-08
 -1        91-7.26170E+00-1.52730E+05-5.87029E+03 2.41989E-06-3.49839E+04-9.24228E-08
 -1        92 4.51534E+00-3.96950E+05-2.59221E+04 2.99037E-06-9.73983E+04-3.55795E-07
 -1        93-1.31352E+01 2.04636E+04-1.04439E+02 2.84043E+01-2.11019E+03-7.46207E+00
 -1        94-2.78681E+01-1.97734E+05-3.42821E+03 8.46484E+01-3.34690E+04 4.41755E+00
 -1        95-1.55620E+01 2.06265E+04-1.03390E+02-2.58713E-06-2.09666E+03 3.30528E-06
 -1        96-3.34630E+01-1.97393E+05-3.42141E+03-2.72663E-06-3.33771E+04 1.79335E-06
 -1        97 5.85266E+00 1.80860E+04-2.77954E+03 2.25128E+01-2.05104E+03 6.81645E-01
 -1        98-1.55810E+01-8.87892E+04-1.55906E+03 5.65558E+01-1.71653E+04 7.66227E-01
 -1        99 6.10810E+00-2.57632E+05-1.13112E+04 5.61676E+01-5.07550E+04 3.36338E+00
 -1       100-1.43486E+01 2.05450E+04-1.03914E+02-2.66660E+01-2.10342E+03-7.14442E+00
 -1       101-3.06655E+01-1.97564E+05-3.42481E+03-5.43195E+01-3.34230E+04 3.18356E+00
 -1       102 5.34311E+00 1.80141E+04-2.78191E+03-7.21914E-07-2.05225E+03 2.77304E-06
 -1       103-1.95926E+01-8.85210E+04-1.57119E+03-2.66146E-06-1.71707E+04 3.56092E-06
 -1       104 3.99053E+00-2.57808E+05-1.13088E+04 1.93591E-06-5.07229E+04 6.15134E-07
 -1       105-2.56183E+01 2.14500E+04-1.08739E+02-2.00040E+02-2.35501E+03 8.28275E+00
 -1       106-1.03032E+01-8.83776E+04 5.42955E+02-5.04489E+02-9.27983E+03-2.53344E+01
 -1       107-1.78601E+01 2.16699E+04-1.03070E+02 4.41322E-06-2.36201E+03-1.40163E-06
 -1       108 1.45589E+01-8.78122E+04 5.27857E+02 9.72691E-07-9.60579E+03-4.93255E-06
 -1       109 5.23216E+00 1.79928E+04-1.94410E+03-5.03074E+01-2.16043E+03 6.49171E+00
 -1       110-3.52801E+01-3.32694E+04 1.40709E+02-3.54808E+02-6.38519E+03-7.80942E+00
 -1       111 1.57761E+01-1.38632E+05-4.63767E+03-1.39847E+02-2.22903E+04-7.25273E+00
 -1       112-2.17392E+01 2.15599E+04-1.05905E+02-4.09470E+01-2.35851E+03 1.35760E+01
 -1       113 2.12786E+00-8.80949E+04 5.35406E+02-6.73961E+01-9.44281E+03-1.79679E+01
 -1       114 7.89607E+00 1.79015E+04-1.94453E+03 1.91241E-06-2.17229E+03 8.16171E-08
 -1       115-1.89685E+01-3.29290E+04 1.86523E+02 3.21031E-06-6.38674E+03-1.25967E-06
 -1       116 2.54167E+01-1.38803E+05-4.64175E+03-5.57289E-07-2.24194E+04-1.60826E-06
 -1       117-6.78071E+01-8.90396E+03-1.91578E+03 6.83315E+02-7.57086E+03-8.39561E+01
 -1       118-2.43221E+02 4.93011E+04 3.20398E+03 1.88158E+03 1.12373E+04 4.20165E+01
 -1       119-8.03695E+01-1.12268E+04-1.89347E+03 2.15632E-06-7.66858E+03-1.67277E-06
 -1       120-3.48219E+02 4.30288E+04 3.20032E+03-5.20163E-06 1.22467E+04-3.57117E-06
 -1       121 2.80028E+01 1.72484E+04-9.84528E+02 2.50845E+02-1.14263E+03-1.43984E+01
 -1       122-9.20693E+01 2.05267E+04 3.77542E+02 1.29533E+03 6.09152E+02-1.24928E+01
 -1       123 1.49216E+01-3.02138E+04-2.34735E+03 6.41458E+02-9.77688E+03 3.11923E+01
 -1       124-7.40883E+01-1.00654E+04-1.90462E+03 3.52061E+02-7.61972E+03-7.16034E+01
 -1       125-2.95720E+02 4.61649E+04 3.20215E+03 7.57864E+02 1.17420E+04 6.78366E+01
 -1       126 2.56020E+01 1.71208E+04-9.84141E+02 4.25485E-06-1.12453E+03-1.63177E-06
 -1       127-1.50852E+02 1.63538E+04 2.23317E+02 2.26152E-07 6.29073E+02-3.26451E-06
 -1       128-2.51514E+01-3.06083E+04-2.34939E+03-2.65672E-06-9.31522E+03-3.35277E-06
 -1       129 3.95916E+02-1.67491E+04-3.19152E+06 6.65003E+00-3.93167E+04-2.30737E+01
 -1       130 1.50723E+02-9.09096E+04-7.85673E+04-1.47065E+01 2.43303E+04-3.81288E+01
 -1       131 8.77139E+00-1.81068E+04-6.91571E+04-4.84354E+00 2.67912E+04-8.10878E+00
 -1       132 2.02314E+00-3.49780E+05-2.16653E+06-9.50343E+00-9.57055E+05-1.23861E+01
 -1       133 3.95916E+02-1.66780E+04-3.19152E+06 5.06124E+01-3.93044E+04-1.08729E+01
 -1       134 1.50723E+02-9.09033E+04-7.85781E+04-1.04779E+01 2.43507E+04-3.13046E+01
 -1       135 8.74713E+00-1.81082E+04-6.91625E+04 7.37452E-01 2.67887E+04-1.87825E+00
 -1       136 2.04776E+00-3.49767E+05-2.16653E+06 4.72041E-01-9.57050E+05-1.53454E+00
 -1       137 2.72765E+02-4.80054E+04-1.63510E+06-4.06316E+01-5.29197E+03-2.57971E+01
 -1       138-4.89626E+00-3.08090E+04-6.89634E+04 9.22289E-01 1.69216E+04 4.11430E+00
 -1       139 5.44626E+00-1.85448E+05-1.11682E+06-4.65426E+00-4.66196E+05-6.88966E+00
 -1       140-8.04668E-01-1.64688E+05-2.71200E+06 2.51279E+00-5.31618E+05 7.09129E+00
 -1       141 6.90211E+00 1.24843E+04-4.42994E+04-9.21114E+00 5.33945E+03-5.88269E+00
 -1       142 2.88369E+00-8.07782E+05-1.10229E+06-1.51704E+01-9.69173E+05-7.25833E+00
 -1       143 6.88428E+00 1.24876E+04-4.43003E+04 1.56413E-01 5.33952E+03-1.64145E+00
 -1       144 2.92226E+00-8.07754E+05-1.10229E+06 2.34650E+00-9.69167E+05-4.96783E-01
 -1       145-3.73037E+00-1.05707E+04-5.22091E+04 3.83629E+00 1.35557E+04 3.72092E+00
 -1       146 4.93425E+00-3.98740E+05-5.72662E+05-9.90121E+00-4.81478E+05-4.81001E+00
 -1       147-1.29046E+00-6.08720E+05-1.59189E+06 6.79413E+00-9.61035E+05 5.07319E+00
 -1       148 5.63922E+00 1.77443E+04-2.65771E+04-1.02725E+01-1.11410E+03-2.56582E+00
 -1       149 3.13944E+00-9.18777E+05-4.89894E+05-1.50778E+01-6.87516E+05-1.80935E+00
 -1       150 5.67792E+00 1.77552E+04-2.65765E+04 1.10129E+00-1.11215E+03-6.44013E-01
 -1       151 3.16104E+00-9.18732E+05-4.89892E+05 5.77531E+00-6.87510E+05 5.64482E-01
 -1       152-3.05975E+00 7.60275E+03-3.32955E+04 5.18253E+00 2.79718E+03 2.04760E+00
 -1       153 4.40365E+00-4.50701E+05-2.58436E+05-1.08213E+01-3.43739E+05-1.36226E+00
 -1       154-1.54664E+00-8.71830E+05-7.78970E+05 8.02122E+00-8.10178E+05 2.05669E+00
 -1       155 4.35544E+00 2.01097E+04-1.39057E+04-9.23280E+00-4.21917E+03 1.97257E-01
 -1       156 2.18506E+00-8.21010E+05-2.02842E+05-1.20422E+01-4.19057E+05 1.85805E+00
 -1       157 4.41467E+00 2.01301E+04-1.39048E+04 3.43316E+00-4.21649E+03 3.75743E-01
 -1       158 2.19248E+00-8.20946E+05-2.02841E+05 1.09113E+01-4.19051E+05 1.26299E+00
 -1       159-2.49431E+00 1.33783E+04-2.07908E+04 4.90489E+00-8.26188E+02 4.70089E-01
 -1       160 3.33303E+00-4.00258E+05-1.08813E+05-9.19959E+00-2.11395E+05 1.24009E+00
 -1       161-1.47586E+00-8.66208E+05-3.45224E+05 6.64363E+00-5.39077E+05-2.36846E-01
 -1       162 2.33157E+00 2.01881E+04-6.79896E+03-4.78185E+00-4.29968E+03 1.90183E+00
 -1       163 3.27621E-01-6.50314E+05-8.01197E+04-2.42523E+00-2.37458E+05 3.90200E+00
 -1       164 2.50109E+00 2.02198E+04-6.79790E+03 7.13937E+00-4.29701E+03 9.65636E-01
 -1       165 3.69849E-01-6.50227E+05-8.01197E+04 1.77961E+01-2.37455E+05 1.78020E+00
 -1       166-1.81540E+00 1.62822E+04-1.22884E+04 4.12579E+00-2.41404E+03-6.94764E-01
 -1       167 1.22066E+00-3.14861E+05-4.37900E+04-2.52115E+00-1.20855E+05 2.69304E+00
 -1       168-6.35593E-01-7.28754E+05-1.46376E+05 4.98753E+00-3.20722E+05-1.52470E+00
 -1       169-7.07012E-01 2.00913E+04-2.87795E+03-3.89157E+00-3.69540E+03 3.35544E+00
 -1       170-4.97448E+00-4.77512E+05-3.04522E+04-3.62298E+00-1.28870E+05 3.69340E+00
 -1       171-7.27251E-01 2.01366E+04-2.87704E+03 1.20215E+01-3.69253E+03 2.02607E+00
 -1       172-5.09140E+00-4.77400E+05-3.04520E+04 2.70195E+01-1.28865E+05 1.35917E+00
 -1       173-4.44588E-01 1.74672E+04-7.32841E+03 4.45627E-01-2.55595E+03-1.26278E+00
 -1       174-2.39523E+00-2.28618E+05-1.68003E+04-2.96432E+00-6.62426E+04 2.81183E+00
 -1       175 5.86817E-01-5.57635E+05-6.12552E+04-2.93640E+00-1.80182E+05-2.18200E+00
 -1       176-6.32916E+00 2.01628E+04-9.62330E+02 1.91059E+01-2.97279E+03 2.56381E+00
 -1       177-8.17139E+00-3.26125E+05-1.07594E+04 4.98778E+01-6.71036E+04 5.18222E+00
 -1       178-5.62586E+00 2.02250E+04-9.60618E+02 1.90498E+01-2.97055E+03 7.15009E-01
 -1       179-7.48954E+00-3.25975E+05-1.07613E+04 3.81704E+01-6.71146E+04 2.87711E+00
 -1       180 1.02101E+00 1.80024E+04-4.44955E+03 3.12955E+00-2.38011E+03-2.06642E+00
 -1       181-8.64745E+00-1.52937E+05-5.87403E+03 3.51960E+01-3.49780E+04 3.00256E+00
 -1       182 3.94981E+00-3.96825E+05-2.59214E+04 6.16733E+00-9.73879E+04-1.42105E+00
 -1       183-1.31352E+01 2.04636E+04-1.04439E+02-2.84043E+01-2.11019E+03 7.46207E+00
 -1       184-2.78681E+01-1.97734E+05-3.42821E+03-8.46484E+01-3.34690E+04-4.41756E+00
 -1       185-1.43486E+01 2.05450E+04-1.03914E+02 2.66660E+01-2.10342E+03 7.14442E+00
 -1       186-3.06655E+01-1.97564E+05-3.42481E+03 5.43195E+01-3.34230E+04-3.18356E+00
 -1       187 5.85266E+00 1.80860E+04-2.77954E+03-2.25128E+01-2.05104E+03-6.81649E-01
 -1       188-1.55810E+01-8.87892E+04-1.55906E+03-5.65558E+01-1.71653E+04-7.66229E-01
 -1       189 6.10810E+00-2.57632E+05-1.13112E+04-5.61676E+01-5.07550E+04-3.36338E+00
 -1       190-2.56183E+01 2.14500E+04-1.08739E+02 2.00040E+02-2.35501E+03-8.28274E+00
 -1       191-1.03032E+01-8.83776E+04 5.42955E+02 5.04489E+02-9.27983E+03 2.53344E+01
 -1       192-2.17392E+01 2.15599E+04-1.05905E+02 4.09470E+01-2.35851E+03-1.35760E+01
 -1       193 2.12786E+00-8.80949E+04 5.35406E+02 6.73961E+01-9.44281E+03 1.79679E+01
 -1       194 5.23216E+00 1.79928E+04-1.94410E+03 5.03074E+01-2.16043E+03-6.49170E+00
 -1       195-3.52801E+01-3.32694E+04 1.40709E+02 3.54808E+02-6.38519E+03 7.80943E+00
 -1       196 1.57761E+01-1.38632E+05-4.63767E+03 1.39847E+02-2.22903E+04 7.25273E+00
 -1       197-6.78071E+01-8.90396E+03-1.91578E+03-6.83315E+02-7.57086E+03 8.39560E+01
 -1       198-2.43221E+02 4.93011E+04 3.20398E+03-1.88158E+03 1.12373E+04-4.20165E+01
 -1       199-7.40883E+01-1.00654E+04-1.90462E+03-3.52061E+02-7.61972E+03 7.16034E+01
 -1       200-2.95720E+02 4.61649E+04 3.20215E+03-7.57864E+02 1.17420E+04-6.78366E+01
 -1       201 2.80028E+01 1.72484E+04-9.84528E+02-2.50845E+02-1.14263E+03 1.43984E+01
 -1       202-9.20693E+01 2.05267E+04 3.77542E+02-1.29533E+03 6.09152E+02 1.24928E+01
 -1       203 1.49216E+01-3.02138E+04-2.34735E+03-6.41458E+02-9.77688E+03-3.11923E+01
 -1       204 3.43368E+02-1.67987E+05 3.34391E+06-1.28237E+02 1.02031E+05 1.77533E+02
 -1       205 1.93908E+00 3.89469E+05 2.24956E+06 1.27458E+01 1.01205E+06 1.52093E+01
 -1       206 3.43367E+02-1.68083E+05 3.34383E+06 1.55993E-07 1.02119E+05-1.61296E-07
 -1       207 2.08893E+00 3.89488E+05 2.24953E+06 1.86771E-07 1.01205E+06-3.12816E-07
 -1       208 2.47600E+02-1.35273E+05 1.63272E+06-9.33687E+01 6.09793E+04 1.12635E+02
 -1       209-2.77223E-01 1.37150E+05 2.83684E+06-4.63666E+00 5.72345E+05-9.44281E+00
 -1       210 5.30624E+00 1.87185E+05 1.08918E+06 1.13139E+01 5.20486E+05 1.50168E+01
 -1       211 3.43368E+02-1.68035E+05 3.34387E+06-9.93223E+01 1.02075E+05 1.55038E+02
 -1       212 2.01400E+00 3.89478E+05 2.24955E+06-1.86601E+00 1.01205E+06-1.91112E+00
 -1       213 2.47600E+02-1.35373E+05 1.63267E+06 1.94591E-07 6.10609E+04-6.20088E-08
 -1       214-2.02440E-01 1.37146E+05 2.83687E+06-1.28910E-09 5.72345E+05-1.96286E-07
 -1       215 5.35726E+00 1.87192E+05 1.08916E+06-4.57015E-08 5.20485E+05-1.39327E-07
 -1       216 3.02393E+00 8.53485E+05 1.12793E+06 1.67903E+01 1.01460E+06 7.83457E+00
 -1       217 3.10025E+00 8.53539E+05 1.12793E+06-3.11302E-07 1.01461E+06-2.89175E-07
 -1       218-1.39097E+00 6.33225E+05 1.65938E+06-8.22052E+00 1.00519E+06-5.58631E+00
 -1       219 4.92167E+00 4.34075E+05 5.41180E+05 1.52903E+01 5.09528E+05 8.61913E+00
 -1       220 3.06209E+00 8.53512E+05 1.12793E+06-4.17574E+00 1.01460E+06-1.57031E+00
 -1       221-1.27781E+00 6.33208E+05 1.65938E+06-2.43493E-07 1.00519E+06-2.31367E-07
 -1       222 4.94221E+00 4.34104E+05 5.41183E+05 3.31773E-07 5.09539E+05-8.56049E-08
 -1       223 2.36930E+00 9.68453E+05 5.00672E+05 1.53875E+01 7.09692E+05 1.42043E+00
 -1       224 2.37869E+00 9.68550E+05 5.00683E+05 8.94719E-07 7.09712E+05-1.27462E-07
 -1       225-1.41043E+00 9.06991E+05 8.05160E+05-8.59955E+00 8.49888E+05-1.98574E+00
 -1       226 3.98995E+00 4.93284E+05 2.37248E+05 1.46838E+01 3.53713E+05 2.81845E+00
 -1       227 2.37400E+00 9.68502E+05 5.00678E+05-7.16411E+00 7.09702E+05-1.79143E+00
 -1       228-1.36755E+00 9.06953E+05 8.05156E+05 1.05699E-06 8.49880E+05 1.00519E-07
 -1       229 4.03330E+00 4.93343E+05 2.37255E+05-3.72056E-09 3.53731E+05 4.32122E-09
 -1       230 6.30256E-01 8.63959E+05 2.09300E+05 1.13210E+01 4.31670E+05-3.30306E+00
 -1       231 7.12835E-01 8.64101E+05 2.09311E+05-1.58715E-06 4.31691E+05-2.58242E-08
 -1       232-7.77578E-01 9.07432E+05 3.54580E+05-6.68851E+00 5.65165E+05 8.07928E-01
 -1       233 2.43007E+00 4.41842E+05 9.81363E+04 1.17148E+01 2.13482E+05-1.53772E+00
 -1       234 6.71545E-01 8.64030E+05 2.09306E+05-1.17298E+01 4.31680E+05-2.58801E+00
 -1       235-7.31646E-01 9.07372E+05 3.54575E+05-1.18687E-06 5.65155E+05-3.43312E-07
 -1       236 2.53054E+00 4.41934E+05 9.81433E+04-4.54181E-07 2.13503E+05-1.91618E-07
 -1       237-2.74490E+00 6.89014E+05 8.60140E+04 7.62131E-01 2.45239E+05-6.96366E+00
 -1       238-2.95112E+00 6.89200E+05 8.60227E+04-1.28518E-06 2.45262E+05-2.50557E-07
 -1       239 3.03557E-01 7.69419E+05 1.48333E+05-4.48466E+00 3.37879E+05 2.69194E+00
 -1       240-9.77301E-02 3.54399E+05 3.99382E+04 3.85438E+00 1.20446E+05-4.64162E+00
 -1       241-2.84801E+00 6.89107E+05 8.60184E+04-1.83071E+01 2.45251E+05-3.95545E+00
 -1       242 2.41875E-01 7.69336E+05 1.48328E+05-2.45782E-06 3.37869E+05 1.50394E-07
 -1       243-3.15630E-02 3.54525E+05 3.99435E+04 6.47607E-07 1.20467E+05 2.08991E-07
 -1       244-7.42801E+00 5.13500E+05 3.56923E+04 3.15898E-01 1.34591E+05-8.47926E+00
 -1       245-6.52302E+00 5.13741E+05 3.57003E+04 1.51098E-06 1.34605E+05 1.70593E-07
 -1       246 2.60048E+00 5.97030E+05 6.07393E+04 3.96758E+00 1.91386E+05 4.42087E+00
 -1       247-4.51303E+00 2.66703E+05 1.65424E+04 2.89669E+00 6.54077E+04-6.62994E+00
 -1       248-6.97552E+00 5.13620E+05 3.56963E+04-2.75394E+01 1.34598E+05-4.78475E+00
 -1       249 2.94948E+00 5.96926E+05 6.07353E+04 1.05147E-06 1.91373E+05-1.71500E-06
 -1       250-4.08063E+00 2.66869E+05 1.65488E+04 1.24950E-06 6.54292E+04-1.63032E-07
 -1       251-1.66153E+01 3.60295E+05 1.52737E+04-5.32883E+01 7.17094E+04-1.33377E+01
 -1       252-1.93137E+01 3.60580E+05 1.52801E+04-8.25504E-06 7.17640E+04-6.30506E-06
 -1       253 4.79251E+00 4.35124E+05 2.46770E+04-4.16861E+00 1.05167E+05 4.22717E+00
 -1       254-1.00750E+01 1.90185E+05 7.16882E+03-3.54930E+01 3.43081E+04-8.82124E+00
 -1       255-1.79645E+01 3.60438E+05 1.52769E+04-3.92299E+01 7.17367E+04-8.18316E+00
 -1       256 3.89679E+00 4.34986E+05 2.46730E+04-6.91480E-07 1.05166E+05-2.20803E-06
 -1       257-1.07216E+01 1.90395E+05 7.16987E+03-3.43333E-06 3.43348E+04-1.49942E-06
 -1       258-2.54464E+01 2.30385E+05 6.84602E+03 7.40260E+01 3.68563E+04-5.47446E+00
 -1       259-1.55919E+01 2.30786E+05 6.85634E+03 4.09086E-06 3.67833E+04 1.59253E-06
 -1       260 1.28062E+01 2.95562E+05 1.00631E+04 5.80533E+01 5.63728E+04 9.19559E+00
 -1       261-2.42114E+01 1.25578E+05 3.16353E+03 5.11857E+01 1.67488E+04-8.75675E+00
 -1       262-2.05192E+01 2.30586E+05 6.85118E+03-5.52364E+01 3.68198E+04-3.92294E+00
 -1       263 1.63816E+01 2.95411E+05 1.00597E+04-3.10258E-06 5.63197E+04-3.55234E-06
 -1       264-2.04968E+01 1.25844E+05 3.18527E+03 7.56443E-07 1.67771E+04 1.43730E-06
 -1       265-5.44400E+01 1.18560E+05 2.26523E+03-4.98790E+02 1.34962E+04-4.16300E+01
 -1       266-8.62619E+01 1.18890E+05 2.27431E+03-5.18033E-06 1.39518E+04 2.21921E-06
 -1       267 8.93505E+00 1.76613E+05 3.77460E+03-1.32822E+02 2.74304E+04-3.65049E+00
 -1       268-2.27098E+01 6.98104E+04 1.15464E+03-3.46871E+02 6.13835E+03-1.73901E+01
 -1       269-7.03509E+01 1.18725E+05 2.26977E+03-7.36649E+01 1.37240E+04-2.78511E+01
 -1       270-2.04151E+00 1.76366E+05 3.77171E+03-3.21921E-06 2.75548E+04 3.04267E-06
 -1       271-3.47431E+01 7.01375E+04 1.11149E+03-9.00904E-07 6.19772E+03-1.49863E-06
 -1       272 3.01207E+01 5.02065E+04-2.34185E+02 2.02471E+03 4.73028E+03 2.61743E+01
 -1       273 1.36516E+02 4.49030E+04-2.66762E+02 6.57990E-08 2.49695E+03-4.00230E-06
 -1       274 6.24505E+01 6.96800E+04 1.84488E+03 6.35108E+02 1.24579E+04 4.64518E+01
 -1       275-8.22880E+01 2.03231E+04-8.08426E+02 1.34113E+03-1.96231E+02-3.73679E+01
 -1       276 8.33184E+01 4.75548E+04-2.50473E+02 8.63108E+02 3.61362E+03 5.13184E+01
 -1       277 9.97321E+01 6.95825E+04 1.82013E+03-1.03048E-06 1.18859E+04-4.57605E-07
 -1       278-3.53686E+01 1.63854E+04-6.50007E+02-6.37746E-07-9.25820E+02-2.19500E-06
 -1       279 3.43368E+02-1.67987E+05 3.34391E+06 1.28237E+02 1.02031E+05-1.77533E+02
 -1       280 1.93908E+00 3.89469E+05 2.24956E+06-1.27458E+01 1.01205E+06-1.52093E+01
 -1       281 3.43368E+02-1.68035E+05 3.34387E+06 9.93223E+01 1.02075E+05-1.55038E+02
 -1       282 2.01400E+00 3.89478E+05 2.24955E+06 1.86601E+00 1.01205E+06 1.91112E+00
 -1       283 2.47600E+02-1.35273E+05 1.63272E+06 9.33687E+01 6.09793E+04-1.12635E+02
 -1       284-2.77223E-01 1.37150E+05 2.83684E+06 4.63666E+00 5.72345E+05 9.44281E+00
 -1       285 5.30624E+00 1.87185E+05 1.08918E+06-1.13139E+01 5.20486E+05-1.50168E+01
 -1       286 3.02393E+00 8.53485E+05 1.12793E+06-1.67903E+01 1.01460E+06-7.83457E+00
 -1       287 3.06209E+00 8.53512E+05 1.12793E+06 4.17574E+00 1.01460E+06 1.57031E+00
 -1       288-1.39097E+00 6.33225E+05 1.65938E+06 8.22052E+00 1.00519E+06 5.58631E+00
 -1       289 4.92167E+00 4.34075E+05 5.41180E+05-1.52903E+01 5.09528E+05-8.61913E+00
 -1       290 2.36930E+00 9.68453E+05 5.00672E+05-1.53875E+01 7.09692E+05-1.42043E+00
 -1       291 2.37400E+00 9.68502E+05 5.00678E+05 7.16411E+00 7.09702E+05 1.79143E+00
 -1       292-1.41043E+00 9.06991E+05 8.05160E+05 8.59955E+00 8.49888E+05 1.98574E+00
 -1       293 3.98995E+00 4.93284E+05 2.37248E+05-1.46838E+01 3.53713E+05-2.81845E+00
 -1       294 6.30255E-01 8.63959E+05 2.09300E+05-1.13210E+01 4.31670E+05 3.30306E+00
 -1       295 6.71545E-01 8.64030E+05 2.09306E+05 1.17298E+01 4.31680E+05 2.58801E+00
 -1       296-7.77578E-01 9.07432E+05 3.54580E+05 6.68851E+00 5.65165E+05-8.07929E-01
 -1       297 2.43007E+00 4.41842E+05 9.81363E+04-1.17148E+01 2.13482E+05 1.53772E+00
 -1       298-2.74490E+00 6.89014E+05 8.60140E+04-7.62128E-01 2.45239E+05 6.96366E+00
 -1       299-2.84801E+00 6.89107E+05 8.60184E+04 1.83071E+01 2.45251E+05 3.95545E+00
 -1       300 3.03557E-01 7.69419E+05 1.48333E+05 4.48467E+00 3.37879E+05-2.69194E+00
 -1       301-9.77301E-02 3.54399E+05 3.99382E+04-3.85437E+00 1.20446E+05 4.64162E+00
 -1       302-7.42801E+00 5.13500E+05 3.56923E+04-3.15906E-01 1.34591E+05 8.47926E+00
 -1       303-6.97552E+00 5.13620E+05 3.56963E+04 2.75394E+01 1.34598E+05 4.78475E+00
 -1       304 2.60048E+00 5.97030E+05 6.07393E+04-3.96758E+00 1.91386E+05-4.42087E+00
 -1       305-4.51303E+00 2.66703E+05 1.65424E+04-2.89669E+00 6.54077E+04 6.62993E+00
 -1       306-1.66153E+01 3.60295E+05 1.52737E+04 5.32883E+01 7.17094E+04 1.33378E+01
 -1       307-1.79645E+01 3.60438E+05 1.52769E+04 3.92299E+01 7.17367E+04 8.18316E+00
 -1       308 4.79251E+00 4.35124E+05 2.46770E+04 4.16860E+00 1.05167E+05-4.22717E+00
 -1       309-1.00750E+01 1.90185E+05 7.16882E+03 3.54930E+01 3.43081E+04 8.82124E+00
 -1       310-2.54464E+01 2.30385E+05 6.84602E+03-7.40260E+01 3.68563E+04 5.47446E+00
 -1       311-2.05192E+01 2.30586E+05 6.85118E+03 5.52364E+01 3.68198E+04 3.92294E+00
 -1       312 1.28062E+01 2.95562E+05 1.00631E+04-5.80533E+01 5.63728E+04-9.19559E+00
 -1       313-2.42114E+01 1.25578E+05 3.16353E+03-5.11857E+01 1.67488E+04 8.75675E+00
 -1       314-5.44400E+01 1.18560E+05 2.26523E+03 4.98790E+02 1.34962E+04 4.16300E+01
 -1       315-7.03509E+01 1.18725E+05 2.26977E+03 7.36649E+01 1.37240E+04 2.78511E+01
 -1       316 8.93505E+00 1.76613E+05 3.77460E+03 1.32822E+02 2.74304E+04 3.65049E+00
 -1       317-2.27098E+01 6.98104E+04 1.15464E+03 3.46871E+02 6.13835E+03 1.73901E+01
 -1       318 3.01207E+01 5.02065E+04-2.34185E+02-2.02471E+03 4.73028E+03-2.61743E+01
 -1       319 8.33184E+01 4.75548E+04-2.50473E+02-8.63108E+02 3.61362E+03-5.13184E+01
 -1       320 6.24505E+01 6.96800E+04 1.84488E+03-6.35108E+02 1.24579E+04-4.64518E+01
 -1       321-8.22880E+01 2.03231E+04-8.08426E+02-1.34113E+03-1.96231E+02 3.73679E+01
 -3
 9999
